# vtk DataFile Version 4.2
vtk output
ASCII
DATASET UNSTRUCTURED_GRID
POINTS 13235 float
169.999 0 -11.001 109.498 -60.501 -11.001 169.999 2.14561e-16 11.001 
109.498 -60.501 11.001 169.999 2.75794e-16 10.001 109.498 -60.501 10.001 
169.999 0 -10.001 109.498 -60.501 -10.001 200 2.44929e-15 10 
0 2.44929e-15 10 200 1.95943e-15 8 0 1.95943e-15 8 
190 2.69447e-15 11.001 170 2.69447e-15 11.001 190 2.44954e-15 10.001 
170 2.44954e-15 10.001 100 2.69447e-15 11.001 50 2.69447e-15 11.001 
100 2.44954e-15 10.001 50 2.44954e-15 10.001 168.019 -0.032393 -11.001 
166.042 -0.129537 -11.001 164.069 -0.291329 -11.001 162.102 -0.517594 -11.001 
160.144 -0.808092 -11.001 158.196 -1.16251 -11.001 156.261 -1.58047 -11.001 
154.34 -2.06152 -11.001 152.436 -2.60515 -11.001 150.552 -3.21078 -11.001 
148.688 -3.87776 -11.001 146.846 -4.60536 -11.001 145.03 -5.39283 -11.001 
143.24 -6.2393 -11.001 141.479 -7.14388 -11.001 139.749 -8.1056 -11.001 
138.05 -9.12342 -11.001 136.386 -10.1963 -11.001 134.759 -11.323 -11.001 
133.168 -12.5023 -11.001 131.618 -13.7331 -11.001 130.108 -15.0139 -11.001 
128.641 -16.3435 -11.001 127.218 -17.7203 -11.001 125.841 -19.143 -11.001 
124.512 -20.6099 -11.001 123.231 -22.1196 -11.001 122 -23.6703 -11.001 
120.821 -25.2605 -11.001 119.694 -26.8884 -11.001 118.621 -28.5524 -11.001 
117.604 -30.2505 -11.001 116.642 -31.981 -11.001 115.737 -33.7421 -11.001 
114.891 -35.5318 -11.001 114.103 -37.3483 -11.001 113.376 -39.1895 -11.001 
112.709 -41.0536 -11.001 112.103 -42.9385 -11.001 111.56 -44.8422 -11.001 
111.078 -46.7627 -11.001 110.661 -48.6978 -11.001 110.306 -50.6457 -11.001 
110.016 -52.604 -11.001 109.789 -54.5709 -11.001 109.628 -56.544 -11.001 
109.53 -58.5215 -11.001 168.019 -0.032393 11.001 166.042 -0.129537 11.001 
164.069 -0.291329 11.001 162.102 -0.517594 11.001 160.144 -0.808092 11.001 
158.196 -1.16251 11.001 156.261 -1.58047 11.001 154.34 -2.06152 11.001 
152.436 -2.60515 11.001 150.552 -3.21078 11.001 148.688 -3.87776 11.001 
146.846 -4.60536 11.001 145.03 -5.39283 11.001 143.24 -6.2393 11.001 
141.479 -7.14388 11.001 139.749 -8.1056 11.001 138.05 -9.12342 11.001 
136.386 -10.1963 11.001 134.759 -11.323 11.001 133.168 -12.5023 11.001 
131.618 -13.7331 11.001 130.108 -15.0139 11.001 128.641 -16.3435 11.001 
127.218 -17.7203 11.001 125.841 -19.143 11.001 124.512 -20.6099 11.001 
123.231 -22.1196 11.001 122 -23.6703 11.001 120.821 -25.2605 11.001 
119.694 -26.8884 11.001 118.621 -28.5524 11.001 117.604 -30.2505 11.001 
116.642 -31.981 11.001 115.737 -33.7421 11.001 114.891 -35.5318 11.001 
114.103 -37.3483 11.001 113.376 -39.1895 11.001 112.709 -41.0536 11.001 
112.103 -42.9385 11.001 111.56 -44.8422 11.001 111.078 -46.7627 11.001 
110.661 -48.6978 11.001 110.306 -50.6457 11.001 110.016 -52.604 11.001 
109.789 -54.5709 11.001 109.628 -56.544 11.001 109.53 -58.5215 11.001 
169.999 -1.9103 -10.8339 169.999 -3.76256 -10.3376 169.999 -5.5005 -9.52715 
169.999 -7.07131 -8.42725 169.999 -8.42725 -7.07131 169.999 -9.52715 -5.5005 
169.999 -10.3376 -3.76256 169.999 -10.8339 -1.9103 169.999 -11.001 -3.64261e-14 
169.999 -10.8339 1.9103 169.999 -10.3376 3.76256 169.999 -9.52715 5.5005 
169.999 -8.42725 7.07131 169.999 -7.07131 8.42725 169.999 -5.5005 9.52715 
169.999 -3.76256 10.3376 169.999 -1.9103 10.8339 111.408 -60.501 -10.8339 
113.261 -60.501 -10.3376 114.998 -60.501 -9.52715 116.569 -60.501 -8.42725 
117.925 -60.501 -7.07131 119.025 -60.501 -5.5005 119.836 -60.501 -3.76256 
120.332 -60.501 -1.9103 120.499 -60.501 -3.64261e-14 120.332 -60.501 1.9103 
119.836 -60.501 3.76256 119.025 -60.501 5.5005 117.925 -60.501 7.07131 
116.569 -60.501 8.42725 114.998 -60.501 9.52715 113.261 -60.501 10.3376 
111.408 -60.501 10.8339 168.019 -0.032393 10.001 166.042 -0.129537 10.001 
164.069 -0.291329 10.001 162.102 -0.517594 10.001 160.144 -0.808092 10.001 
158.196 -1.16251 10.001 156.261 -1.58047 10.001 154.34 -2.06152 10.001 
152.436 -2.60515 10.001 150.552 -3.21078 10.001 148.688 -3.87776 10.001 
146.846 -4.60536 10.001 145.03 -5.39283 10.001 143.24 -6.2393 10.001 
141.479 -7.14388 10.001 139.749 -8.1056 10.001 138.05 -9.12342 10.001 
136.386 -10.1963 10.001 134.759 -11.323 10.001 133.168 -12.5023 10.001 
131.618 -13.7331 10.001 130.108 -15.0139 10.001 128.641 -16.3435 10.001 
127.218 -17.7203 10.001 125.841 -19.143 10.001 124.512 -20.6099 10.001 
123.231 -22.1196 10.001 122 -23.6703 10.001 120.821 -25.2605 10.001 
119.694 -26.8884 10.001 118.621 -28.5524 10.001 117.604 -30.2505 10.001 
116.642 -31.981 10.001 115.737 -33.7421 10.001 114.891 -35.5318 10.001 
114.103 -37.3483 10.001 113.376 -39.1895 10.001 112.709 -41.0536 10.001 
112.103 -42.9385 10.001 111.56 -44.8422 10.001 111.078 -46.7627 10.001 
110.661 -48.6978 10.001 110.306 -50.6457 10.001 110.016 -52.604 10.001 
109.789 -54.5709 10.001 109.628 -56.544 10.001 109.53 -58.5215 10.001 
168.019 -0.032393 -10.001 166.042 -0.129537 -10.001 164.069 -0.291329 -10.001 
162.102 -0.517594 -10.001 160.144 -0.808092 -10.001 158.196 -1.16251 -10.001 
156.261 -1.58047 -10.001 154.34 -2.06152 -10.001 152.436 -2.60515 -10.001 
150.552 -3.21078 -10.001 148.688 -3.87776 -10.001 146.846 -4.60536 -10.001 
145.03 -5.39283 -10.001 143.24 -6.2393 -10.001 141.479 -7.14388 -10.001 
139.749 -8.1056 -10.001 138.05 -9.12342 -10.001 136.386 -10.1963 -10.001 
134.759 -11.323 -10.001 133.168 -12.5023 -10.001 131.618 -13.7331 -10.001 
130.108 -15.0139 -10.001 128.641 -16.3435 -10.001 127.218 -17.7203 -10.001 
125.841 -19.143 -10.001 124.512 -20.6099 -10.001 123.231 -22.1196 -10.001 
122 -23.6703 -10.001 120.821 -25.2605 -10.001 119.694 -26.8884 -10.001 
118.621 -28.5524 -10.001 117.604 -30.2505 -10.001 116.642 -31.981 -10.001 
115.737 -33.7421 -10.001 114.891 -35.5318 -10.001 114.103 -37.3483 -10.001 
113.376 -39.1895 -10.001 112.709 -41.0536 -10.001 112.103 -42.9385 -10.001 
111.56 -44.8422 -10.001 111.078 -46.7627 -10.001 110.661 -48.6978 -10.001 
110.306 -50.6457 -10.001 110.016 -52.604 -10.001 109.789 -54.5709 -10.001 
109.628 -56.544 -10.001 109.53 -58.5215 -10.001 169.999 -1.9511 -9.80883 
169.999 -3.82722 -9.23972 169.999 -5.55626 -8.31553 169.999 -7.07177 -7.07177 
169.999 -8.31553 -5.55626 169.999 -9.23972 -3.82722 169.999 -9.80883 -1.9511 
169.999 -10.001 -1.97102e-14 169.999 -9.80883 1.9511 169.999 -9.23972 3.82722 
169.999 -8.31553 5.55626 169.999 -7.07177 7.07177 169.999 -5.55626 8.31553 
169.999 -3.82722 9.23972 169.999 -1.9511 9.80883 111.449 -60.501 -9.80883 
113.325 -60.501 -9.23972 115.054 -60.501 -8.31553 116.57 -60.501 -7.07177 
117.814 -60.501 -5.55626 118.738 -60.501 -3.82722 119.307 -60.501 -1.9511 
119.499 -60.501 -1.97102e-14 119.307 -60.501 1.9511 118.738 -60.501 3.82722 
117.814 -60.501 5.55626 116.57 -60.501 7.07177 115.054 -60.501 8.31553 
113.325 -60.501 9.23972 111.449 -60.501 9.80883 200 -1.9509 9.80785 
200 -3.82683 9.2388 200 -5.5557 8.3147 200 -7.07107 7.07107 
200 -8.3147 5.5557 200 -9.2388 3.82683 200 -9.80785 1.9509 
200 -10 3.3919e-14 200 -9.80785 -1.9509 200 -9.2388 -3.82683 
200 -8.3147 -5.5557 200 -7.07107 -7.07107 200 -5.5557 -8.3147 
200 -3.82683 -9.2388 200 -1.9509 -9.80785 200 -7.22789e-14 -10 
200 1.9509 -9.80785 200 3.82683 -9.2388 200 5.5557 -8.3147 
200 7.07107 -7.07107 200 8.3147 -5.5557 200 9.2388 -3.82683 
200 9.80785 -1.9509 200 10 -4.62459e-14 200 9.80785 1.9509 
200 9.2388 3.82683 200 8.3147 5.5557 200 7.07107 7.07107 
200 5.5557 8.3147 200 3.82683 9.2388 200 1.9509 9.80785 
2 2.44929e-15 10 4 2.44929e-15 10 6 2.44929e-15 10 
8 2.44929e-15 10 10 2.44929e-15 10 12 2.44929e-15 10 
14 2.44929e-15 10 16 2.44929e-15 10 18 2.44929e-15 10 
20 2.44929e-15 10 22 2.44929e-15 10 24 2.44929e-15 10 
26 2.44929e-15 10 28 2.44929e-15 10 30 2.44929e-15 10 
32 2.44929e-15 10 34 2.44929e-15 10 36 2.44929e-15 10 
38 2.44929e-15 10 40 2.44929e-15 10 42 2.44929e-15 10 
44 2.44929e-15 10 46 2.44929e-15 10 48 2.44929e-15 10 
50 2.44929e-15 10 52 2.44929e-15 10 54 2.44929e-15 10 
56 2.44929e-15 10 58 2.44929e-15 10 60 2.44929e-15 10 
62 2.44929e-15 10 64 2.44929e-15 10 66 2.44929e-15 10 
68 2.44929e-15 10 70 2.44929e-15 10 72 2.44929e-15 10 
74 2.44929e-15 10 76 2.44929e-15 10 78 2.44929e-15 10 
80 2.44929e-15 10 82 2.44929e-15 10 84 2.44929e-15 10 
86 2.44929e-15 10 88 2.44929e-15 10 90 2.44929e-15 10 
92 2.44929e-15 10 94 2.44929e-15 10 96 2.44929e-15 10 
98 2.44929e-15 10 100 2.44929e-15 10 102 2.44929e-15 10 
104 2.44929e-15 10 106 2.44929e-15 10 108 2.44929e-15 10 
110 2.44929e-15 10 112 2.44929e-15 10 114 2.44929e-15 10 
116 2.44929e-15 10 118 2.44929e-15 10 120 2.44929e-15 10 
122 2.44929e-15 10 124 2.44929e-15 10 126 2.44929e-15 10 
128 2.44929e-15 10 130 2.44929e-15 10 132 2.44929e-15 10 
134 2.44929e-15 10 136 2.44929e-15 10 138 2.44929e-15 10 
140 2.44929e-15 10 142 2.44929e-15 10 144 2.44929e-15 10 
146 2.44929e-15 10 148 2.44929e-15 10 150 2.44929e-15 10 
152 2.44929e-15 10 154 2.44929e-15 10 156 2.44929e-15 10 
158 2.44929e-15 10 160 2.44929e-15 10 162 2.44929e-15 10 
164 2.44929e-15 10 166 2.44929e-15 10 168 2.44929e-15 10 
170 2.44929e-15 10 172 2.44929e-15 10 174 2.44929e-15 10 
176 2.44929e-15 10 178 2.44929e-15 10 180 2.44929e-15 10 
182 2.44929e-15 10 184 2.44929e-15 10 186 2.44929e-15 10 
188 2.44929e-15 10 190 2.44929e-15 10 192 2.44929e-15 10 
194 2.44929e-15 10 196 2.44929e-15 10 198 2.44929e-15 10 
0 -1.9509 9.80785 0 -3.82683 9.2388 0 -5.5557 8.3147 
0 -7.07107 7.07107 0 -8.3147 5.5557 0 -9.2388 3.82683 
0 -9.80785 1.9509 0 -10 3.3919e-14 0 -9.80785 -1.9509 
0 -9.2388 -3.82683 0 -8.3147 -5.5557 0 -7.07107 -7.07107 
0 -5.5557 -8.3147 0 -3.82683 -9.2388 0 -1.9509 -9.80785 
0 -7.22789e-14 -10 0 1.9509 -9.80785 0 3.82683 -9.2388 
0 5.5557 -8.3147 0 7.07107 -7.07107 0 8.3147 -5.5557 
0 9.2388 -3.82683 0 9.80785 -1.9509 0 10 -4.62459e-14 
0 9.80785 1.9509 0 9.2388 3.82683 0 8.3147 5.5557 
0 7.07107 7.07107 0 5.5557 8.3147 0 3.82683 9.2388 
0 1.9509 9.80785 200 -1.91453 7.76753 200 -3.71779 7.08365 
200 -5.30498 5.98809 200 -6.58387 4.54452 200 -7.48013 2.83684 
200 -7.94167 0.964293 200 -7.94167 -0.964293 200 -7.48013 -2.83684 
200 -6.58387 -4.54452 200 -5.30498 -5.98809 200 -3.71779 -7.08365 
200 -1.91453 -7.76753 200 -9.79717e-16 -8 200 1.91453 -7.76753 
200 3.71779 -7.08365 200 5.30498 -5.98809 200 6.58387 -4.54452 
200 7.48013 -2.83684 200 7.94167 -0.964293 200 7.94167 0.964293 
200 7.48013 2.83684 200 6.58387 4.54452 200 5.30498 5.98809 
200 3.71779 7.08365 200 1.91453 7.76753 0 -1.91453 7.76753 
0 -3.71779 7.08365 0 -5.30498 5.98809 0 -6.58387 4.54452 
0 -7.48013 2.83684 0 -7.94167 0.964293 0 -7.94167 -0.964293 
0 -7.48013 -2.83684 0 -6.58387 -4.54452 0 -5.30498 -5.98809 
0 -3.71779 -7.08365 0 -1.91453 -7.76753 0 -9.79717e-16 -8 
0 1.91453 -7.76753 0 3.71779 -7.08365 0 5.30498 -5.98809 
0 6.58387 -4.54452 0 7.48013 -2.83684 0 7.94167 -0.964293 
0 7.94167 0.964293 0 7.48013 2.83684 0 6.58387 4.54452 
0 5.30498 5.98809 0 3.71779 7.08365 0 1.91453 7.76753 
2 1.95943e-15 8 4 1.95943e-15 8 6 1.95943e-15 8 
8 1.95943e-15 8 10 1.95943e-15 8 12 1.95943e-15 8 
14 1.95943e-15 8 16 1.95943e-15 8 18 1.95943e-15 8 
20 1.95943e-15 8 22 1.95943e-15 8 24 1.95943e-15 8 
26 1.95943e-15 8 28 1.95943e-15 8 30 1.95943e-15 8 
32 1.95943e-15 8 34 1.95943e-15 8 36 1.95943e-15 8 
38 1.95943e-15 8 40 1.95943e-15 8 42 1.95943e-15 8 
44 1.95943e-15 8 46 1.95943e-15 8 48 1.95943e-15 8 
50 1.95943e-15 8 52 1.95943e-15 8 54 1.95943e-15 8 
56 1.95943e-15 8 58 1.95943e-15 8 60 1.95943e-15 8 
62 1.95943e-15 8 64 1.95943e-15 8 66 1.95943e-15 8 
68 1.95943e-15 8 70 1.95943e-15 8 72 1.95943e-15 8 
74 1.95943e-15 8 76 1.95943e-15 8 78 1.95943e-15 8 
80 1.95943e-15 8 82 1.95943e-15 8 84 1.95943e-15 8 
86 1.95943e-15 8 88 1.95943e-15 8 90 1.95943e-15 8 
92 1.95943e-15 8 94 1.95943e-15 8 96 1.95943e-15 8 
98 1.95943e-15 8 100 1.95943e-15 8 102 1.95943e-15 8 
104 1.95943e-15 8 106 1.95943e-15 8 108 1.95943e-15 8 
110 1.95943e-15 8 112 1.95943e-15 8 114 1.95943e-15 8 
116 1.95943e-15 8 118 1.95943e-15 8 120 1.95943e-15 8 
122 1.95943e-15 8 124 1.95943e-15 8 126 1.95943e-15 8 
128 1.95943e-15 8 130 1.95943e-15 8 132 1.95943e-15 8 
134 1.95943e-15 8 136 1.95943e-15 8 138 1.95943e-15 8 
140 1.95943e-15 8 142 1.95943e-15 8 144 1.95943e-15 8 
146 1.95943e-15 8 148 1.95943e-15 8 150 1.95943e-15 8 
152 1.95943e-15 8 154 1.95943e-15 8 156 1.95943e-15 8 
158 1.95943e-15 8 160 1.95943e-15 8 162 1.95943e-15 8 
164 1.95943e-15 8 166 1.95943e-15 8 168 1.95943e-15 8 
170 1.95943e-15 8 172 1.95943e-15 8 174 1.95943e-15 8 
176 1.95943e-15 8 178 1.95943e-15 8 180 1.95943e-15 8 
182 1.95943e-15 8 184 1.95943e-15 8 186 1.95943e-15 8 
188 1.95943e-15 8 190 1.95943e-15 8 192 1.95943e-15 8 
194 1.95943e-15 8 196 1.95943e-15 8 198 1.95943e-15 8 
190 -1.9643 10.8242 190 -3.86547 10.2995 190 -5.64241 9.4438 
190 -7.23798 8.28454 190 -8.60093 6.85901 190 -9.68743 5.21303 
190 -10.4626 3.3995 190 -10.9014 1.4767 190 -10.9899 -0.493558 
190 -10.7252 -2.44795 190 -10.1157 -4.32367 190 -9.18114 -6.06042 
190 -7.95147 -7.60238 190 -6.46623 -8.9 190 -4.77316 -9.91156 
190 -2.92667 -10.6046 190 -0.986122 -10.9567 190 0.986122 -10.9567 
190 2.92667 -10.6046 190 4.77316 -9.91156 190 6.46623 -8.9 
190 7.95147 -7.60238 190 9.18114 -6.06042 190 10.1157 -4.32367 
190 10.7252 -2.44795 190 10.9899 -0.493558 190 10.9014 1.4767 
190 10.4626 3.3995 190 9.68743 5.21303 190 8.60093 6.85901 
190 7.23798 8.28454 190 5.64241 9.4438 190 3.86547 10.2995 
190 1.9643 10.8242 172 2.69447e-15 11.001 174 2.69447e-15 11.001 
176 2.69447e-15 11.001 178 2.69447e-15 11.001 180 2.69447e-15 11.001 
182 2.69447e-15 11.001 184 2.69447e-15 11.001 186 2.69447e-15 11.001 
188 2.69447e-15 11.001 170 -1.9643 10.8242 170 -3.86547 10.2995 
170 -5.64241 9.4438 170 -7.23798 8.28454 170 -8.60093 6.85901 
170 -9.68743 5.21303 170 -10.4626 3.3995 170 -10.9014 1.4767 
170 -10.9899 -0.493558 170 -10.7252 -2.44795 170 -10.1157 -4.32367 
170 -9.18114 -6.06042 170 -7.95147 -7.60238 170 -6.46623 -8.9 
170 -4.77316 -9.91156 170 -2.92667 -10.6046 170 -0.986122 -10.9567 
170 0.986122 -10.9567 170 2.92667 -10.6046 170 4.77316 -9.91156 
170 6.46623 -8.9 170 7.95147 -7.60238 170 9.18114 -6.06042 
170 10.1157 -4.32367 170 10.7252 -2.44795 170 10.9899 -0.493558 
170 10.9014 1.4767 170 10.4626 3.3995 170 9.68743 5.21303 
170 8.60093 6.85901 170 7.23798 8.28454 170 5.64241 9.4438 
170 3.86547 10.2995 170 1.9643 10.8242 190 -1.9511 9.80883 
190 -3.82722 9.23972 190 -5.55626 8.31553 190 -7.07177 7.07177 
190 -8.31553 5.55626 190 -9.23972 3.82722 190 -9.80883 1.9511 
190 -10.001 2.94811e-14 190 -9.80883 -1.9511 190 -9.23972 -3.82722 
190 -8.31553 -5.55626 190 -7.07177 -7.07177 190 -5.55626 -8.31553 
190 -3.82722 -9.23972 190 -1.9511 -9.80883 190 -4.11968e-14 -10.001 
190 1.9511 -9.80883 190 3.82722 -9.23972 190 5.55626 -8.31553 
190 7.07177 -7.07177 190 8.31553 -5.55626 190 9.23972 -3.82722 
190 9.80883 -1.9511 190 10.001 -2.84852e-14 190 9.80883 1.9511 
190 9.23972 3.82722 190 8.31553 5.55626 190 7.07177 7.07177 
190 5.55626 8.31553 190 3.82722 9.23972 190 1.9511 9.80883 
170 -1.9511 9.80883 170 -3.82722 9.23972 170 -5.55626 8.31553 
170 -7.07177 7.07177 170 -8.31553 5.55626 170 -9.23972 3.82722 
170 -9.80883 1.9511 170 -10.001 2.94811e-14 170 -9.80883 -1.9511 
170 -9.23972 -3.82722 170 -8.31553 -5.55626 170 -7.07177 -7.07177 
170 -5.55626 -8.31553 170 -3.82722 -9.23972 170 -1.9511 -9.80883 
170 -4.11968e-14 -10.001 170 1.9511 -9.80883 170 3.82722 -9.23972 
170 5.55626 -8.31553 170 7.07177 -7.07177 170 8.31553 -5.55626 
170 9.23972 -3.82722 170 9.80883 -1.9511 170 10.001 -2.84852e-14 
170 9.80883 1.9511 170 9.23972 3.82722 170 8.31553 5.55626 
170 7.07177 7.07177 170 5.55626 8.31553 170 3.82722 9.23972 
170 1.9511 9.80883 172 2.44954e-15 10.001 174 2.44954e-15 10.001 
176 2.44954e-15 10.001 178 2.44954e-15 10.001 180 2.44954e-15 10.001 
182 2.44954e-15 10.001 184 2.44954e-15 10.001 186 2.44954e-15 10.001 
188 2.44954e-15 10.001 100 -1.9643 10.8242 100 -3.86547 10.2995 
100 -5.64241 9.4438 100 -7.23798 8.28454 100 -8.60093 6.85901 
100 -9.68743 5.21303 100 -10.4626 3.3995 100 -10.9014 1.4767 
100 -10.9899 -0.493558 100 -10.7252 -2.44795 100 -10.1157 -4.32367 
100 -9.18114 -6.06042 100 -7.95147 -7.60238 100 -6.46623 -8.9 
100 -4.77316 -9.91156 100 -2.92667 -10.6046 100 -0.986122 -10.9567 
100 0.986122 -10.9567 100 2.92667 -10.6046 100 4.77316 -9.91156 
100 6.46623 -8.9 100 7.95147 -7.60238 100 9.18114 -6.06042 
100 10.1157 -4.32367 100 10.7252 -2.44795 100 10.9899 -0.493558 
100 10.9014 1.4767 100 10.4626 3.3995 100 9.68743 5.21303 
100 8.60093 6.85901 100 7.23798 8.28454 100 5.64241 9.4438 
100 3.86547 10.2995 100 1.9643 10.8242 52 2.69447e-15 11.001 
54 2.69447e-15 11.001 56 2.69447e-15 11.001 58 2.69447e-15 11.001 
60 2.69447e-15 11.001 62 2.69447e-15 11.001 64 2.69447e-15 11.001 
66 2.69447e-15 11.001 68 2.69447e-15 11.001 70 2.69447e-15 11.001 
72 2.69447e-15 11.001 74 2.69447e-15 11.001 76 2.69447e-15 11.001 
78 2.69447e-15 11.001 80 2.69447e-15 11.001 82 2.69447e-15 11.001 
84 2.69447e-15 11.001 86 2.69447e-15 11.001 88 2.69447e-15 11.001 
90 2.69447e-15 11.001 92 2.69447e-15 11.001 94 2.69447e-15 11.001 
96 2.69447e-15 11.001 98 2.69447e-15 11.001 50 -1.9643 10.8242 
50 -3.86547 10.2995 50 -5.64241 9.4438 50 -7.23798 8.28454 
50 -8.60093 6.85901 50 -9.68743 5.21303 50 -10.4626 3.3995 
50 -10.9014 1.4767 50 -10.9899 -0.493558 50 -10.7252 -2.44795 
50 -10.1157 -4.32367 50 -9.18114 -6.06042 50 -7.95147 -7.60238 
50 -6.46623 -8.9 50 -4.77316 -9.91156 50 -2.92667 -10.6046 
50 -0.986122 -10.9567 50 0.986122 -10.9567 50 2.92667 -10.6046 
50 4.77316 -9.91156 50 6.46623 -8.9 50 7.95147 -7.60238 
50 9.18114 -6.06042 50 10.1157 -4.32367 50 10.7252 -2.44795 
50 10.9899 -0.493558 50 10.9014 1.4767 50 10.4626 3.3995 
50 9.68743 5.21303 50 8.60093 6.85901 50 7.23798 8.28454 
50 5.64241 9.4438 50 3.86547 10.2995 50 1.9643 10.8242 
100 -1.9511 9.80883 100 -3.82722 9.23972 100 -5.55626 8.31553 
100 -7.07177 7.07177 100 -8.31553 5.55626 100 -9.23972 3.82722 
100 -9.80883 1.9511 100 -10.001 2.94811e-14 100 -9.80883 -1.9511 
100 -9.23972 -3.82722 100 -8.31553 -5.55626 100 -7.07177 -7.07177 
100 -5.55626 -8.31553 100 -3.82722 -9.23972 100 -1.9511 -9.80883 
100 -4.11968e-14 -10.001 100 1.9511 -9.80883 100 3.82722 -9.23972 
100 5.55626 -8.31553 100 7.07177 -7.07177 100 8.31553 -5.55626 
100 9.23972 -3.82722 100 9.80883 -1.9511 100 10.001 -2.84852e-14 
100 9.80883 1.9511 100 9.23972 3.82722 100 8.31553 5.55626 
100 7.07177 7.07177 100 5.55626 8.31553 100 3.82722 9.23972 
100 1.9511 9.80883 50 -1.9511 9.80883 50 -3.82722 9.23972 
50 -5.55626 8.31553 50 -7.07177 7.07177 50 -8.31553 5.55626 
50 -9.23972 3.82722 50 -9.80883 1.9511 50 -10.001 2.94811e-14 
50 -9.80883 -1.9511 50 -9.23972 -3.82722 50 -8.31553 -5.55626 
50 -7.07177 -7.07177 50 -5.55626 -8.31553 50 -3.82722 -9.23972 
50 -1.9511 -9.80883 50 -4.11968e-14 -10.001 50 1.9511 -9.80883 
50 3.82722 -9.23972 50 5.55626 -8.31553 50 7.07177 -7.07177 
50 8.31553 -5.55626 50 9.23972 -3.82722 50 9.80883 -1.9511 
50 10.001 -2.84852e-14 50 9.80883 1.9511 50 9.23972 3.82722 
50 8.31553 5.55626 50 7.07177 7.07177 50 5.55626 8.31553 
50 3.82722 9.23972 50 1.9511 9.80883 52 2.44954e-15 10.001 
54 2.44954e-15 10.001 56 2.44954e-15 10.001 58 2.44954e-15 10.001 
60 2.44954e-15 10.001 62 2.44954e-15 10.001 64 2.44954e-15 10.001 
66 2.44954e-15 10.001 68 2.44954e-15 10.001 70 2.44954e-15 10.001 
72 2.44954e-15 10.001 74 2.44954e-15 10.001 76 2.44954e-15 10.001 
78 2.44954e-15 10.001 80 2.44954e-15 10.001 82 2.44954e-15 10.001 
84 2.44954e-15 10.001 86 2.44954e-15 10.001 88 2.44954e-15 10.001 
90 2.44954e-15 10.001 92 2.44954e-15 10.001 94 2.44954e-15 10.001 
96 2.44954e-15 10.001 98 2.44954e-15 10.001 154.227 -13.5809 -4.67086e-15 
152.744 -14.1058 2.14561e-16 151.059 -14.7677 2.14561e-16 149.717 -15.3469 2.14561e-16 
148.047 -16.1348 2.65727e-15 146.127 -17.1377 2.65727e-15 144.706 -17.9511 2.65727e-15 
143.324 -18.8033 2.65727e-15 141.974 -19.6988 2.65727e-15 140.653 -20.6376 2.14561e-16 
139.365 -21.6191 2.14561e-16 138.109 -22.6423 2.14561e-16 136.887 -23.706 2.14561e-16 
135.701 -24.8091 2.14561e-16 134.552 -25.9504 2.14561e-16 133.44 -27.1286 2.14561e-16 
132.368 -28.3427 2.65727e-15 131.336 -29.5912 2.65727e-15 130.345 -30.8727 2.65727e-15 
129.397 -32.186 2.14561e-16 128.492 -33.5296 2.14561e-16 127.632 -34.9021 2.14561e-16 
126.819 -36.2994 2.14561e-16 126.041 -37.7424 2.14561e-16 125.294 -39.2468 2.14561e-16 
124.428 -41.1734 2.14561e-16 123.053 -44.8066 2.14561e-16 160.179 -11.9848 -1.1999e-14 
123.637 -43.1569 2.14561e-16 121.419 -51.0016 -1.1999e-14 159.043 -8.97059 -7.7387 
118.46 -49.5357 -7.74881 159.043 -8.97059 7.7387 118.46 -49.5357 7.74881 
163.582 -9.71327 -5.86135 119.212 -54.0844 -5.86027 163.582 -9.71327 5.86135 
119.212 -54.0844 5.86027 161.047 -6.95621 -9.07852 116.457 -51.5506 -9.0768 
161.047 -6.95621 9.07852 116.457 -51.5506 9.0768 164.615 -7.96823 -7.86378 
117.466 -55.1172 -7.86349 164.615 -7.96823 7.86378 117.466 -55.1172 7.86349 
165.921 -5.7693 -9.45859 115.267 -56.4226 -9.45859 165.921 -5.7693 9.45859 
115.267 -56.4226 9.45859 164.247 -4.71343 -10.075 114.211 -54.7488 -10.075 
164.247 -4.71343 10.075 114.211 -54.7488 10.075 166.288 -4.45758 -10.1109 
113.956 -56.7897 -10.1109 166.288 -4.45758 10.1109 113.956 -56.7897 10.1109 
164.731 -3.20593 -10.5941 112.704 -55.2335 -10.5941 164.731 -3.20593 10.5941 
112.704 -55.2335 10.5941 166.268 -2.91691 -10.6397 112.415 -56.7701 -10.6397 
166.268 -2.91691 10.6397 112.415 -56.7701 10.6397 167.741 -2.57605 -10.7056 
112.074 -58.2431 -10.7056 167.741 -2.57605 10.7056 112.074 -58.2431 10.7056 
167.34 -1.17788 -10.944 110.676 -57.8421 -10.944 167.34 -1.17788 10.944 
110.676 -57.8421 10.944 168.855 -1.57831 -10.8888 111.076 -59.357 -10.8888 
168.855 -1.57831 10.8888 111.076 -59.357 10.8888 156.365 -10.9491 -6.17023 
120.513 -46.93 -6.0501 156.365 -10.9491 6.17023 120.513 -46.93 6.0501 
153.268 -11.9602 -6.0957 150.285 -11.4133 -7.95148 148.694 -12.2746 -7.77952 
147.079 -13.1014 -7.70656 145.533 -13.8954 -7.69302 144.02 -14.7242 -7.69063 
142.536 -15.5993 -7.69022 141.081 -16.522 -7.69015 139.658 -17.4917 -7.69014 
138.267 -18.5075 -7.69014 136.91 -19.5682 -7.69014 135.588 -20.6728 -7.69014 
134.304 -21.82 -7.69014 133.057 -23.0086 -7.69014 131.85 -24.2374 -7.69014 
130.684 -25.505 -7.69014 129.56 -26.8101 -7.69014 128.479 -28.1512 -7.69014 
127.443 -29.527 -7.69014 126.453 -30.936 -7.69014 125.509 -32.3766 -7.69014 
124.612 -33.8474 -7.69014 123.764 -35.3466 -7.69014 122.966 -36.8729 -7.69014 
122.236 -38.4222 -7.67409 121.752 -39.8913 -7.51222 121.493 -41.0658 -7.28187 
119.643 -43.5186 -8.17805 153.268 -11.9602 6.0957 150.285 -11.4133 7.95148 
148.694 -12.2746 7.77952 147.079 -13.1014 7.70656 145.533 -13.8954 7.69302 
144.02 -14.7242 7.69063 142.536 -15.5993 7.69022 141.081 -16.522 7.69015 
139.658 -17.4917 7.69014 138.267 -18.5075 7.69014 136.91 -19.5682 7.69014 
135.588 -20.6728 7.69014 134.304 -21.82 7.69014 133.057 -23.0086 7.69014 
131.85 -24.2374 7.69014 130.684 -25.505 7.69014 129.56 -26.8101 7.69014 
128.479 -28.1512 7.69014 127.443 -29.527 7.69014 126.453 -30.936 7.69014 
125.509 -32.3766 7.69014 124.612 -33.8474 7.69014 123.764 -35.3466 7.69014 
122.966 -36.8729 7.69014 122.236 -38.4222 7.67409 121.752 -39.8913 7.51222 
121.493 -41.0658 7.28187 119.643 -43.5186 8.17805 120.572 -42.2255 -7.75418 
120.572 -42.2255 7.75418 159.009 -7.24514 -9.13952 116.724 -49.5316 -9.1491 
159.009 -7.24514 9.13952 116.724 -49.5316 9.1491 163.439 -10.6953 -3.95595 
163.439 -10.6953 3.95595 120.194 -53.9415 -3.95457 120.194 -53.9415 3.95457 
164.454 -9.05578 -6.65758 164.454 -9.05578 6.65758 118.554 -54.9559 -6.657 
118.554 -54.9559 6.657 155.149 -6.72504 -9.94067 115.946 -45.7782 -10.0482 
155.149 -6.72504 9.94067 115.946 -45.7782 10.0482 164.461 -11.3118 -2.17699e-14 
120.81 -54.9627 -2.17699e-14 166.757 -8.37325 -7.25172 166.757 -8.37325 7.25172 
117.871 -57.2587 -7.25172 117.871 -57.2587 7.25172 160.9 -5.34218 -9.99463 
114.841 -51.402 -9.99434 160.9 -5.34218 9.99463 114.841 -51.402 9.99434 
156.261 -5.96013 -10.1441 156.261 -5.96013 10.1441 166.697 -10.5967 -3.32145 
166.697 -10.5967 3.32145 120.095 -57.1993 -3.32145 120.095 -57.1993 3.32145 
166.696 -7.19771 -8.40694 166.696 -7.19771 8.40694 116.696 -57.1976 -8.40694 
116.696 -57.1976 8.40694 162.333 -4.15959 -10.3812 113.658 -52.8353 -10.3811 
162.333 -4.15959 10.3812 113.658 -52.8353 10.3811 159.918 -11.1932 -4.18671 
159.918 -11.1932 4.18671 120.698 -50.428 -4.16526 120.698 -50.428 4.16526 
157.744 -3.96272 -10.6771 113.462 -48.2479 -10.6767 157.744 -3.96272 10.6771 
113.462 -48.2479 10.6767 167.907 -9.13429 -6.19378 167.907 -9.13429 6.19378 
118.632 -58.409 -6.19378 118.632 -58.409 6.19378 159.88 -2.53299 -10.8756 
112.031 -50.3824 -10.8755 159.88 -2.53299 10.8756 112.031 -50.3824 10.8755 
159.349 -3.9518 -10.5959 113.45 -49.8518 -10.5958 159.349 -3.9518 10.5959 
113.45 -49.8518 10.5958 122.202 -47.6305 -7.11358e-15 168.03 -4.17438 -10.1923 
168.03 -4.17438 10.1923 113.672 -58.5317 -10.1923 113.672 -58.5317 10.1923 
167.795 -5.91184 -9.3057 167.795 -5.91184 9.3057 115.41 -58.2972 -9.3057 
115.41 -58.2972 9.3057 164.581 -1.70545 -10.9042 111.203 -55.0829 -10.9042 
164.581 -1.70545 10.9042 111.203 -55.0829 10.9042 166.01 -1.38024 -10.9302 
110.878 -56.5118 -10.9302 166.01 -1.38024 10.9302 110.878 -56.5118 10.9302 
163.409 -2.18922 -10.8497 111.687 -53.911 -10.8497 163.409 -2.18922 10.8497 
111.687 -53.911 10.8497 161.58 -9.21363 -6.95049 118.715 -52.0832 -6.94673 
161.58 -9.21363 6.95049 118.715 -52.0832 6.94673 153.594 -7.44711 -9.81503 
117.705 -45.271 -9.19859 153.594 -7.44711 9.81503 117.705 -45.271 9.19859 
152.109 -9.58261 -8.85231 152.109 -9.58261 8.85231 154.993 -11.8613 -5.37394 
154.993 -11.8613 5.37394 117.72 -43.4509 -9.52052 117.72 -43.4509 9.52052 
150.733 -8.64847 -9.7024 150.733 -8.64847 9.7024 122.254 -44.6354 -4.14861 
122.254 -44.6354 4.14861 148.632 -8.00091 -10.3166 148.632 -8.00091 10.3166 
116.856 -41.7626 -10.1877 116.856 -41.7626 10.1877 152.498 -13.3563 -4.08889 
152.498 -13.3563 4.08889 122.483 -43.2098 -4.72139 122.483 -43.2098 4.72139 
149.866 -14.2084 -4.54121 149.866 -14.2084 4.54121 148.531 -14.89 -4.38244 
148.531 -14.89 4.38244 147.057 -15.7075 -4.18466 147.057 -15.7075 4.18466 
145.587 -16.5154 -4.1332 145.587 -16.5154 4.1332 144.158 -17.3459 -4.11952 
144.158 -17.3459 4.11952 142.759 -18.2164 -4.1162 142.759 -18.2164 4.1162 
141.39 -19.1307 -4.11545 141.39 -19.1307 4.11545 140.052 -20.089 -4.11528 
140.052 -20.089 4.11528 138.746 -21.0905 -4.11525 138.746 -21.0905 4.11525 
137.473 -22.1342 -4.11524 137.473 -22.1342 4.11524 136.235 -23.219 -4.11524 
136.235 -23.219 4.11524 135.033 -24.3437 -4.11524 135.033 -24.3437 4.11524 
133.869 -25.5071 -4.11524 133.869 -25.5071 4.11524 132.743 -26.708 -4.11524 
132.743 -26.708 4.11524 131.658 -27.945 -4.11524 131.658 -27.945 4.11524 
130.613 -29.2169 -4.11524 130.613 -29.2169 4.11524 129.61 -30.5224 -4.11524 
129.61 -30.5224 4.11524 128.651 -31.8599 -4.11524 128.651 -31.8599 4.11524 
127.736 -33.2281 -4.11524 127.736 -33.2281 4.11524 126.866 -34.6255 -4.11524 
126.866 -34.6255 4.11524 126.046 -36.0344 -4.12737 126.046 -36.0344 4.12737 
125.252 -37.5161 -4.1304 125.252 -37.5161 4.1304 123.885 -40.3987 -4.1304 
123.885 -40.3987 4.1304 123.292 -41.9597 -3.99865 123.292 -41.9597 3.99865 
118.014 -40.7126 -9.86094 118.014 -40.7126 9.86094 151.132 -13.7242 -4.44559 
151.132 -13.7242 4.44559 124.542 -38.9562 -4.12806 124.542 -38.9562 4.12806 
147.699 -9.65921 -9.80748 145.541 -9.74979 -10.1826 143.681 -10.8674 -10.1166 
142.06 -11.7584 -10.1178 140.478 -12.6996 -10.1179 138.93 -13.6913 -10.1179 
137.415 -14.733 -10.1179 135.934 -15.8236 -10.1179 134.491 -16.9621 -10.1179 
133.085 -18.1472 -10.1179 131.719 -19.3777 -10.1179 130.394 -20.6522 -10.1179 
129.112 -21.9693 -10.1179 127.873 -23.3277 -10.1179 126.679 -24.726 -10.1179 
125.532 -26.1625 -10.1179 124.432 -27.6358 -10.1179 123.381 -29.1443 -10.1179 
122.38 -30.6864 -10.1179 121.43 -32.2604 -10.1179 120.532 -33.8647 -10.1179 
119.689 -35.4971 -10.1174 118.905 -37.1586 -10.1141 118.043 -39.0284 -10.1333 
147.699 -9.65921 9.80748 145.541 -9.74979 10.1826 143.681 -10.8674 10.1166 
142.06 -11.7584 10.1178 140.478 -12.6996 10.1179 138.93 -13.6913 10.1179 
137.415 -14.733 10.1179 135.934 -15.8236 10.1179 134.491 -16.9621 10.1179 
133.085 -18.1472 10.1179 131.719 -19.3777 10.1179 130.394 -20.6522 10.1179 
129.112 -21.9693 10.1179 127.873 -23.3277 10.1179 126.679 -24.726 10.1179 
125.532 -26.1625 10.1179 124.432 -27.6358 10.1179 123.381 -29.1443 10.1179 
122.38 -30.6864 10.1179 121.43 -32.2604 10.1179 120.532 -33.8647 10.1179 
119.689 -35.4971 10.1174 118.905 -37.1586 10.1141 118.043 -39.0284 10.1333 
156.58 -4.8058 -10.5216 114.87 -47.3291 -10.3163 156.58 -4.8058 10.5216 
114.87 -47.3291 10.3163 121.678 -45.5813 -4.73734 121.678 -45.5813 4.73734 
166.155 -11.0267 -1.64352 166.155 -11.0267 1.64352 120.525 -56.6569 -1.64352 
120.525 -56.6569 1.64352 158.471 -11.9802 -2.83451 158.471 -11.9802 2.83451 
121.428 -49.2512 -2.77942 121.428 -49.2512 2.77942 166.692 -9.90841 -4.99733 
166.692 -9.90841 4.99733 119.406 -57.194 -4.99733 119.406 -57.194 4.99733 
152.209 -6.10338 -10.5043 152.209 -6.10338 10.5043 155.692 -12.866 -2.27175 
155.692 -12.866 2.27175 122.322 -46.7404 -1.64351 122.322 -46.7404 1.64351 
156.8 -12.2747 -3.27885 121.745 -47.6854 -3.03316 156.8 -12.2747 3.27885 
121.745 -47.6854 3.03316 160.805 -10.2194 -5.73832 119.722 -51.311 -5.73012 
160.805 -10.2194 5.73832 119.722 -51.311 5.73012 157.014 -8.70376 -8.40224 
118.063 -47.3538 -8.54616 157.014 -8.70376 8.40224 118.063 -47.3538 8.54616 
166.591 -11.1185 -2.66553e-14 120.616 -57.0928 -2.66553e-14 153.323 -4.71453 -10.7631 
114.222 -43.8345 -10.7606 153.323 -4.71453 10.7631 114.222 -43.8345 10.7606 
162.351 -7.98645 -8.11048 117.485 -52.8545 -8.10983 162.351 -7.98645 8.11048 
117.485 -52.8545 8.10983 154.923 -5.37139 -10.4795 114.508 -45.4547 -10.5823 
154.923 -5.37139 10.4795 114.508 -45.4547 10.5823 167.869 -8.17123 -7.41347 
167.869 -8.17123 7.41347 117.669 -58.3705 -7.41347 117.669 -58.3705 7.41347 
162.836 -6.66354 -9.09487 116.162 -53.338 -9.09487 162.836 -6.66354 9.09487 
116.162 -53.338 9.09487 162.138 -11.3277 -2.5418 162.138 -11.3277 2.5418 
120.825 -52.6382 -2.54587 120.825 -52.6382 2.54587 160.264 -11.7473 -2.17019 
160.264 -11.7473 2.17019 121.125 -50.9773 -2.52431 121.125 -50.9773 2.52431 
168.114 -10.8449 -2.04571 168.114 -10.8449 2.04571 120.343 -58.6157 -2.04571 
120.343 -58.6157 2.04571 156.904 -7.297 -9.40359 116.564 -47.5339 -9.51884 
156.904 -7.297 9.40359 116.564 -47.5339 9.51884 165.106 -10.256 -4.5448 
119.754 -55.6084 -4.54438 165.106 -10.256 4.5448 119.754 -55.6084 4.54438 
164.521 -6.34428 -9.17614 115.842 -55.0235 -9.17614 164.521 -6.34428 9.17614 
115.842 -55.0235 9.17614 168.701 -7.47617 -8.08493 168.701 -7.47617 8.08493 
116.974 -59.2031 -8.08493 116.974 -59.2031 8.08493 158.793 -10.3357 -6.18251 
119.872 -49.3268 -6.1163 158.793 -10.3357 6.18251 119.872 -49.3268 6.1163 
168.534 -9.92428 -4.79073 168.534 -9.92428 4.79073 119.422 -59.0363 -4.79073 
119.422 -59.0363 4.79073 164.059 -11.1742 -1.99902 164.059 -11.1742 1.99902 
120.672 -54.5614 -1.9989 120.672 -54.5614 1.9989 162.228 -10.1972 -5.37125 
162.228 -10.1972 5.37125 119.697 -52.732 -5.3672 119.697 -52.732 5.3672 
158.171 -2.53405 -10.9191 112.033 -48.6736 -10.919 158.171 -2.53405 10.9191 
112.033 -48.6736 10.919 157.244 -9.75477 -7.35996 119.256 -47.8476 -7.32875 
157.244 -9.75477 7.35996 119.256 -47.8476 7.32875 162.262 -11.6094 -1.93271e-14 
121.097 -52.8318 -1.68844e-14 161.726 -2.4586 -10.8406 111.957 -52.2284 -10.8405 
161.726 -2.4586 10.8406 111.957 -52.2284 10.8405 160.662 -8.12297 -8.23244 
117.617 -51.1666 -8.23523 160.662 -8.12297 8.23244 117.617 -51.1666 8.23523 
168.9 -8.58673 -6.89129 168.9 -8.58673 6.89129 118.085 -59.4016 -6.89129 
118.085 -59.4016 6.89129 161.679 -10.8757 -4.1626 161.679 -10.8757 4.1626 
120.376 -52.1829 -4.15708 120.376 -52.1829 4.15708 158.739 -5.42055 -10.1337 
114.914 -49.2486 -10.1351 158.739 -5.42055 10.1337 114.914 -49.2486 10.1351 
158.153 -12.4392 -9.55629e-15 121.801 -49.2244 -9.55629e-15 163.32 -8.81369 -7.12255 
163.32 -8.81369 7.12255 118.313 -53.8229 -7.1213 118.313 -53.8229 7.1213 
165.897 -8.99728 -6.55589 165.897 -8.99728 6.55589 118.495 -56.3986 -6.55589 
118.495 -56.3986 6.55589 153.498 -10.4612 -7.74699 153.498 -10.4612 7.74699 
120.135 -45.0427 -7.22501 120.135 -45.0427 7.22501 155.877 -13.0583 -7.11358e-15 
122.574 -46.3204 -2.22815e-15 165.116 -9.55537 -5.84162 165.116 -9.55537 5.84162 
119.053 -55.6179 -5.84162 119.053 -55.6179 5.84162 115.693 -42.8556 -10.4624 
115.693 -42.8556 10.4624 150.601 -6.97649 -10.4056 150.601 -6.97649 10.4056 
154.176 -13.1325 -3.08522 154.176 -13.1325 3.08522 155.522 -9.73549 -7.84565 
155.522 -9.73549 7.84565 122.983 -43.6022 -3.1506 122.983 -43.6022 3.1506 
116.494 -40.0747 -10.5163 116.494 -40.0747 10.5163 150.56 -14.4948 -3.09593 
150.56 -14.4948 3.09593 149.494 -15.0294 -2.87084 149.494 -15.0294 2.87084 
148.312 -15.7736 -2.12926 148.312 -15.7736 2.12926 146.727 -16.5805 -2.11439 
146.727 -16.5805 2.11439 145.26 -17.3927 -2.10028 145.26 -17.3927 2.10028 
143.853 -18.233 -2.0949 143.853 -18.233 2.0949 142.481 -19.1132 -2.09329 
142.481 -19.1132 2.09329 141.141 -20.0362 -2.09285 141.141 -20.0362 2.09285 
139.832 -21.0021 -2.09275 139.832 -21.0021 2.09275 138.556 -22.0103 -2.09272 
138.556 -22.0103 2.09272 137.314 -23.0597 -2.09272 137.314 -23.0597 2.09272 
136.106 -24.1492 -2.09272 136.106 -24.1492 2.09272 134.935 -25.2776 -2.09272 
134.935 -25.2776 2.09272 133.801 -26.4437 -2.09272 133.801 -26.4437 2.09272 
132.706 -27.6463 -2.09272 132.706 -27.6463 2.09272 131.651 -28.8841 -2.09272 
131.651 -28.8841 2.09272 130.637 -30.1557 -2.09272 130.637 -30.1557 2.09272 
129.666 -31.4599 -2.09272 129.666 -31.4599 2.09272 128.737 -32.7951 -2.09272 
128.737 -32.7951 2.09272 127.852 -34.16 -2.09272 127.852 -34.16 2.09272 
127.015 -35.5487 -2.0961 127.015 -35.5487 2.0961 126.208 -36.9747 -2.14163 
126.208 -36.9747 2.14163 125.461 -38.4269 -2.12788 125.461 -38.4269 2.12788 
124.604 -40.2362 -2.152 124.604 -40.2362 2.152 119.176 -46.1812 -7.85776 
119.176 -46.1812 7.85776 122.599 -45.2917 -2.46821 122.599 -45.2917 2.46821 
121.289 -43.9302 -6.2552 121.289 -43.9302 6.2552 119.898 -40.545 -8.82252 
119.898 -40.545 8.82252 148.61 -10.7751 -8.96909 147.107 -11.2744 -9.07938 
145.45 -12.0434 -9.10122 143.855 -12.8787 -9.10506 142.304 -13.7623 -9.10561 
140.789 -14.6943 -9.10566 139.305 -15.6748 -9.10566 137.855 -16.7031 -9.10565 
136.439 -17.7783 -9.10565 135.059 -18.8992 -9.10565 133.717 -20.0647 -9.10565 
132.413 -21.2734 -9.10565 131.15 -22.5242 -9.10565 129.928 -23.8157 -9.10565 
128.749 -25.1464 -9.10565 127.614 -26.515 -9.10565 126.525 -27.92 -9.10565 
125.482 -29.3598 -9.10565 124.487 -30.8331 -9.10565 123.541 -32.3381 -9.10565 
122.644 -33.8732 -9.10565 121.799 -35.4367 -9.10509 121.019 -37.0279 -9.09672 
120.375 -38.7053 -9.01753 148.61 -10.7751 8.96909 147.107 -11.2744 9.07938 
145.45 -12.0434 9.10122 143.855 -12.8787 9.10506 142.304 -13.7623 9.10561 
140.789 -14.6943 9.10566 139.305 -15.6748 9.10566 137.855 -16.7031 9.10565 
136.439 -17.7783 9.10565 135.059 -18.8992 9.10565 133.717 -20.0647 9.10565 
132.413 -21.2734 9.10565 131.15 -22.5242 9.10565 129.928 -23.8157 9.10565 
128.749 -25.1464 9.10565 127.614 -26.515 9.10565 126.525 -27.92 9.10565 
125.482 -29.3598 9.10565 124.487 -30.8331 9.10565 123.541 -32.3381 9.10565 
122.644 -33.8732 9.10565 121.799 -35.4367 9.10509 121.019 -37.0279 9.09672 
120.375 -38.7053 9.01753 154.68 -3.7274 -10.8693 113.059 -44.7411 -10.909 
154.68 -3.7274 10.8693 113.059 -44.7411 10.909 151.878 -11.1571 -7.61977 
151.878 -11.1571 7.61977 116.163 -38.2597 -10.7682 116.163 -38.2597 10.7682 
146.848 -6.62676 -10.8421 145.054 -7.54809 -10.8238 143.531 -8.62157 -10.7664 
141.863 -9.7863 -10.7121 140.036 -10.3268 -10.8062 138.41 -11.3343 -10.8062 
136.818 -12.3943 -10.8062 135.262 -13.5057 -10.8062 133.743 -14.6674 -10.8062 
132.262 -15.8783 -10.8062 130.823 -17.1369 -10.8062 129.425 -18.4419 -10.8062 
128.322 -20.2788 -10.6941 127.028 -21.664 -10.6941 125.891 -23.273 -10.6434 
124.696 -24.7361 -10.6434 123.55 -26.2375 -10.6434 122.454 -27.7756 -10.6434 
121.409 -29.3486 -10.6433 120.418 -30.9544 -10.643 119.484 -32.5898 -10.642 
118.621 -34.2458 -10.6379 117.873 -35.8879 -10.6238 117.441 -37.3746 -10.561 
146.848 -6.62676 10.8421 145.054 -7.54809 10.8238 143.531 -8.62157 10.7664 
141.863 -9.7863 10.7121 140.036 -10.3268 10.8062 138.41 -11.3343 10.8062 
136.818 -12.3943 10.8062 135.262 -13.5057 10.8062 133.743 -14.6674 10.8062 
132.262 -15.8783 10.8062 130.823 -17.1369 10.8062 129.425 -18.4419 10.8062 
128.322 -20.2788 10.6941 127.028 -21.664 10.6941 125.891 -23.273 10.6434 
124.696 -24.7361 10.6434 123.55 -26.2375 10.6434 122.454 -27.7756 10.6434 
121.409 -29.3486 10.6433 120.418 -30.9544 10.643 119.484 -32.5898 10.642 
118.621 -34.2458 10.6379 117.873 -35.8879 10.6238 117.441 -37.3746 10.561 
148.776 -5.89657 -10.8327 148.776 -5.89657 10.8327 168.015 -11.0223 -0.637611 
168.003 -11.0197 0.689064 120.52 -58.5165 -0.637611 120.518 -58.5047 0.689064 
151.579 -12.5221 -6.17036 151.579 -12.5221 6.17036 118.768 -42.0749 -9.1834 
118.768 -42.0749 9.1834 149.512 -9.71567 -9.38543 149.512 -9.71567 9.38543 
114.779 -41.004 -10.8286 114.779 -41.004 10.8286 148.68 -13.7158 -6.20018 
147.137 -14.5263 -6.09858 145.657 -15.3411 -6.03441 144.196 -16.1727 -6.01681 
142.76 -17.0431 -6.01288 141.353 -17.9581 -6.01208 139.977 -18.9183 -6.01192 
138.632 -19.9228 -6.01189 137.321 -20.9709 -6.01189 136.045 -22.0612 -6.01189 
134.806 -23.1927 -6.01189 133.604 -24.3642 -6.01189 132.441 -25.5743 -6.01189 
131.319 -26.8219 -6.01189 130.237 -28.1055 -6.01189 129.199 -29.4238 -6.01189 
128.204 -30.7754 -6.01189 127.253 -32.1588 -6.01189 126.349 -33.5726 -6.01189 
125.491 -35.0152 -6.01189 124.682 -36.4715 -6.02036 123.927 -37.9796 -6.00291 
123.322 -39.3876 -5.92189 148.68 -13.7158 6.20018 147.137 -14.5263 6.09858 
145.657 -15.3411 6.03441 144.196 -16.1727 6.01681 142.76 -17.0431 6.01288 
141.353 -17.9581 6.01208 139.977 -18.9183 6.01192 138.632 -19.9228 6.01189 
137.321 -20.9709 6.01189 136.045 -22.0612 6.01189 134.806 -23.1927 6.01189 
133.604 -24.3642 6.01189 132.441 -25.5743 6.01189 131.319 -26.8219 6.01189 
130.237 -28.1055 6.01189 129.199 -29.4238 6.01189 128.204 -30.7754 6.01189 
127.253 -32.1588 6.01189 126.349 -33.5726 6.01189 125.491 -35.0152 6.01189 
124.682 -36.4715 6.02036 123.927 -37.9796 6.00291 123.322 -39.3876 5.92189 
122.72 -40.8607 -5.86827 122.72 -40.8607 5.86827 151.73 -14.2493 -2.23375 
151.73 -14.2493 2.23375 153.098 -13.7342 -2.22386 153.098 -13.7342 2.22386 
123.797 -42.2346 -1.99152 123.797 -42.2346 1.99152 123.966 -41.1457 -3.06898 
123.966 -41.1457 3.06898 168.307 -10.4563 -3.50503 168.307 -10.4563 3.50503 
119.954 -58.8086 -3.50503 119.954 -58.8086 3.50503 157.823 -11.4922 -4.58019 
157.823 -11.4922 4.58019 156.201 -11.8785 -4.6743 156.201 -11.8785 4.6743 
121.456 -46.9813 -4.33652 121.456 -46.9813 4.33652 121.016 -48.5006 -4.42996 
121.016 -48.5006 4.42996 157.573 -6.21815 -9.89174 115.735 -48.3563 -9.85228 
157.573 -6.21815 9.89174 115.735 -48.3563 9.85228 156.264 -3.13556 -10.8963 
112.923 -46.6016 -10.8598 156.264 -3.13556 10.8963 112.923 -46.6016 10.8598 
150.444 -5.05407 -10.8678 150.444 -5.05407 10.8678 155.281 -12.4943 -3.89392 
155.281 -12.4943 3.89392 152.179 -7.93771 -9.79951 152.179 -7.93771 9.79951 
122.082 -42.2583 -5.98753 122.082 -42.2583 5.98753 165.067 -10.7935 -3.11957 
165.067 -10.7935 3.11957 120.291 -55.5691 -3.11955 120.291 -55.5691 3.11955 
150.076 -13.0631 -6.25552 150.076 -13.0631 6.25552 117.157 -46.3339 -9.35236 
117.157 -46.3339 9.35236 154.327 -13.4549 -1.38774 154.327 -13.4549 1.38774 
121.516 -50.1262 -1.3323 121.516 -50.1262 1.3323 113.96 -42.4177 -10.8816 
113.96 -42.4177 10.8816 160.023 -9.65906 -6.74623 119.174 -50.5378 -6.72154 
160.023 -9.65906 6.74623 119.174 -50.5378 6.72154 121.881 -48.4333 -1.53926 
121.881 -48.4333 1.53926 162.898 -11.4523 -1.14844 162.898 -11.4523 1.14844 
120.953 -53.3702 -1.16659 120.953 -53.3702 1.16659 118.916 -44.7083 -8.4599 
118.916 -44.7083 8.4599 155.327 -8.12928 -9.14624 155.327 -8.12928 9.14624 
150.931 -10.0747 -8.80861 150.931 -10.0747 8.80861 153.735 -8.95756 -8.91005 
153.735 -8.95756 8.91005 157.48 -12.4831 -1.64068 157.48 -12.4831 1.64068 
161.016 -11.3364 -3.20935 161.016 -11.3364 3.20935 120.828 -51.5682 -3.19905 
120.828 -51.5682 3.19905 154.058 -12.6059 -4.53501 154.058 -12.6059 4.53501 
122.775 -45.4756 -1.11669 122.775 -45.4756 1.11669 162.926 -5.39333 -9.82885 
114.891 -53.4276 -9.82885 162.926 -5.39333 9.82885 114.891 -53.4276 9.82885 
161.542 -11.6649 -1.17529 161.542 -11.6649 1.17529 121.191 -51.8303 -1.26191 
121.191 -51.8303 1.26191 154.74 -11.0331 -6.68988 154.74 -11.0331 6.68988 
169.032 -10.95 -1.15181 169.029 -10.9487 1.16462 120.448 -59.5342 -1.15181 
120.447 -59.5312 1.16462 158.911 -12.1807 -1.29267 158.911 -12.1807 1.29267 
159.095 -1.75419 -10.9753 111.252 -49.5974 -10.9753 159.095 -1.75419 10.9753 
111.252 -49.5974 10.9753 163.333 -3.32175 -10.6024 112.82 -53.835 -10.6024 
163.333 -3.32175 10.6024 112.82 -53.835 10.6024 120.933 -45.3814 -6.09496 
120.933 -45.3814 6.09496 115.991 -44.4444 -10.1853 115.991 -44.4444 10.1853 
159.927 -6.25245 -9.62615 159.927 -6.25245 9.62615 115.745 -50.4366 -9.6282 
115.745 -50.4366 9.6282 151.828 -4.38539 -10.896 151.828 -4.38539 10.896 
160.84 -3.69483 -10.595 113.193 -51.3425 -10.5948 160.84 -3.69483 10.595 
113.193 -51.3425 10.5948 117.507 -48.4858 -8.76225 117.507 -48.4858 8.76225 
153.844 -6.07891 -10.3487 153.844 -6.07891 10.3487 123.169 -44.1687 -1.44977 
123.169 -44.1687 1.44977 114.971 -39.2902 -10.8945 114.971 -39.2902 10.8945 
122.081 -46.1293 -3.36237 122.081 -46.1293 3.36237 169.124 -6.50942 -8.87366 
169.124 -6.50942 8.87366 116.007 -59.626 -8.87366 116.007 -59.626 8.87366 
149.22 -15.4829 -1.34107 149.22 -15.4829 1.34107 141.948 -7.90597 -10.9647 
139.979 -9.23028 -10.947 138.241 -10.2362 -10.9513 136.6 -11.302 -10.952 
135.006 -12.4212 -10.9522 133.451 -13.5919 -10.9522 131.936 -14.8128 -10.9522 
130.462 -16.0827 -10.9522 129.029 -17.4001 -10.9522 127.641 -18.7636 -10.9522 
126.405 -20.3676 -10.9302 125.16 -21.8914 -10.9203 123.954 -23.4307 -10.9131 
122.773 -24.9672 -10.9116 121.637 -26.5334 -10.9113 120.552 -28.1342 -10.9112 
119.521 -29.7691 -10.9111 118.546 -31.4357 -10.9108 117.638 -33.1289 -10.9094 
116.825 -34.8363 -10.9041 141.948 -7.90597 10.9647 139.979 -9.23028 10.947 
138.241 -10.2362 10.9513 136.6 -11.302 10.952 135.006 -12.4212 10.9522 
133.451 -13.5919 10.9522 131.936 -14.8128 10.9522 130.462 -16.0827 10.9522 
129.029 -17.4001 10.9522 127.641 -18.7636 10.9522 126.405 -20.3676 10.9302 
125.16 -21.8914 10.9203 123.954 -23.4307 10.9131 122.773 -24.9672 10.9116 
121.637 -26.5334 10.9113 120.552 -28.1342 10.9112 119.521 -29.7691 10.9111 
118.546 -31.4357 10.9108 117.638 -33.1289 10.9094 116.825 -34.8363 10.9041 
116.214 -36.5333 -10.8815 116.214 -36.5333 10.8815 158.001 -8.07453 -8.71069 
158.001 -8.07453 8.71069 150.311 -14.9562 -1.60676 150.311 -14.9562 1.60676 
146.727 -8.32837 -10.471 146.727 -8.32837 10.471 155.822 -12.0317 2.75794e-16 
152.659 -13.0711 2.75794e-16 121.583 -46.1424 2.75794e-16 161.366 -10.7444 -4.16554e-15 
154.225 -12.5277 2.75794e-16 150.89 -13.7558 2.75794e-16 149.316 -14.4306 2.49646e-15 
147.809 -15.1376 2.75794e-16 146.334 -15.8891 2.75794e-16 144.887 -16.6875 2.75794e-16 
143.467 -17.5326 2.75794e-16 142.075 -18.4237 2.75794e-16 140.713 -19.3599 2.75794e-16 
139.383 -20.3401 2.75794e-16 138.085 -21.3634 2.75794e-16 136.822 -22.4285 2.75794e-16 
135.594 -23.5345 2.75794e-16 134.403 -24.68 2.75794e-16 133.25 -25.8638 2.75794e-16 
132.136 -27.0848 2.75794e-16 131.063 -28.3415 2.75794e-16 130.032 -29.6327 2.75794e-16 
129.043 -30.9569 2.75794e-16 128.098 -32.3128 2.75794e-16 127.198 -33.6988 2.75794e-16 
126.344 -35.1136 2.75794e-16 125.537 -36.5555 2.75794e-16 124.777 -38.0231 2.75794e-16 
124.079 -39.4857 2.75794e-16 123.424 -40.982 2.75794e-16 122.673 -42.8798 2.75794e-16 
122.034 -44.7014 2.75794e-16 120.243 -51.8665 -8.60688e-15 160.224 -7.94971 7.09514 
117.422 -50.4922 7.16296 160.224 -7.94971 -7.09514 117.422 -50.4922 -7.16296 
163.803 -7.85636 6.62386 117.355 -54.3046 6.62358 163.803 -7.85636 -6.62386 
117.355 -54.3046 -6.62358 162.109 -5.9411 8.43472 115.439 -52.6113 8.43472 
162.109 -5.9411 -8.43472 115.439 -52.6113 -8.43472 165.22 -7.31555 7.04218 
116.814 -55.7218 7.04214 165.22 -7.31555 -7.04218 116.814 -55.7218 -7.04214 
162.805 -4.98074 8.92301 114.479 -53.3072 8.92301 162.805 -4.98074 -8.92301 
114.479 -53.3072 -8.92301 164.009 -4.43123 9.11648 113.929 -54.5108 9.11648 
164.009 -4.43123 -9.11648 113.929 -54.5108 -9.11648 166.139 -4.91435 8.78447 
114.412 -56.6411 8.78447 166.139 -4.91435 -8.78447 114.412 -56.6411 -8.78447 
164.784 -3.2588 9.53356 112.757 -55.2865 9.53356 164.784 -3.2588 -9.53356 
112.757 -55.2865 -9.53356 166.449 -3.08093 9.54942 112.579 -56.951 9.54942 
166.449 -3.08093 -9.54942 112.579 -56.951 -9.54942 168.181 -2.54523 9.67916 
112.043 -58.6827 9.67916 168.181 -2.54523 -9.67916 112.043 -58.6827 -9.67916 
168.042 -1.01277 9.95281 110.511 -58.5443 9.95281 168.042 -1.01277 -9.95281 
110.511 -58.5443 -9.95281 157.659 -9.64418 5.7704 119.334 -47.9761 5.56364 
157.659 -9.64418 -5.7704 119.334 -47.9761 -5.56364 154.114 -8.17488 8.13531 
154.319 -10.5562 5.79243 151.772 -10.1358 7.20193 150.189 -10.9933 6.96493 
148.603 -11.7192 6.9067 147.022 -12.4534 6.89724 145.463 -13.2322 6.89571 
143.93 -14.0605 6.89546 142.424 -14.9384 6.89541 140.948 -15.865 6.89541 
139.503 -16.8394 6.89541 138.091 -17.8606 6.89541 136.713 -18.9274 6.89541 
135.37 -20.0388 6.89541 134.065 -21.1935 6.89541 132.798 -22.3902 6.89541 
131.571 -23.6278 6.89541 130.385 -24.9049 6.89541 129.242 -26.2201 6.89541 
128.142 -27.5719 6.89541 127.087 -28.9591 6.89541 126.078 -30.38 6.89541 
125.116 -31.8332 6.89541 124.202 -33.3171 6.89541 123.337 -34.8301 6.89541 
122.522 -36.3706 6.89541 121.767 -38.069 6.82799 120.844 -39.4833 7.10206 
120.51 -41.0944 6.79025 119.886 -42.8131 6.77334 118.569 -44.2651 7.54094 
118.981 -46.0272 6.65045 154.114 -8.17488 -8.13531 154.319 -10.5562 -5.79243 
151.772 -10.1358 -7.20193 150.189 -10.9933 -6.96493 148.603 -11.7192 -6.9067 
147.022 -12.4534 -6.89724 145.463 -13.2322 -6.89571 143.93 -14.0605 -6.89546 
142.424 -14.9384 -6.89541 140.948 -15.865 -6.89541 139.503 -16.8394 -6.89541 
138.091 -17.8606 -6.89541 136.713 -18.9274 -6.89541 135.37 -20.0388 -6.89541 
134.065 -21.1935 -6.89541 132.798 -22.3902 -6.89541 131.571 -23.6278 -6.89541 
130.385 -24.9049 -6.89541 129.242 -26.2201 -6.89541 128.142 -27.5719 -6.89541 
127.087 -28.9591 -6.89541 126.078 -30.38 -6.89541 125.116 -31.8332 -6.89541 
124.202 -33.3171 -6.89541 123.337 -34.8301 -6.89541 122.522 -36.3706 -6.89541 
121.767 -38.069 -6.82799 120.844 -39.4833 -7.10206 120.51 -41.0944 -6.79025 
119.886 -42.8131 -6.77334 118.569 -44.2651 -7.54094 118.981 -46.0272 -6.65045 
160.338 -6.56803 8.21107 116.057 -50.8069 8.22155 160.338 -6.56803 -8.21107 
116.057 -50.8069 -8.22155 163.837 -9.66297 3.70134 163.837 -9.66297 -3.70134 
119.161 -54.3387 3.70134 119.161 -54.3387 -3.70134 165.816 -8.35092 -5.74899 
165.816 -8.35092 5.74899 117.849 -56.3185 -5.74899 117.849 -56.3185 5.74899 
160.992 -4.46867 9.27158 113.967 -51.4941 9.27158 160.992 -4.46867 -9.27158 
113.967 -51.4941 -9.27158 156.415 -6.03106 8.99919 115.638 -47.5577 8.86987 
156.415 -6.03106 -8.99919 115.638 -47.5577 -8.86987 164.935 -10.2555 -1.30482e-14 
119.754 -55.4371 -1.30482e-14 166.591 -6.70074 -7.52019 166.591 -6.70074 7.52019 
116.199 -57.0933 -7.52019 116.199 -57.0933 7.52019 158.15 -5.83664 8.89726 
115.006 -48.8695 9.03332 158.15 -5.83664 -8.89726 115.006 -48.8695 -9.03332 
162.185 -3.75375 9.46905 113.252 -52.6866 9.46905 162.185 -3.75375 -9.46905 
113.252 -52.6866 -9.46905 167.982 -8.71376 -4.97727 167.982 -8.71376 4.97727 
118.212 -58.4838 -4.97727 118.212 -58.4838 4.97727 160.7 -10.0677 3.88015 
160.7 -10.0677 -3.88015 119.554 -51.2021 3.90734 119.554 -51.2021 -3.90734 
160.316 -2.76831 9.80666 112.268 -50.8252 9.80604 160.316 -2.76831 -9.80666 
112.268 -50.8252 -9.80604 166.844 -9.42389 -3.61042 166.844 -9.42389 3.61042 
118.922 -57.3465 -3.61042 118.922 -57.3465 3.61042 159.456 -3.72618 9.61387 
113.223 -49.9588 9.61419 159.456 -3.72618 -9.61387 113.223 -49.9588 -9.61419 
166.917 -7.77868 -6.39563 166.917 -7.77868 6.39563 117.277 -57.4192 -6.39563 
117.277 -57.4192 6.39563 157.417 -11.5934 2.75794e-16 121.087 -47.9346 -1.94487e-15 
168.104 -4.30347 -9.04289 168.104 -4.30347 9.04289 113.801 -58.6063 -9.04289 
113.801 -58.6063 9.04289 168.077 -5.94885 -8.0643 168.077 -5.94885 8.0643 
115.447 -58.5786 -8.0643 115.447 -58.5786 8.0643 165.05 -2.04453 9.83113 
111.543 -55.5525 9.83113 165.05 -2.04453 -9.83113 111.543 -55.5525 -9.83113 
166.244 -1.43457 9.91413 110.933 -56.7459 9.91413 166.244 -1.43457 -9.91413 
110.933 -56.7459 -9.91413 163.594 -1.95329 9.87154 111.451 -54.096 9.87154 
163.594 -1.95329 -9.87154 111.451 -54.096 -9.87154 162.077 -8.23661 6.4542 
117.735 -52.5787 6.45337 162.077 -8.23661 -6.4542 117.735 -52.5787 -6.45337 
155.246 -6.83542 8.74939 116.413 -46.0959 8.65403 155.246 -6.83542 -8.74939 
116.413 -46.0959 -8.65403 156.003 -10.7922 4.64004 156.003 -10.7922 -4.64004 
116.948 -44.4938 8.6102 116.948 -44.4938 -8.6102 152.489 -7.55331 8.81004 
152.489 -7.55331 -8.81004 150.976 -6.93444 9.30847 150.976 -6.93444 -9.30847 
120.874 -45.4072 4.12692 120.874 -45.4072 -4.12692 122.636 -41.3019 3.42832 
122.636 -41.3019 -3.42832 152.334 -12.1375 4.33558 152.334 -12.1375 -4.33558 
150.976 -12.9325 3.75359 150.976 -12.9325 -3.75359 149.244 -13.6232 3.84106 
149.244 -13.6232 -3.84106 147.689 -14.3361 3.85571 147.689 -14.3361 -3.85571 
146.185 -15.0924 3.85817 146.185 -15.0924 -3.85817 144.711 -15.8962 3.85858 
144.711 -15.8962 -3.85858 143.265 -16.7476 3.85865 143.265 -16.7476 -3.85865 
141.848 -17.6457 3.85867 141.848 -17.6457 -3.85867 140.461 -18.5897 3.85867 
140.461 -18.5897 -3.85867 139.105 -19.5786 3.85867 139.105 -19.5786 -3.85867 
137.783 -20.6114 3.85867 137.783 -20.6114 -3.85867 136.495 -21.6868 3.85867 
136.495 -21.6868 -3.85867 135.243 -22.8038 3.85867 135.243 -22.8038 -3.85867 
134.028 -23.9612 3.85867 134.028 -23.9612 -3.85867 132.852 -25.1577 3.85867 
132.852 -25.1577 -3.85867 131.715 -26.392 3.85867 131.715 -26.392 -3.85867 
130.62 -27.6629 3.85867 130.62 -27.6629 -3.85867 129.566 -28.9689 3.85867 
129.566 -28.9689 -3.85867 128.556 -30.3087 3.85867 128.556 -30.3087 -3.85867 
127.591 -31.6808 3.85867 127.591 -31.6808 -3.85867 126.67 -33.0838 3.85867 
126.67 -33.0838 -3.85867 125.797 -34.5162 3.85867 125.797 -34.5162 -3.85867 
124.97 -35.9763 3.85867 124.97 -35.9763 -3.85867 124.192 -37.4628 3.85867 
124.192 -37.4628 -3.85867 123.413 -39.2287 3.70792 123.413 -39.2287 -3.70792 
121.512 -43.7922 3.8839 121.512 -43.7922 -3.8839 121.956 -42.6314 3.82097 
121.956 -42.6314 -3.82097 116.412 -42.6909 9.15243 116.412 -42.6909 -9.15243 
150.101 -8.06169 8.9745 148.746 -8.4719 9.03008 147.108 -9.15243 9.03841 
145.448 -9.92132 9.03989 143.808 -10.7503 9.04015 142.194 -11.6337 9.0402 
140.61 -12.5695 9.04021 139.058 -13.5568 9.04021 137.538 -14.5943 9.04021 
136.054 -15.6809 9.04021 134.606 -16.8156 9.04021 133.195 -17.997 9.04021 
131.824 -19.2239 9.04021 130.494 -20.4951 9.04021 129.206 -21.8091 9.04021 
127.962 -23.1645 9.04021 126.763 -24.5599 9.04021 125.61 -25.9938 9.04021 
124.505 -27.4646 9.04021 123.448 -28.9708 9.04021 122.442 -30.5108 9.04021 
121.486 -32.0829 9.04021 120.582 -33.6854 9.04021 119.731 -35.3167 9.04021 
118.937 -36.9732 9.03934 118.084 -38.7419 9.07146 117.454 -40.7596 8.99569 
150.101 -8.06169 -8.9745 148.746 -8.4719 -9.03008 147.108 -9.15243 -9.03841 
145.448 -9.92132 -9.03989 143.808 -10.7503 -9.04015 142.194 -11.6337 -9.0402 
140.61 -12.5695 -9.04021 139.058 -13.5568 -9.04021 137.538 -14.5943 -9.04021 
136.054 -15.6809 -9.04021 134.606 -16.8156 -9.04021 133.195 -17.997 -9.04021 
131.824 -19.2239 -9.04021 130.494 -20.4951 -9.04021 129.206 -21.8091 -9.04021 
127.962 -23.1645 -9.04021 126.763 -24.5599 -9.04021 125.61 -25.9938 -9.04021 
124.505 -27.4646 -9.04021 123.448 -28.9708 -9.04021 122.442 -30.5108 -9.04021 
121.486 -32.0829 -9.04021 120.582 -33.6854 -9.04021 119.731 -35.3167 -9.04021 
118.937 -36.9732 -9.03934 118.084 -38.7419 -9.07146 117.454 -40.7596 -8.99569 
158.193 -4.08839 9.58146 113.574 -48.7009 9.58486 158.193 -4.08839 -9.58146 
113.574 -48.7009 -9.58486 153.955 -11.7818 3.90273 153.955 -11.7818 -3.90273 
120.456 -47.1048 3.97175 120.456 -47.1048 -3.97175 166.546 -9.94919 1.83399 
166.425 -10.0209 -1.45519 119.447 -57.048 1.83398 119.519 -56.9272 -1.45518 
159.615 -10.7162 2.64495 159.615 -10.7162 -2.64495 120.23 -49.9114 2.7402 
120.23 -49.9114 -2.7402 153.657 -6.30123 9.21304 153.657 -6.30123 -9.21304 
156.997 -11.2772 2.8414 156.997 -11.2772 -2.8414 120.729 -48.2218 2.33863 
120.729 -48.2218 -2.33863 158.343 -10.868 3.07118 158.343 -10.868 -3.07118 
162.016 -9.26483 5.0255 118.764 -52.5167 5.02341 162.016 -9.26483 -5.0255 
118.764 -52.5167 -5.02341 116.991 -48.2084 7.93584 116.991 -48.2084 -7.93584 
162.216 -7.26551 7.42533 116.764 -52.718 7.42508 162.216 -7.26551 -7.42533 
116.764 -52.718 -7.42508 166.04 -10.1442 0.49459 119.642 -56.5419 0.494578 
155.222 -4.36996 9.69435 113.71 -45.6486 9.73625 155.222 -4.36996 -9.69435 
113.71 -45.6486 -9.73625 156.593 -4.81997 9.46542 114.281 -47.2632 9.46445 
156.593 -4.81997 -9.46542 114.281 -47.2632 -9.46445 163.649 -6.99331 7.49825 
116.491 -54.1513 7.4982 163.649 -6.99331 -7.49825 116.491 -54.1513 -7.4982 
162.906 -10.3435 1.76264 162.906 -10.3435 -1.76264 119.843 -53.3995 1.76276 
119.843 -53.3995 -1.76276 164.467 -5.98279 8.21571 115.481 -54.9688 8.2157 
164.467 -5.98279 -8.21571 115.481 -54.9688 -8.2157 161.272 -10.5131 2.1954 
161.272 -10.5131 -2.1954 120.02 -51.7285 2.19176 120.02 -51.7285 -2.19176 
168.289 -9.85116 1.88209 168.285 -9.89717 -1.62461 119.349 -58.7911 1.88209 
119.395 -58.7875 -1.62461 158.537 -7.40132 7.86431 116.192 -48.9892 8.36847 
158.537 -7.40132 -7.86431 116.192 -48.9892 -8.36847 168.471 -7.48327 -6.65955 
168.471 -7.48327 6.65955 116.981 -58.9733 -6.65955 116.981 -58.9733 6.65955 
155.412 -9.3384 6.83641 155.412 -9.3384 -6.83641 168.627 -9.48468 -3.22652 
168.627 -9.46766 3.27599 118.983 -59.1287 -3.22652 118.966 -59.1293 3.27599 
158.263 -2.61994 9.89647 112.114 -48.8184 9.89555 158.263 -2.61994 -9.89647 
112.114 -48.8184 -9.89555 165.108 -9.2569 4.31129 118.755 -55.6099 4.31129 
165.108 -9.2569 -4.31129 118.755 -55.6099 -4.31129 161.866 -2.18441 9.86892 
111.682 -52.3681 9.86892 161.866 -2.18441 -9.86892 111.682 -52.3681 -9.86892 
160.032 -9.21172 5.64974 118.742 -50.5027 5.6117 160.032 -9.21172 -5.64974 
118.742 -50.5027 -5.6117 164.591 -10.0953 1.96509 164.591 -10.0953 -1.96509 
119.593 -55.0928 1.96503 119.593 -55.0928 -1.96503 158.575 -8.49069 6.88814 
118.145 -48.8659 6.77395 158.575 -8.49069 -6.88814 118.145 -48.8659 -6.77395 
169.118 -8.49232 -5.29406 169.118 -8.49232 5.29406 117.99 -59.6202 -5.29406 
117.99 -59.6202 5.29406 163.197 -10.4612 -8.60688e-15 119.959 -53.6989 -8.60688e-15 
159.034 -10.255 4.20828 119.631 -49.6756 4.39631 159.034 -10.255 -4.20828 
119.631 -49.6756 -4.39631 161.258 -7.42705 7.41407 116.925 -51.7598 7.41407 
161.258 -7.42705 -7.41407 116.925 -51.7598 -7.41407 165.365 -9.70467 3.1448 
165.365 -9.70467 -3.1448 119.203 -55.8666 3.14479 119.203 -55.8666 -3.14479 
162.156 -10.0326 3.33997 162.156 -10.0326 -3.33997 119.531 -52.647 3.3444 
119.531 -52.647 -3.3444 159.923 -5.06551 9.09598 114.56 -50.4224 9.09797 
159.923 -5.06551 -9.09598 114.56 -50.4224 -9.09797 159.393 -11.1273 -4.16554e-15 
120.618 -49.9268 -6.38621e-15 163.789 -8.82429 5.34563 118.323 -54.2905 5.3451 
163.789 -8.82429 -5.34563 118.323 -54.2905 -5.3451 115.231 -44.4598 9.39372 
115.231 -44.4598 -9.39372 154.147 -4.81007 9.65769 154.147 -4.81007 -9.65769 
152.083 -6.19058 9.43679 152.083 -6.19058 -9.43679 155.452 -11.7834 2.5975 
155.452 -11.7834 -2.5975 118.025 -47.0785 7.31361 118.025 -47.0785 -7.31361 
157.046 -8.36106 7.35541 157.046 -8.36106 -7.35541 152.619 -12.7018 2.66247 
152.619 -12.7018 -2.66247 118.271 -42.6065 8.17172 118.271 -42.6065 -8.17172 
119.421 -40.0084 8.05414 119.421 -40.0084 -8.05414 153.54 -9.735 7.00945 
153.54 -9.735 -7.00945 115.071 -40.8749 9.76235 115.071 -40.8749 -9.76235 
148.996 -6.31024 9.71306 147.02 -6.96031 9.74754 145.254 -7.72206 9.75392 
143.538 -8.55537 9.75513 141.852 -9.44794 9.75536 140.197 -10.396 9.7554 
138.573 -11.3979 9.75541 136.984 -12.4524 9.75541 135.429 -13.5583 9.75541 
133.912 -14.7146 9.75541 132.433 -15.9198 9.75541 130.994 -17.1728 9.75541 
129.598 -18.4722 9.75541 128.244 -19.8166 9.75541 126.935 -21.2046 9.75541 
125.673 -22.6346 9.75541 124.457 -24.1052 9.75541 123.291 -25.6148 9.75541 
122.175 -27.1617 9.75541 121.109 -28.7443 9.75541 120.096 -30.3609 9.75541 
119.137 -32.0098 9.75541 118.232 -33.6893 9.75541 117.383 -35.3971 9.75533 
116.571 -37.1461 9.75802 115.794 -39.016 9.75756 148.996 -6.31024 -9.71306 
147.02 -6.96031 -9.74754 145.254 -7.72206 -9.75392 143.538 -8.55537 -9.75513 
141.852 -9.44794 -9.75536 140.197 -10.396 -9.7554 138.573 -11.3979 -9.75541 
136.984 -12.4524 -9.75541 135.429 -13.5583 -9.75541 133.912 -14.7146 -9.75541 
132.433 -15.9198 -9.75541 130.994 -17.1728 -9.75541 129.598 -18.4722 -9.75541 
128.244 -19.8166 -9.75541 126.935 -21.2046 -9.75541 125.673 -22.6346 -9.75541 
124.457 -24.1052 -9.75541 123.291 -25.6148 -9.75541 122.175 -27.1617 -9.75541 
121.109 -28.7443 -9.75541 120.096 -30.3609 -9.75541 119.137 -32.0098 -9.75541 
118.232 -33.6893 -9.75541 117.383 -35.3971 -9.75533 116.571 -37.1461 -9.75802 
115.794 -39.016 -9.75756 117.575 -43.5235 8.42026 117.575 -43.5235 -8.42026 
150.685 -5.20695 9.81283 150.685 -5.20695 -9.81283 121.186 -46.7416 2.06393 
121.186 -46.7416 -2.06393 152.876 -11.0566 5.76006 152.876 -11.0566 -5.76006 
121.645 -45.215 2.04981 121.645 -45.215 -2.04981 151.401 -8.6428 8.41224 
151.401 -8.6428 -8.41224 122.133 -43.9564 1.69674 122.133 -43.9564 -1.69674 
151.362 -11.6854 5.65496 151.362 -11.6854 -5.65496 121.416 -42.1482 5.16002 
121.416 -42.1482 -5.16002 149.811 -12.4158 5.50477 148.22 -13.1316 5.48189 
146.671 -13.8772 5.47854 145.156 -14.6672 5.47807 143.669 -15.505 5.47801 
142.21 -16.3907 5.478 140.782 -17.3236 5.478 139.385 -18.3026 5.478 
138.021 -19.3269 5.478 136.691 -20.3952 5.478 135.396 -21.5065 5.478 
134.139 -22.6596 5.478 132.92 -23.8532 5.478 131.741 -25.086 5.478 
130.602 -26.3567 5.478 129.506 -27.664 5.478 128.454 -29.0065 5.478 
127.445 -30.3827 5.478 126.483 -31.7911 5.478 125.567 -33.2303 5.478 
124.698 -34.6987 5.478 123.878 -36.1947 5.478 123.086 -37.9158 5.37335 
149.811 -12.4158 -5.50477 148.22 -13.1316 -5.48189 146.671 -13.8772 -5.47854 
145.156 -14.6672 -5.47807 143.669 -15.505 -5.47801 142.21 -16.3907 -5.478 
140.782 -17.3236 -5.478 139.385 -18.3026 -5.478 138.021 -19.3269 -5.478 
136.691 -20.3952 -5.478 135.396 -21.5065 -5.478 134.139 -22.6596 -5.478 
132.92 -23.8532 -5.478 131.741 -25.086 -5.478 130.602 -26.3567 -5.478 
129.506 -27.664 -5.478 128.454 -29.0065 -5.478 127.445 -30.3827 -5.478 
126.483 -31.7911 -5.478 125.567 -33.2303 -5.478 124.698 -34.6987 -5.478 
123.878 -36.1947 -5.478 123.086 -37.9158 -5.37335 167.672 -10.054 0.111947 
119.552 -58.1741 0.11195 122.06 -39.9005 5.54483 122.06 -39.9005 -5.54483 
156.133 -3.26821 9.87014 112.718 -46.9953 9.86405 156.133 -3.26821 -9.87014 
112.718 -46.9953 -9.86405 153.985 -12.4594 1.66895 153.985 -12.4594 -1.66895 
122.408 -42.719 2.44916 122.408 -42.719 -2.44916 123.015 -41.64 1.59646 
123.015 -41.64 -1.59646 151.459 -13.3678 1.71735 151.459 -13.3678 -1.71735 
150.098 -13.8851 1.92175 150.098 -13.8851 -1.92175 148.565 -14.5581 1.97379 
148.565 -14.5581 -1.97379 147.062 -15.287 1.98548 147.062 -15.287 -1.98548 
145.592 -16.0629 1.98794 145.592 -16.0629 -1.98794 144.15 -16.8857 1.98843 
144.15 -16.8857 -1.98843 142.737 -17.7548 1.98853 142.737 -17.7548 -1.98853 
141.353 -18.6697 1.98855 141.353 -18.6697 -1.98855 139.999 -19.6294 1.98855 
139.999 -19.6294 -1.98855 138.678 -20.6329 1.98855 138.678 -20.6329 -1.98855 
137.391 -21.679 1.98855 137.391 -21.679 -1.98855 136.138 -22.7667 1.98855 
136.138 -22.7667 -1.98855 134.921 -23.8948 1.98855 134.921 -23.8948 -1.98855 
133.742 -25.0621 1.98855 133.742 -25.0621 -1.98855 132.602 -26.2674 1.98855 
132.602 -26.2674 -1.98855 131.502 -27.5093 1.98855 131.502 -27.5093 -1.98855 
130.443 -28.7865 1.98855 130.443 -28.7865 -1.98855 129.427 -30.0977 1.98855 
129.427 -30.0977 -1.98855 128.454 -31.4415 1.98855 128.454 -31.4415 -1.98855 
127.525 -32.8164 1.98855 127.525 -32.8164 -1.98855 126.642 -34.2209 1.98855 
126.642 -34.2209 -1.98855 125.806 -35.6536 1.98855 125.806 -35.6536 -1.98855 
125.016 -37.1129 1.98855 125.016 -37.1129 -1.98855 124.269 -38.6261 1.95482 
124.269 -38.6261 -1.95482 123.559 -40.2484 1.80156 123.559 -40.2484 -1.80156 
152.509 -4.54222 9.82411 152.509 -4.54222 -9.82411 114.16 -42.6181 9.825 
114.16 -42.6181 -9.825 117.818 -45.6762 7.8032 117.818 -45.6762 -7.8032 
119.965 -46.2228 5.31916 119.965 -46.2228 -5.31916 157.62 -10.6186 4.13639 
157.62 -10.6186 -4.13639 119.907 -44.7729 6.00406 119.907 -44.7729 -6.00406 
156.45 -11.764 1.30446 156.45 -11.764 -1.30446 161.038 -8.6891 6.10695 
118.197 -51.5317 6.09564 161.038 -8.6891 -6.10695 118.197 -51.5317 -6.09564 
120.155 -48.6009 3.78812 120.155 -48.6009 -3.78812 119.201 -41.4353 7.8134 
119.201 -41.4353 -7.8134 148.775 -10.1934 8.07545 147.129 -10.9089 8.08279 
145.52 -11.6833 8.08292 143.936 -12.5103 8.08278 142.38 -13.3887 8.08273 
140.853 -14.3176 8.08271 139.358 -15.296 8.08271 137.895 -16.3227 8.08271 
136.467 -17.3968 8.08271 135.074 -18.517 8.08271 133.719 -19.6822 8.08271 
132.403 -20.8911 8.08271 131.127 -22.1424 8.08271 129.893 -23.4348 8.08271 
128.702 -24.7668 8.08271 127.555 -26.1372 8.08271 126.453 -27.5443 8.08271 
125.398 -28.9867 8.08271 124.391 -30.4629 8.08271 123.433 -31.9713 8.08271 
122.524 -33.5101 8.08271 121.666 -35.0779 8.08271 120.866 -36.6944 8.07221 
120.032 -38.3449 8.11711 148.775 -10.1934 -8.07545 147.129 -10.9089 -8.08279 
145.52 -11.6833 -8.08292 143.936 -12.5103 -8.08278 142.38 -13.3887 -8.08273 
140.853 -14.3176 -8.08271 139.358 -15.296 -8.08271 137.895 -16.3227 -8.08271 
136.467 -17.3968 -8.08271 135.074 -18.517 -8.08271 133.719 -19.6822 -8.08271 
132.403 -20.8911 -8.08271 131.127 -22.1424 -8.08271 129.893 -23.4348 -8.08271 
128.702 -24.7668 -8.08271 127.555 -26.1372 -8.08271 126.453 -27.5443 -8.08271 
125.398 -28.9867 -8.08271 124.391 -30.4629 -8.08271 123.433 -31.9713 -8.08271 
122.524 -33.5101 -8.08271 121.666 -35.0779 -8.08271 120.866 -36.6944 -8.07221 
120.032 -38.3449 -8.11711 154.012 -3.41149 9.92689 154.012 -3.41149 -9.92689 
150.182 -9.45591 8.18687 150.182 -9.45591 -8.18687 159.961 -10.9225 1.29668 
159.961 -10.9225 -1.29668 120.422 -50.5241 1.18936 120.422 -50.5241 -1.18936 
120.673 -49.3354 1.21331 120.673 -49.3354 -1.21331 155.188 -12.1626 1.06337 
155.188 -12.1626 -1.06337 152.671 -8.87685 7.9663 152.671 -8.87685 -7.9663 
155.74 -7.97754 7.94335 155.74 -7.97754 -7.94335 163.848 -10.3252 1.01327 
163.848 -10.3252 -1.01327 119.823 -54.3496 1.01316 119.823 -54.3496 -1.01316 
155.214 -5.53358 9.3383 155.214 -5.53358 -9.3383 156.861 -7.09267 8.35253 
156.861 -7.09267 -8.35253 159.252 -1.81244 9.96595 111.329 -49.7487 9.96451 
159.252 -1.81244 -9.96595 111.329 -49.7487 -9.96451 158.324 -11.2358 1.6056 
158.324 -11.2358 -1.6056 115.057 -46.1985 9.28027 115.057 -46.1985 -9.28027 
163.39 -3.21236 9.59153 112.71 -53.8921 9.59153 163.39 -3.21236 -9.59153 
112.71 -53.8921 -9.59153 113.382 -44.1166 9.8785 113.382 -44.1166 -9.8785 
169.135 -6.54371 -7.56903 169.135 -6.54371 7.56903 116.042 -59.6372 -7.56903 
116.042 -59.6372 7.56903 120.782 -43.7749 5.23831 120.782 -43.7749 -5.23831 
169.999 -10.4112 -0.96535 169.999 -0.96535 10.4112 169.999 -0.96535 -10.4112 
169.999 -10.4112 0.96535 169.999 -10.1843 -2.72055 169.999 -2.72055 10.1843 
169.999 -2.72055 -10.1843 169.999 -10.1843 2.72055 169.999 -9.49158 -4.45677 
169.999 -9.14349 -4.83519 169.999 -9.49158 4.45677 169.999 -9.14349 4.83519 
169.999 -4.45677 9.49158 169.999 -4.83519 9.14349 169.999 -4.45677 -9.49158 
169.999 -4.83519 -9.14349 169.999 -9.89261 3.06536 169.999 -3.06536 9.89261 
169.999 -3.06536 -9.89261 169.999 -9.89261 -3.06536 110.463 -60.501 10.4112 
119.909 -60.501 -0.96535 119.909 -60.501 0.96535 110.463 -60.501 -10.4112 
119.682 -60.501 -2.72055 119.682 -60.501 2.72055 112.219 -60.501 10.1843 
112.219 -60.501 -10.1843 118.99 -60.501 -4.45677 118.641 -60.501 -4.83519 
113.955 -60.501 -9.49158 114.333 -60.501 -9.14349 113.955 -60.501 9.49158 
114.333 -60.501 9.14349 118.99 -60.501 4.45677 118.641 -60.501 4.83519 
112.563 -60.501 9.89261 119.391 -60.501 -3.06536 112.563 -60.501 -9.89261 
119.391 -60.501 3.06536 196.291 -0.0465975 -9.99989 192.867 -1.51664 -9.88432 
7.12897 1.51715 -9.88424 3.70878 0.0466891 -9.99989 197.986 0.0306187 -9.99995 
194.584 -0.666191 -9.97779 191.583 0.728574 -9.97342 189.692 0.0734342 -9.99973 
187.573 0.311769 -9.99514 185.648 -0.19929 -9.99801 183.66 -0.387821 -9.99248 
181.691 -0.426154 -9.99092 179.701 -0.411924 -9.99151 177.717 -0.430172 -9.99074 
175.71 -0.405554 -9.99177 173.715 -0.424031 -9.99101 171.706 -0.406326 -9.99174 
169.711 -0.42838 -9.99082 167.702 -0.411275 -9.99154 165.707 -0.432498 -9.99064 
163.703 -0.413623 -9.99144 161.711 -0.434611 -9.99055 159.709 -0.411842 -9.99152 
157.72 -0.427113 -9.99087 155.707 -0.407282 -9.9917 153.713 -0.419027 -9.99122 
151.709 -0.402654 -9.99189 149.714 -0.422439 -9.99107 147.706 -0.405986 -9.99176 
145.71 -0.427499 -9.99086 143.702 -0.411168 -9.99154 141.712 -0.429 -9.99079 
139.706 -0.407587 -9.99169 137.716 -0.425584 -9.99094 135.705 -0.408373 -9.99166 
133.711 -0.432254 -9.99065 131.705 -0.415183 -9.99138 129.711 -0.437026 -9.99045 
127.708 -0.416094 -9.99134 125.722 -0.432087 -9.99066 123.711 -0.406254 -9.99174 
121.714 -0.420791 -9.99114 119.708 -0.405456 -9.99178 117.716 -0.424248 -9.991 
115.706 -0.406778 -9.99172 113.71 -0.427867 -9.99084 111.703 -0.410367 -9.99158 
109.713 -0.42951 -9.99077 107.705 -0.407858 -9.99168 105.717 -0.427518 -9.99086 
103.706 -0.406723 -9.99172 101.713 -0.422374 -9.99108 99.7071 -0.407735 -9.99168 
97.7169 -0.425747 -9.99093 95.7083 -0.407338 -9.9917 93.713 -0.421297 -9.99112 
91.7075 -0.405973 -9.99176 89.7155 -0.424371 -9.99099 87.706 -0.406805 -9.99172 
85.71 -0.427876 -9.99084 83.7032 -0.410368 -9.99158 81.7119 -0.431049 -9.99071 
79.7033 -0.409792 -9.9916 77.712 -0.433005 -9.99062 75.7074 -0.410275 -9.99158 
73.7166 -0.426659 -9.99089 71.7066 -0.406847 -9.99172 69.7123 -0.425249 -9.99095 
67.7052 -0.406504 -9.99173 65.7171 -0.426808 -9.99089 63.7064 -0.406503 -9.99173 
61.7119 -0.42089 -9.99114 59.7071 -0.405936 -9.99176 57.7167 -0.422994 -9.99105 
55.7058 -0.407088 -9.99171 53.7133 -0.424163 -9.991 51.709 -0.407545 -9.99169 
49.7207 -0.424845 -9.99097 47.707 -0.406791 -9.99172 45.7132 -0.418843 -9.99122 
43.7091 -0.402622 -9.99189 41.7139 -0.422413 -9.99107 39.7061 -0.405967 -9.99176 
37.7127 -0.427403 -9.99086 35.703 -0.41151 -9.99153 33.71 -0.430936 -9.99071 
31.7019 -0.412227 -9.9915 29.7097 -0.430221 -9.99074 27.7059 -0.409496 -9.99161 
25.7187 -0.428947 -9.9908 23.7081 -0.407658 -9.99169 21.7252 -0.424798 -9.99097 
19.7221 -0.414045 -9.99142 17.7302 -0.398295 -9.99206 15.7294 -0.341332 -9.99417 
13.8879 -0.355984 -9.99366 12.0843 -0.297799 -9.99556 10.1979 0.0448504 -9.9999 
8.32636 -0.270697 -9.99634 5.41496 0.666291 -9.97778 2.01441 -0.0306187 -9.99995 
198.824 -9.60242 -2.79171 197.994 9.8455 -1.75103 1.1761 9.60242 -2.79171 
2.00621 -9.8455 -1.75103 198.924 -9.62036 2.72923 1.076 9.62036 2.72923 
198.794 -9.19998 3.91924 198.992 9.51931 3.06314 1.20586 9.19998 3.91924 
1.00806 -9.51931 3.06314 198.921 -6.42216 7.66524 198.794 6.77454 7.35565 
1.07885 6.42216 7.66524 1.20597 -6.77454 7.35565 196.859 9.77662 -2.10184 
3.0806 9.78374 -2.06843 3.14149 -9.77662 -2.10184 196.919 -9.78374 -2.06843 
195.415 9.97782 -0.665664 193.333 9.68481 -2.49086 190.814 9.94425 -1.05447 
193.028 9.9969 0.249048 189.41 9.95887 -0.906085 187.188 9.92744 -1.20244 
188.135 9.99858 0.168368 186.12 9.99816 0.191834 185.142 9.93138 -1.16949 
183.144 9.9315 -1.1685 184.116 9.99801 0.199258 182.113 9.99794 0.202851 
181.135 9.93207 -1.16364 180.105 9.99788 0.205972 179.12 9.93099 -1.17282 
178.102 9.99789 0.205481 177.12 9.931 -1.17267 176.104 9.99791 0.204268 
175.133 9.93161 -1.16754 173.143 9.93141 -1.16923 174.111 9.99804 0.198151 
172.115 9.99799 0.200339 171.143 9.93157 -1.16783 169.145 9.93145 -1.16887 
170.117 9.99799 0.200385 168.116 9.99799 0.200668 167.143 9.93159 -1.16768 
165.144 9.93152 -1.16828 166.116 9.99798 0.200872 164.113 9.99794 0.203132 
163.135 9.93207 -1.16362 162.105 9.99788 0.206018 161.12 9.93099 -1.17283 
160.102 9.99789 0.205503 159.12 9.931 -1.17267 158.104 9.99791 0.204404 
157.133 9.93162 -1.16747 155.143 9.93149 -1.16856 156.111 9.99802 0.199145 
154.113 9.99795 0.2027 153.136 9.93203 -1.16395 152.109 9.9979 0.20474 
151.134 9.93156 -1.16792 149.144 9.93147 -1.16872 150.114 9.99799 0.200422 
148.116 9.99799 0.200692 147.143 9.93158 -1.16775 145.145 9.93145 -1.16886 
146.117 9.99799 0.200439 144.116 9.99799 0.200669 143.143 9.93159 -1.16769 
141.144 9.93151 -1.16835 142.116 9.99798 0.200826 140.114 9.99794 0.202836 
139.136 9.93203 -1.16397 138.109 9.99791 0.204565 137.134 9.93157 -1.16786 
135.143 9.93149 -1.16857 136.111 9.99802 0.198938 134.112 9.99794 0.202917 
133.135 9.93207 -1.16365 132.105 9.99788 0.206036 131.12 9.93099 -1.17282 
130.101 9.99788 0.205805 129.119 9.93105 -1.17225 128.101 9.99788 0.205899 
127.119 9.93107 -1.17215 126.101 9.99788 0.205674 125.12 9.93102 -1.17255 
124.104 9.99791 0.204456 123.133 9.93162 -1.16745 121.143 9.93149 -1.16856 
122.111 9.99802 0.199158 120.113 9.99795 0.202703 119.136 9.93203 -1.16395 
118.109 9.9979 0.20474 117.134 9.93156 -1.16792 115.144 9.93147 -1.16872 
116.114 9.99799 0.200422 114.116 9.99799 0.200692 113.143 9.93158 -1.16775 
111.145 9.93145 -1.16886 112.117 9.99799 0.200439 110.116 9.99799 0.200669 
109.143 9.93159 -1.16769 107.144 9.93151 -1.16835 108.116 9.99798 0.200826 
106.114 9.99794 0.202836 105.136 9.93203 -1.16397 104.109 9.99791 0.204565 
103.134 9.93157 -1.16786 101.143 9.93149 -1.16858 102.111 9.99802 0.198938 
100.112 9.99794 0.202868 99.1352 9.93206 -1.16373 98.1055 9.99788 0.205722 
97.121 9.93094 -1.17324 96.1051 9.99791 0.204279 95.1329 9.93161 -1.16754 
93.1427 9.93149 -1.16857 94.1108 9.99802 0.199097 92.1128 9.99795 0.202691 
91.136 9.93203 -1.16395 90.109 9.9979 0.204738 89.1341 9.93156 -1.16792 
87.1439 9.93147 -1.16872 88.1135 9.99799 0.200422 86.1158 9.99799 0.200692 
85.1428 9.93158 -1.16775 83.1449 9.93145 -1.16885 84.1168 9.99799 0.20044 
82.1164 9.99799 0.200676 81.1429 9.93159 -1.16768 79.1442 9.93152 -1.16829 
80.1163 9.99798 0.200866 78.1132 9.99794 0.203084 77.1354 9.93206 -1.16369 
76.1056 9.99788 0.205725 75.121 9.93094 -1.17325 74.1052 9.99792 0.204142 
73.1331 9.9316 -1.16761 71.1434 9.93141 -1.16923 72.1113 9.99804 0.198102 
70.1154 9.99799 0.200394 69.1426 9.93159 -1.16773 67.1443 9.93151 -1.16835 
68.1162 9.99798 0.200794 66.1138 9.99794 0.202832 65.1362 9.93203 -1.16397 
64.1089 9.99791 0.204559 63.134 9.93157 -1.16786 61.1429 9.93148 -1.16864 
62.1114 9.99802 0.198896 60.1129 9.99795 0.202617 59.1359 9.93202 -1.16401 
58.1087 9.99791 0.204545 57.1339 9.93157 -1.16785 55.1428 9.93149 -1.16858 
56.1113 9.99802 0.198951 54.1122 9.99794 0.20287 53.1352 9.93206 -1.16372 
52.1055 9.99788 0.205722 51.121 9.93094 -1.17324 50.1051 9.99791 0.204279 
49.1329 9.93161 -1.16754 47.1427 9.93149 -1.16857 48.1108 9.99802 0.199097 
46.1128 9.99795 0.202691 45.136 9.93203 -1.16395 44.109 9.9979 0.204738 
43.1341 9.93156 -1.16792 41.1439 9.93147 -1.16872 42.1135 9.99799 0.200422 
40.1158 9.99799 0.20069 39.1428 9.93158 -1.16775 37.145 9.93145 -1.16887 
38.1168 9.99799 0.200428 36.1165 9.99799 0.200602 35.143 9.93158 -1.16778 
33.145 9.93145 -1.16886 34.117 9.99799 0.200415 32.1164 9.99799 0.20067 
31.1429 9.93159 -1.16768 29.1442 9.93152 -1.16829 30.1163 9.99798 0.200865 
28.1132 9.99794 0.203087 27.1354 9.93206 -1.16369 26.1056 9.99788 0.205743 
25.121 9.93094 -1.17325 24.1051 9.99791 0.204277 23.133 9.93161 -1.16754 
21.1427 9.93149 -1.16855 22.1108 9.99802 0.199095 20.1128 9.99794 0.202834 
19.136 9.93205 -1.16374 18.109 9.99788 0.205651 17.1332 9.93164 -1.16729 
15.1437 9.9314 -1.16932 16.1148 9.99786 0.206743 14.1308 9.99808 0.196132 
13.0916 9.93254 -1.15958 12.3217 9.99759 0.219472 10.9397 9.97182 -0.750255 
8.33812 9.99989 0.0459571 6.89037 9.98905 -0.46781 4.28716 9.98431 -0.559937 
4.58492 -9.97782 -0.665628 6.66192 -9.68549 -2.48821 9.20872 -9.9441 -1.05588 
6.97104 -9.99689 0.249381 10.6804 -9.95861 -0.908906 12.9021 -9.97276 -0.737547 
11.9275 -9.99718 0.2374 14.8513 -9.926 -1.21427 13.8958 -9.9971 0.240752 
15.8836 -9.99833 0.182564 16.853 -9.92389 -1.23144 18.8379 -9.91632 -1.29096 
17.8777 -9.99883 0.153049 20.8409 -9.9219 -1.24739 19.8798 -9.99907 0.135995 
21.8766 -9.99893 0.146415 22.8459 -9.91613 -1.29243 24.8384 -9.92195 -1.24697 
23.8745 -9.99894 0.145422 26.8326 -9.91531 -1.29867 25.8694 -9.99901 0.140382 
28.8406 -9.92176 -1.24846 27.8778 -9.99913 0.132034 29.8769 -9.99893 0.146435 
30.845 -9.91661 -1.28875 32.8462 -9.92246 -1.24293 31.8794 -9.99892 0.147214 
33.8785 -9.99888 0.14968 34.8455 -9.91672 -1.28792 36.8463 -9.92247 -1.24279 
35.8798 -9.99891 0.147786 37.8786 -9.99888 0.149776 38.8455 -9.91672 -1.28791 
40.8461 -9.92244 -1.24305 39.8797 -9.99891 0.147748 41.8782 -9.99889 0.148763 
42.8466 -9.91621 -1.29178 44.8392 -9.92203 -1.24632 43.877 -9.99896 0.144407 
46.8372 -9.91619 -1.29199 45.871 -9.99895 0.144671 47.8759 -9.99888 0.149357 
48.8476 -9.92283 -1.23996 50.8657 -9.92578 -1.21609 49.8795 -9.99879 0.155343 
52.8356 -9.92133 -1.25185 51.8811 -9.99913 0.131947 54.837 -9.9161 -1.29266 
53.8704 -9.99899 0.14186 55.8758 -9.99889 0.149058 56.8477 -9.92285 -1.23975 
58.8664 -9.926 -1.21426 57.88 -9.99877 0.156734 60.8421 -9.92199 -1.24663 
59.8836 -9.99901 0.14083 61.8775 -9.99892 0.14691 62.8462 -9.91615 -1.29224 
64.8391 -9.92202 -1.24644 63.8767 -9.99896 0.144055 66.8371 -9.91616 -1.2922 
65.8709 -9.99896 0.144464 67.8757 -9.9989 0.148465 68.8472 -9.92266 -1.24131 
70.8447 -9.91642 -1.29021 69.8773 -9.99888 0.149445 71.8784 -9.99887 0.150604 
72.8484 -9.92286 -1.23968 74.8659 -9.92579 -1.21602 73.88 -9.99879 0.155601 
76.8356 -9.92133 -1.25187 75.8812 -9.99913 0.131993 78.8369 -9.91607 -1.29292 
77.8704 -9.999 0.141689 79.8755 -9.99891 0.147923 80.8471 -9.92264 -1.24147 
82.8448 -9.91643 -1.29013 81.8773 -9.99889 0.149253 83.8782 -9.99888 0.149757 
84.8479 -9.9227 -1.24101 86.8449 -9.91643 -1.29013 85.8779 -9.99888 0.149741 
87.8786 -9.99886 0.150889 88.8486 -9.92291 -1.23932 90.8665 -9.92601 -1.21418 
89.8806 -9.99877 0.157095 92.842 -9.922 -1.24659 91.8837 -9.99901 0.140885 
93.8773 -9.99892 0.147094 94.8461 -9.91614 -1.29233 96.8384 -9.92195 -1.24695 
95.8747 -9.99894 0.145514 98.8326 -9.91531 -1.29867 97.8695 -9.99901 0.140394 
100.84 -9.92174 -1.24866 99.8778 -9.99913 0.132033 101.876 -9.99894 0.145435 
102.846 -9.91611 -1.29256 104.839 -9.92201 -1.24649 103.877 -9.99897 0.143819 
106.837 -9.91616 -1.29222 105.871 -9.99896 0.144423 107.876 -9.9989 0.148442 
108.847 -9.92266 -1.24134 110.845 -9.91643 -1.29011 109.877 -9.99889 0.149346 
111.878 -9.99888 0.149773 112.848 -9.9227 -1.24101 114.845 -9.91643 -1.29013 
113.878 -9.99888 0.149744 115.879 -9.99886 0.150889 116.849 -9.92291 -1.23932 
118.867 -9.92601 -1.21418 117.881 -9.99877 0.157095 120.842 -9.922 -1.24659 
119.884 -9.99901 0.140885 121.877 -9.99892 0.147065 122.846 -9.91614 -1.29233 
124.838 -9.92191 -1.24731 123.875 -9.99894 0.145285 126.832 -9.91503 -1.30085 
125.869 -9.99904 0.138802 128.833 -9.92092 -1.25516 127.874 -9.99925 0.122647 
130.831 -9.91491 -1.30178 129.867 -9.9991 0.134393 132.834 -9.92106 -1.254 
131.875 -9.99925 0.122656 134.837 -9.91605 -1.29303 133.869 -9.99902 0.140292 
135.876 -9.99889 0.148797 136.848 -9.92285 -1.23981 138.866 -9.926 -1.21427 
137.88 -9.99877 0.156692 140.842 -9.92202 -1.24644 139.884 -9.99901 0.140827 
141.878 -9.99891 0.147911 142.845 -9.91665 -1.28841 144.846 -9.92246 -1.24287 
143.88 -9.99891 0.14745 145.879 -9.99888 0.149711 146.845 -9.91672 -1.28793 
148.846 -9.92244 -1.24305 147.88 -9.99891 0.147737 149.878 -9.99889 0.148761 
150.847 -9.91621 -1.29178 152.839 -9.92203 -1.24632 151.877 -9.99896 0.144407 
154.837 -9.91619 -1.29199 153.871 -9.99895 0.14467 155.876 -9.99889 0.149346 
156.848 -9.92282 -1.23998 158.866 -9.92577 -1.21617 157.879 -9.99879 0.155275 
160.835 -9.92121 -1.25282 159.88 -9.99914 0.13152 162.832 -9.91522 -1.29939 
161.869 -9.99906 0.137358 164.84 -9.92175 -1.24853 163.877 -9.99913 0.131776 
165.877 -9.99893 0.146384 166.845 -9.91661 -1.28876 168.846 -9.92246 -1.24293 
167.879 -9.99892 0.147205 169.878 -9.99888 0.14967 170.845 -9.91671 -1.28793 
172.846 -9.92244 -1.24306 171.88 -9.99891 0.14773 173.878 -9.99889 0.148905 
174.846 -9.9162 -1.29188 176.838 -9.92192 -1.2472 175.875 -9.99894 0.145675 
178.832 -9.91504 -1.30073 177.869 -9.99903 0.138943 180.834 -9.92109 -1.25376 
179.875 -9.99924 0.123084 182.838 -9.91618 -1.29205 181.87 -9.99901 0.141028 
183.882 -9.99883 0.152962 184.855 -9.92273 -1.24074 186.89 -9.91827 -1.27589 
185.904 -9.9989 0.148604 187.668 -9.99833 0.182654 189.058 -9.97174 -0.751299 
191.662 -9.99989 0.0459571 193.11 -9.98905 -0.46781 195.713 -9.98431 -0.559937 
191.884 9.98657 0.518047 189.899 9.99505 0.314576 9.6767 9.98208 0.598327 
5.63621 9.96618 0.821801 8.11619 -9.98657 0.518047 10.1008 -9.99505 0.314576 
190.323 -9.98209 0.598153 194.364 -9.96618 0.821801 199.194 9.73005 -2.30782 
0.805828 -9.73005 -2.30782 198.748 4.44897 8.95582 1.23179 4.60812 8.87498 
1.25212 -4.44897 8.95582 198.768 -4.60812 8.87498 199.106 -9.9009 1.40434 
198.83 9.931 1.17268 0.894329 9.9009 1.40434 1.17033 -9.931 1.17268 
197.532 5.33859 -8.45574 197.457 -5.32281 -8.46568 2.54305 5.32281 -8.46568 
2.46835 -5.33859 -8.45574 196.852 7.96269 -6.04943 196.673 -8.01097 -5.98535 
3.32705 8.01097 -5.98535 3.14695 -7.96269 -6.04943 195.666 6.91969 7.21927 
4.33369 -6.91969 7.21927 193.256 7.8219 6.2304 6.74411 -7.8219 6.2304 
9.54781 7.26697 6.86958 7.00078 7.67704 6.40805 190.452 -7.26698 6.86957 
192.999 -7.67704 6.40805 194.539 6.65448 -7.46444 5.46112 -6.65448 -7.46444 
4.32586 7.42648 6.69683 195.674 -7.42648 6.69683 193.043 -5.93063 -8.05156 
6.95504 5.93018 -8.05189 191.853 6.48297 7.61388 189.709 7.17706 6.96346 
188.076 6.31807 7.75125 186.388 6.33281 7.73922 184.456 6.34607 7.72835 
182.471 6.3428 7.73103 180.473 6.33429 7.73801 178.473 6.3278 7.74331 
176.474 6.32548 7.74521 174.473 6.32443 7.74607 172.474 6.32102 7.74886 
170.473 6.31996 7.74972 168.472 6.31916 7.75037 166.473 6.31571 7.75318 
164.472 6.31722 7.75195 162.471 6.32057 7.74922 160.468 6.32726 7.74376 
158.466 6.32423 7.74623 156.467 6.3305 7.74111 154.465 6.32576 7.74499 
152.467 6.33104 7.74066 150.465 6.32588 7.74488 148.467 6.33109 7.74063 
146.465 6.32589 7.74487 144.467 6.33181 7.74004 142.467 6.33446 7.73787 
140.468 6.33534 7.73715 138.467 6.33444 7.73788 136.468 6.33563 7.73691 
134.467 6.33422 7.73806 132.466 6.33263 7.73937 130.473 6.32381 7.74657 
128.471 6.32431 7.74617 126.473 6.32387 7.74652 124.472 6.3262 7.74463 
122.469 6.32712 7.74387 120.473 6.32461 7.74592 118.472 6.3266 7.7443 
116.469 6.32727 7.74375 114.473 6.32465 7.74589 112.471 6.32661 7.74429 
110.469 6.32727 7.74375 108.473 6.32465 7.74589 106.471 6.32661 7.74429 
104.469 6.32727 7.74375 102.473 6.32465 7.74589 100.471 6.32661 7.74429 
98.4688 6.32727 7.74375 96.473 6.32465 7.74589 94.4715 6.32661 7.74429 
92.4688 6.32727 7.74375 90.473 6.32465 7.74589 88.4715 6.32661 7.74429 
86.4688 6.32727 7.74375 84.473 6.32465 7.74589 82.4715 6.32661 7.74429 
80.4688 6.32727 7.74375 78.473 6.32465 7.74589 76.4715 6.32661 7.74429 
74.4688 6.32727 7.74375 72.473 6.32465 7.74589 70.4715 6.32661 7.74429 
68.4688 6.32727 7.74375 66.473 6.32465 7.74589 64.4715 6.32661 7.74429 
62.4688 6.32727 7.74375 60.473 6.32465 7.74589 58.4715 6.32661 7.74429 
56.4688 6.32727 7.74375 54.473 6.32465 7.74589 52.4715 6.32661 7.74429 
50.4688 6.32727 7.74375 48.473 6.32465 7.74589 46.4715 6.32661 7.74429 
44.4688 6.32727 7.74375 42.473 6.32465 7.74589 40.4715 6.32661 7.74429 
38.4688 6.32727 7.74375 36.473 6.32465 7.74589 34.4715 6.32661 7.74429 
32.4688 6.32727 7.74375 30.473 6.32463 7.7459 28.4715 6.32659 7.7443 
26.4688 6.32721 7.7438 24.473 6.32377 7.74661 22.472 6.3233 7.74699 
20.4727 6.31627 7.75272 18.4848 6.30153 7.76471 16.5104 6.2781 7.78367 
14.5567 6.22966 7.82249 12.4902 6.06053 7.95424 10.4831 5.92963 8.0523 
7.9479 6.97576 7.16511 6.52149 6.42181 7.66553 8.14691 -6.48297 7.61388 
10.291 -7.17706 6.96346 11.9241 -6.31807 7.75125 13.612 -6.33281 7.73922 
15.5444 -6.34607 7.72835 17.5292 -6.3428 7.73103 19.5273 -6.33429 7.73801 
21.5265 -6.3278 7.74331 23.5264 -6.32548 7.74521 25.5272 -6.32443 7.74607 
27.5264 -6.32102 7.74886 29.5271 -6.31996 7.74972 31.5277 -6.31916 7.75037 
33.527 -6.31571 7.75318 35.5277 -6.31722 7.75195 37.5286 -6.32057 7.74922 
39.5323 -6.32726 7.74376 41.5344 -6.32423 7.74623 43.5333 -6.3305 7.74111 
45.5345 -6.32576 7.74499 47.5334 -6.33104 7.74066 49.5346 -6.32588 7.74488 
51.5334 -6.33109 7.74063 53.5346 -6.32589 7.74487 55.5334 -6.33109 7.74062 
57.5346 -6.32589 7.74487 59.5333 -6.33181 7.74004 61.5327 -6.33446 7.73787 
63.5325 -6.33534 7.73715 65.5327 -6.33444 7.73788 67.5325 -6.33563 7.73691 
69.533 -6.33422 7.73806 71.534 -6.33263 7.73937 73.5266 -6.32381 7.74657 
75.5291 -6.32431 7.74617 77.5267 -6.32387 7.74652 79.5282 -6.3262 7.74463 
81.5311 -6.32712 7.74387 83.527 -6.32461 7.74592 85.5285 -6.3266 7.7443 
87.5312 -6.32727 7.74375 89.527 -6.32465 7.74589 91.5285 -6.32661 7.74429 
93.5312 -6.32727 7.74375 95.527 -6.32465 7.74589 97.5285 -6.32661 7.74429 
99.5312 -6.32727 7.74375 101.527 -6.32465 7.74589 103.529 -6.32661 7.74429 
105.531 -6.32727 7.74375 107.527 -6.32465 7.74589 109.529 -6.32661 7.74429 
111.531 -6.32727 7.74375 113.527 -6.32465 7.74589 115.529 -6.32661 7.74429 
117.531 -6.32727 7.74375 119.527 -6.32465 7.74589 121.529 -6.32661 7.74429 
123.531 -6.32727 7.74375 125.527 -6.32465 7.74589 127.529 -6.32661 7.74429 
129.531 -6.32727 7.74375 131.527 -6.32465 7.74589 133.529 -6.32661 7.74429 
135.531 -6.32727 7.74375 137.527 -6.32465 7.74589 139.529 -6.32661 7.74429 
141.531 -6.32727 7.74375 143.527 -6.32465 7.74589 145.529 -6.32661 7.74429 
147.531 -6.32727 7.74375 149.527 -6.32465 7.74589 151.529 -6.32661 7.74429 
153.531 -6.32727 7.74375 155.527 -6.32465 7.74589 157.529 -6.32661 7.74429 
159.531 -6.32727 7.74375 161.527 -6.32465 7.74589 163.529 -6.32661 7.74429 
165.531 -6.32727 7.74375 167.527 -6.32464 7.7459 169.529 -6.32661 7.74429 
171.531 -6.32726 7.74375 173.527 -6.32428 7.7462 175.528 -6.32499 7.74562 
177.527 -6.32095 7.74891 179.527 -6.3159 7.75303 181.516 -6.3033 7.76327 
183.483 -6.27229 7.78835 185.444 -6.23049 7.82183 187.51 -6.06054 7.95424 
189.517 -5.92964 8.05229 192.052 -6.97576 7.16511 193.479 -6.42181 7.66553 
191.513 -6.89079 -7.24686 193.119 6.10768 -7.91809 193.288 -8.11003 -5.85042 
186.124 6.55817 -7.5492 187.605 -6.50266 -7.59707 189.387 -6.59599 -7.51618 
183.716 -6.60587 -7.50749 184.665 6.56273 -7.54524 185.247 -7.12108 -7.0207 
181.196 -7.14971 -6.99154 179.693 -6.62751 -7.48839 176.077 6.60266 -7.51032 
177.196 -7.14971 -6.99154 172.689 6.57004 -7.53887 173.196 -7.14971 -6.99154 
174.439 6.60277 -7.51022 175.693 -6.62751 -7.48839 168.735 6.55808 -7.54928 
169.196 -7.14971 -6.99154 170.716 6.56971 -7.53916 171.693 -6.62751 -7.48839 
165.196 -7.14971 -6.99154 166.739 6.5252 -7.57771 167.693 -6.62751 -7.48839 
163.693 -6.62751 -7.48839 161.196 -7.14971 -6.99154 158.077 6.60266 -7.51032 
159.693 -6.62751 -7.48839 155.716 -6.60587 -7.50749 156.659 6.57099 -7.53804 
157.246 -7.12087 -7.02092 152.077 6.60262 -7.51035 153.196 -7.14971 -6.99154 
148.689 6.56988 -7.53901 149.196 -7.14971 -6.99154 150.44 6.60189 -7.511 
151.693 -6.62751 -7.48839 144.735 6.55806 -7.54929 145.196 -7.14971 -6.99154 
146.716 6.56964 -7.53922 147.693 -6.62751 -7.48839 141.196 -7.14971 -6.99154 
142.739 6.5252 -7.57771 143.693 -6.62751 -7.48839 138.077 6.60262 -7.51035 
139.693 -6.62751 -7.48839 135.716 -6.60587 -7.50749 136.659 6.57097 -7.53806 
137.246 -7.12087 -7.02092 133.196 -7.14971 -6.99154 131.693 -6.62751 -7.48839 
129.196 -7.14971 -6.99154 127.692 -6.62751 -7.48839 124.077 6.60266 -7.51032 
125.196 -7.14971 -6.99154 121.196 -7.14971 -6.99154 122.659 6.57099 -7.53804 
123.692 -6.62751 -7.48839 118.077 6.60262 -7.51035 119.692 -6.62751 -7.48839 
114.689 6.56988 -7.53901 115.716 -6.60587 -7.50749 116.44 6.60189 -7.511 
117.246 -7.12087 -7.02092 110.735 6.55806 -7.54929 111.716 -6.60587 -7.50749 
112.716 6.56964 -7.53922 113.246 -7.12087 -7.02092 107.716 -6.60587 -7.50749 
108.739 6.5252 -7.57771 109.246 -7.12087 -7.02092 104.077 6.60262 -7.51035 
105.196 -7.14971 -6.99154 101.196 -7.14971 -6.99154 102.659 6.57097 -7.53806 
103.692 -6.62751 -7.48839 99.6925 -6.62751 -7.48839 96.0773 6.60265 -7.51032 
97.1955 -7.14971 -6.99154 93.1955 -7.14971 -6.99154 94.659 6.57099 -7.53805 
95.6925 -6.62751 -7.48839 90.0772 6.60262 -7.51035 91.6925 -6.62751 -7.48839 
86.6891 6.56988 -7.53901 87.7158 -6.60587 -7.50749 88.4404 6.60189 -7.511 
89.2458 -7.12087 -7.02092 82.7348 6.55806 -7.54929 83.7158 -6.60587 -7.50749 
84.7161 6.56964 -7.53922 85.2458 -7.12087 -7.02092 79.7158 -6.60587 -7.50749 
80.7392 6.5252 -7.57771 81.2458 -7.12087 -7.02092 77.1955 -7.14971 -6.99154 
74.0773 6.60265 -7.51032 75.6925 -6.62751 -7.48839 70.6817 6.56758 -7.54101 
71.7158 -6.60587 -7.50749 72.4384 6.60223 -7.51069 73.2458 -7.12087 -7.02092 
67.7158 -6.60587 -7.50749 68.7388 6.52553 -7.57743 69.2458 -7.12087 -7.02092 
64.0772 6.60262 -7.51035 65.1955 -7.14971 -6.99154 61.1955 -7.14971 -6.99154 
62.6589 6.57097 -7.53806 63.6925 -6.62751 -7.48839 58.0772 6.60262 -7.51035 
59.6925 -6.62751 -7.48839 55.7158 -6.60587 -7.50749 56.6589 6.57097 -7.53806 
57.2458 -7.12087 -7.02092 53.1955 -7.14971 -6.99154 50.0773 6.60265 -7.51032 
51.6925 -6.62751 -7.48839 47.7158 -6.60587 -7.50749 48.6589 6.57099 -7.53805 
49.2458 -7.12087 -7.02092 44.0772 6.60262 -7.51035 45.1955 -7.14971 -6.99154 
40.6891 6.56988 -7.53901 41.1955 -7.14971 -6.99154 42.4404 6.60189 -7.511 
43.6925 -6.62751 -7.48839 36.7421 6.5605 -7.54717 37.1955 -7.14971 -6.99154 
38.7173 6.57005 -7.53887 39.6925 -6.62751 -7.48839 32.7356 6.5579 -7.54943 
33.1955 -7.14971 -6.99154 34.7299 6.5674 -7.54117 35.6925 -6.62751 -7.48839 
29.1955 -7.14971 -6.99154 30.7392 6.5252 -7.57772 31.6925 -6.62751 -7.48839 
27.6925 -6.62751 -7.48839 24.0773 6.60265 -7.51032 25.1955 -7.14971 -6.99154 
21.1955 -7.14971 -6.99154 22.6589 6.57099 -7.53805 23.6925 -6.62751 -7.48839 
18.0772 6.60262 -7.51035 19.6925 -6.62751 -7.48839 14.0775 6.60214 -7.51077 
15.7135 -6.60457 -7.50863 16.6589 6.57097 -7.53806 17.2455 -7.12066 -7.02112 
12.4479 6.61341 -7.50085 13.3351 -7.02762 -7.11425 8.47995 6.88889 -7.24867 
10.6438 6.63959 -7.47769 6.71081 8.10981 -5.85072 6.88143 -6.10768 -7.91809 
191.811 8.07691 -5.89606 191.396 -8.36485 -5.4799 190.166 8.31327 -5.55784 
189.592 -8.60909 -5.0876 188.369 8.72533 -4.88556 187.859 -8.60511 -5.09431 
186.308 8.64278 -5.03014 185.386 -8.23064 -5.67949 184.304 8.6382 -5.03801 
184.006 -8.73779 -4.86323 182.304 8.63743 -5.03932 181.367 -8.24411 -5.65991 
180.303 8.63731 -5.03954 179.994 -8.7412 -4.85711 178.303 8.63728 -5.03957 
177.366 -8.24479 -5.65892 176.303 8.63728 -5.03958 175.996 -8.74193 -4.85579 
174.303 8.63728 -5.03958 173.367 -8.24517 -5.65838 172.303 8.63728 -5.03958 
171.997 -8.7424 -4.85494 170.303 8.63728 -5.03958 169.367 -8.24518 -5.65836 
168.303 8.63728 -5.03958 167.997 -8.74236 -4.855 166.303 8.63728 -5.03958 
165.366 -8.245 -5.65863 164.303 8.63728 -5.03958 163.995 -8.74197 -4.85572 
162.303 8.63728 -5.03958 161.394 -8.23879 -5.66765 160.303 8.63728 -5.03958 
159.987 -8.76842 -4.80778 158.303 8.63728 -5.03958 157.199 -8.35526 -5.49451 
156.303 8.63728 -5.03958 155.822 -8.63027 -5.05159 154.303 8.63728 -5.03958 
153.367 -8.2444 -5.6595 152.303 8.63728 -5.03958 151.996 -8.74196 -4.85573 
150.303 8.63728 -5.03958 149.367 -8.24517 -5.65837 148.303 8.63728 -5.03958 
147.997 -8.74241 -4.85492 146.303 8.63728 -5.03958 145.367 -8.24528 -5.65821 
144.303 8.63728 -5.03958 143.997 -8.74274 -4.85433 142.303 8.63728 -5.03958 
141.395 -8.23909 -5.66721 140.303 8.63728 -5.03958 139.989 -8.76885 -4.807 
138.303 8.63728 -5.03958 137.199 -8.35526 -5.49451 136.303 8.63728 -5.03958 
135.822 -8.63027 -5.05159 134.303 8.63728 -5.03958 133.367 -8.24409 -5.65995 
132.303 8.63728 -5.03958 131.994 -8.74112 -4.85725 130.303 8.63728 -5.03958 
129.365 -8.2445 -5.65934 128.303 8.63728 -5.03958 127.993 -8.74115 -4.85718 
126.303 8.63728 -5.03958 125.366 -8.24488 -5.6588 124.303 8.63728 -5.03958 
123.996 -8.74224 -4.85523 122.303 8.63728 -5.03958 121.395 -8.23907 -5.66725 
120.303 8.63728 -5.03958 119.989 -8.76882 -4.80705 118.303 8.63728 -5.03958 
117.199 -8.35513 -5.4947 116.303 8.63728 -5.03958 115.822 -8.63027 -5.05159 
114.303 8.63728 -5.03958 113.385 -8.23708 -5.67015 112.303 8.63728 -5.03958 
112.007 -8.73875 -4.86151 110.303 8.63728 -5.03958 109.384 -8.23735 -5.66975 
108.303 8.63728 -5.03958 108.003 -8.73936 -4.86042 106.303 8.63728 -5.03958 
105.367 -8.24438 -5.65953 104.303 8.63728 -5.03958 103.996 -8.74189 -4.85585 
102.303 8.63728 -5.03958 101.366 -8.24489 -5.65878 100.303 8.63728 -5.03958 
99.9947 -8.74164 -4.85631 98.3034 8.63728 -5.03958 97.366 -8.24489 -5.65877 
96.3034 8.63728 -5.03958 95.9958 -8.74226 -4.8552 94.3034 8.63728 -5.03958 
93.3947 -8.23907 -5.66725 92.3034 8.63728 -5.03958 91.9888 -8.76882 -4.80705 
90.3034 8.63728 -5.03958 89.1992 -8.35513 -5.4947 88.3034 8.63728 -5.03958 
87.8221 -8.63027 -5.05159 86.3034 8.63728 -5.03958 85.3846 -8.23708 -5.67015 
84.3034 8.63728 -5.03958 84.007 -8.73875 -4.8615 82.3034 8.63728 -5.03958 
81.3836 -8.23743 -5.66964 80.3034 8.63728 -5.03958 80.0036 -8.73966 -4.85987 
78.3034 8.63728 -5.03958 77.3951 -8.23838 -5.66826 76.3034 8.63728 -5.03958 
75.9879 -8.76844 -4.80775 74.3034 8.63728 -5.03958 73.1992 -8.35513 -5.4947 
72.3034 8.63728 -5.03958 71.8221 -8.63027 -5.05159 70.3034 8.63728 -5.03958 
69.3836 -8.23735 -5.66975 68.3034 8.63728 -5.03958 68.0034 -8.73936 -4.86041 
66.3034 8.63728 -5.03958 65.3674 -8.24448 -5.65938 64.3034 8.63728 -5.03958 
63.9965 -8.74227 -4.85517 62.3034 8.63728 -5.03958 61.3947 -8.23907 -5.66725 
60.3034 8.63728 -5.03958 59.9887 -8.76883 -4.80704 58.3034 8.63728 -5.03958 
57.1989 -8.35526 -5.49451 56.3034 8.63728 -5.03958 55.8221 -8.63027 -5.05159 
54.3034 8.63728 -5.03958 53.3951 -8.23838 -5.66826 52.3034 8.63728 -5.03958 
51.9879 -8.76845 -4.80774 50.3034 8.63728 -5.03958 49.1989 -8.35526 -5.49451 
48.3034 8.63728 -5.03958 47.8221 -8.63027 -5.05159 46.3034 8.63728 -5.03958 
45.3674 -8.2444 -5.6595 44.3034 8.63728 -5.03958 43.9963 -8.74196 -4.85573 
42.3034 8.63728 -5.03958 41.3671 -8.24517 -5.65838 40.3034 8.63728 -5.03958 
39.9972 -8.7424 -4.85493 38.3034 8.63728 -5.03958 37.3671 -8.2452 -5.65833 
36.3034 8.63728 -5.03958 35.9972 -8.74243 -4.85489 34.3034 8.63728 -5.03958 
33.367 -8.24518 -5.65836 32.3034 8.63728 -5.03958 31.997 -8.74236 -4.85501 
30.3034 8.63728 -5.03958 29.3663 -8.24492 -5.65874 28.3034 8.63728 -5.03958 
27.9947 -8.74166 -4.85627 26.3034 8.63728 -5.03958 25.3659 -8.2448 -5.65891 
24.3034 8.63728 -5.03958 23.9955 -8.74191 -4.85583 22.3034 8.63728 -5.03958 
21.3668 -8.24483 -5.65887 20.3034 8.63728 -5.03958 19.9958 -8.74177 -4.85607 
18.3034 8.63728 -5.03958 17.3719 -8.22495 -5.68773 16.3034 8.63728 -5.03958 
15.6541 -8.62316 -5.06371 14.3034 8.63728 -5.03958 13.7667 -8.45654 -5.33731 
12.2884 8.61776 -5.07289 11.3764 -8.71181 -4.90963 10.4496 8.61872 -5.07126 
9.65437 -8.38965 -5.44185 8.61633 8.35036 -5.50195 8.13905 -8.09876 -5.86601 
194.182 -6.95304 -7.18716 5.81736 6.95292 -7.18727 5.67331 7.5092 6.60393 
194.327 -7.5092 6.60393 194.735 7.69642 6.38476 5.26452 -7.69642 6.38476 
192.045 6.8724 -7.26431 190.518 7.01791 -7.12383 9.29939 -7.14393 -6.99745 
7.95196 -6.89378 -7.24402 2.60218 5.57364 8.30268 197.398 -5.57364 8.30268 
198.133 5.73294 8.1935 1.86728 -5.73294 8.1935 198.486 3.60696 -9.32683 
198.355 -3.55662 -9.34615 1.64469 3.55662 -9.34615 1.51375 -3.60696 -9.32683 
197.335 -7.28911 6.84609 197.329 7.19307 6.94692 2.66502 7.28911 6.84609 
2.67088 -7.19307 6.94692 198.927 -8.90518 -4.54948 199.081 9.27967 -3.72663 
1.073 8.90518 -4.54948 0.919341 -9.27967 -3.72663 198.856 -7.80468 6.25195 
198.75 8.14246 5.8052 1.14422 7.80468 6.25195 1.24971 -8.14246 5.8052 
198.583 -9.98709 0.507898 198.857 9.97079 -0.763766 1.41652 9.98709 0.507898 
1.14288 -9.97079 -0.763766 198.808 -5.50091 -8.35105 198.98 5.14629 -8.57413 
1.19151 5.50091 -8.35105 1.01983 -5.14629 -8.57413 198.588 -9.94939 -1.00482 
1.41177 9.94939 -1.00482 198.6 1.67069 -9.85945 198.338 -1.57431 -9.8753 
1.66211 1.57431 -9.8753 1.40035 -1.67069 -9.85945 198.021 -9.83681 1.7992 
197.952 9.71827 2.35694 1.97912 9.83681 1.7992 2.04791 -9.71827 2.35694 
199.087 -8.68748 4.95255 199.076 8.91791 4.52448 0.91261 8.68748 4.95255 
0.923566 -8.91791 4.52448 198.96 -8.34139 -5.51555 198.942 8.34178 -5.51496 
1.03962 8.34139 -5.51555 1.05813 -8.34178 -5.51496 198.342 2.88251 9.57555 
1.47022 3.06252 9.51951 1.65781 -2.88251 9.57555 198.53 -3.06252 9.51951 
3.36261 9.72741 2.31895 196.637 -9.72741 2.31895 196.826 9.67025 2.5468 
3.1744 -9.67025 2.5468 194.1 4.76119 -8.79381 5.90006 -4.76119 -8.79381 
194.481 -5.35376 -8.44614 5.51932 5.35376 -8.44614 189.055 9.28326 3.71768 
187.128 9.36145 3.51614 185.138 9.35741 3.52687 183.141 9.35654 3.52919 
181.141 9.35638 3.52962 179.141 9.35635 3.52969 177.141 9.35635 3.5297 
175.141 9.35634 3.52971 173.141 9.35634 3.52971 171.141 9.35634 3.52971 
169.141 9.35634 3.52971 167.141 9.35634 3.52971 165.141 9.35634 3.52971 
163.141 9.35634 3.52971 161.141 9.35634 3.52971 159.141 9.35634 3.52971 
157.141 9.35634 3.52971 155.141 9.35634 3.52971 153.141 9.35634 3.52971 
151.141 9.35634 3.52971 149.141 9.35634 3.52971 147.141 9.35634 3.52971 
145.141 9.35634 3.52971 143.141 9.35634 3.52971 141.141 9.35634 3.52971 
139.141 9.35634 3.52971 137.141 9.35634 3.52971 135.141 9.35634 3.52971 
133.141 9.35634 3.52971 131.141 9.35634 3.52971 129.141 9.35634 3.52971 
127.141 9.35634 3.52971 125.141 9.35634 3.52971 123.141 9.35634 3.52971 
121.141 9.35634 3.52971 119.141 9.35634 3.52971 117.141 9.35634 3.52971 
115.141 9.35634 3.52971 113.141 9.35634 3.52971 111.141 9.35634 3.52971 
109.141 9.35634 3.52971 107.141 9.35634 3.52971 105.141 9.35634 3.52971 
103.141 9.35634 3.52971 101.141 9.35634 3.52971 99.1411 9.35634 3.52971 
97.1411 9.35634 3.52971 95.1411 9.35634 3.52971 93.1411 9.35634 3.52971 
91.1411 9.35634 3.52971 89.1411 9.35634 3.52971 87.1411 9.35634 3.52971 
85.1411 9.35634 3.52971 83.1411 9.35634 3.52971 81.1411 9.35634 3.52971 
79.1411 9.35634 3.52971 77.1411 9.35634 3.52971 75.1411 9.35634 3.52971 
73.1411 9.35634 3.52971 71.1411 9.35634 3.52971 69.1411 9.35634 3.52971 
67.1411 9.35634 3.52971 65.1411 9.35634 3.52971 63.1411 9.35634 3.52971 
61.1411 9.35634 3.52971 59.1411 9.35634 3.52971 57.1411 9.35634 3.52971 
55.1411 9.35634 3.52971 53.1411 9.35634 3.52971 51.1411 9.35634 3.52971 
49.1411 9.35634 3.52971 47.1411 9.35634 3.52971 45.1411 9.35634 3.52971 
43.1411 9.35634 3.52971 41.1411 9.35634 3.52971 39.1411 9.35634 3.52971 
37.1411 9.35634 3.52971 35.1411 9.35634 3.52971 33.1411 9.35634 3.52971 
31.1411 9.35634 3.52971 29.1411 9.35634 3.52971 27.1411 9.35634 3.52971 
25.1411 9.35634 3.52971 23.1411 9.35634 3.52971 21.1411 9.35634 3.52971 
19.1411 9.35634 3.52971 17.1411 9.35634 3.52971 15.0301 9.32279 3.61739 
13.1765 9.58332 2.85656 11.12 9.36373 3.51006 9.26719 9.24648 3.80822 
7.46185 9.36377 3.50996 10.9453 -9.28329 3.71759 12.8722 -9.36145 3.51614 
14.8615 -9.35741 3.52687 16.8594 -9.35654 3.52919 18.859 -9.35638 3.52962 
20.8589 -9.35635 3.52969 22.8589 -9.35635 3.5297 24.8589 -9.35634 3.52971 
26.8589 -9.35634 3.52971 28.8589 -9.35634 3.52971 30.8589 -9.35634 3.52971 
32.8589 -9.35634 3.52971 34.8589 -9.35634 3.52971 36.8589 -9.35634 3.52971 
38.8589 -9.35634 3.52971 40.8589 -9.35634 3.52971 42.8589 -9.35634 3.52971 
44.8589 -9.35634 3.52971 46.8589 -9.35634 3.52971 48.8589 -9.35634 3.52971 
50.8589 -9.35634 3.52971 52.8589 -9.35634 3.52971 54.8589 -9.35634 3.52971 
56.8589 -9.35634 3.52971 58.8589 -9.35634 3.52971 60.8589 -9.35634 3.52971 
62.8589 -9.35634 3.52971 64.8589 -9.35634 3.52971 66.8589 -9.35634 3.52971 
68.8589 -9.35634 3.52971 70.8589 -9.35634 3.52971 72.8589 -9.35634 3.52971 
74.8589 -9.35634 3.52971 76.8589 -9.35634 3.52971 78.8589 -9.35634 3.52971 
80.8589 -9.35634 3.52971 82.8589 -9.35634 3.52971 84.8589 -9.35634 3.52971 
86.8589 -9.35634 3.52971 88.8589 -9.35634 3.52971 90.8589 -9.35634 3.52971 
92.8589 -9.35634 3.52971 94.8589 -9.35634 3.52971 96.8589 -9.35634 3.52971 
98.8589 -9.35634 3.52971 100.859 -9.35634 3.52971 102.859 -9.35634 3.52971 
104.859 -9.35634 3.52971 106.859 -9.35634 3.52971 108.859 -9.35634 3.52971 
110.859 -9.35634 3.52971 112.859 -9.35634 3.52971 114.859 -9.35634 3.52971 
116.859 -9.35634 3.52971 118.859 -9.35634 3.52971 120.859 -9.35634 3.52971 
122.859 -9.35634 3.52971 124.859 -9.35634 3.52971 126.859 -9.35634 3.52971 
128.859 -9.35634 3.52971 130.859 -9.35634 3.52971 132.859 -9.35634 3.52971 
134.859 -9.35634 3.52971 136.859 -9.35634 3.52971 138.859 -9.35634 3.52971 
140.859 -9.35634 3.52971 142.859 -9.35634 3.52971 144.859 -9.35634 3.52971 
146.859 -9.35634 3.52971 148.859 -9.35634 3.52971 150.859 -9.35634 3.52971 
152.859 -9.35634 3.52971 154.859 -9.35634 3.52971 156.859 -9.35634 3.52971 
158.859 -9.35634 3.52971 160.859 -9.35634 3.52971 162.859 -9.35634 3.52971 
164.859 -9.35634 3.52971 166.859 -9.35634 3.52971 168.859 -9.35634 3.52971 
170.859 -9.35634 3.52971 172.859 -9.35634 3.52971 174.859 -9.35634 3.52971 
176.859 -9.35634 3.52971 178.859 -9.35634 3.52971 180.859 -9.35634 3.52971 
182.859 -9.35634 3.52971 184.971 -9.32246 3.61824 186.819 -9.58393 2.85451 
188.88 -9.36373 3.51006 190.733 -9.24648 3.80822 192.538 -9.36377 3.50996 
194.309 9.52759 3.03728 5.69117 -9.52759 3.03728 192.886 9.80686 1.95591 
7.11428 -9.80686 1.95591 193.763 2.67444 -9.63573 6.23688 -2.67433 -9.63576 
192.684 4.76006 8.79442 7.31595 -4.76006 8.79442 191.081 4.90294 8.71557 
188.671 4.06367 9.1371 186.691 4.03886 9.14809 184.685 4.05488 9.14101 
182.687 3.9656 9.18009 180.684 3.94705 9.18808 178.684 3.94085 9.19074 
176.682 3.94115 9.19061 174.682 3.94201 9.19024 172.683 3.93861 9.1917 
170.682 3.94067 9.19082 168.682 3.94193 9.19028 166.683 3.93859 9.19171 
164.682 3.94066 9.19082 162.682 3.94169 9.19038 160.678 3.95047 9.18661 
158.679 3.95051 9.18659 156.679 3.95051 9.18659 154.679 3.95052 9.18659 
152.679 3.95052 9.18659 150.679 3.95052 9.18659 148.679 3.95052 9.18659 
146.679 3.95052 9.18659 144.679 3.95052 9.18659 142.679 3.95052 9.18659 
140.679 3.95052 9.18659 138.679 3.95052 9.18659 136.679 3.95052 9.18659 
134.679 3.95052 9.18659 132.685 3.93677 9.19249 130.684 3.93791 9.192 
128.684 3.93842 9.19178 126.683 3.93955 9.1913 124.681 3.94275 9.18992 
122.684 3.93864 9.19169 120.683 3.9399 9.19115 118.681 3.94275 9.18992 
116.684 3.93864 9.19169 114.683 3.9399 9.19115 112.681 3.94275 9.18992 
110.684 3.93864 9.19169 108.683 3.9399 9.19115 106.681 3.94275 9.18992 
104.684 3.93864 9.19169 102.683 3.9399 9.19115 100.681 3.94275 9.18992 
98.6836 3.93864 9.19169 96.6831 3.9399 9.19115 94.6814 3.94275 9.18992 
92.6836 3.93864 9.19169 90.6831 3.9399 9.19115 88.6814 3.94275 9.18992 
86.6836 3.93864 9.19169 84.6831 3.9399 9.19115 82.6814 3.94275 9.18992 
80.6836 3.93864 9.19169 78.6831 3.9399 9.19115 76.6814 3.94275 9.18992 
74.6836 3.93864 9.19169 72.6831 3.9399 9.19115 70.6814 3.94275 9.18992 
68.6836 3.93864 9.19169 66.6831 3.9399 9.19115 64.6814 3.94275 9.18992 
62.6836 3.93864 9.19169 60.6831 3.9399 9.19115 58.6814 3.94275 9.18992 
56.6836 3.93864 9.19169 54.6831 3.9399 9.19115 52.6814 3.94275 9.18992 
50.6836 3.93864 9.19169 48.6831 3.9399 9.19115 46.6814 3.94275 9.18992 
44.6836 3.93864 9.19169 42.6831 3.9399 9.19115 40.6814 3.94275 9.18992 
38.6836 3.93864 9.19169 36.6831 3.9399 9.19115 34.6814 3.94275 9.18992 
32.6836 3.93864 9.19169 30.6831 3.9399 9.19115 28.6814 3.94275 9.18992 
26.6836 3.93864 9.19169 24.6831 3.9399 9.19115 22.6814 3.9427 9.18995 
20.6848 3.93682 9.19247 18.6887 3.93284 9.19417 16.7081 3.92445 9.19776 
14.7604 3.94648 9.18832 12.6919 4.43326 8.9636 10.4562 4.2921 9.03205 
9.08404 4.91105 8.711 8.91917 -4.90294 8.71557 11.3291 -4.06367 9.1371 
13.3092 -4.03886 9.14809 15.315 -4.05488 9.14101 17.3129 -3.9656 9.18009 
19.3155 -3.94705 9.18808 21.3164 -3.94085 9.19074 23.3175 -3.94115 9.19061 
25.3182 -3.94201 9.19024 27.3169 -3.93861 9.1917 29.3178 -3.94067 9.19082 
31.3183 -3.94193 9.19028 33.317 -3.93859 9.19171 35.3178 -3.94066 9.19082 
37.3181 -3.94169 9.19038 39.3216 -3.95047 9.18661 41.3215 -3.95051 9.18659 
43.3215 -3.95051 9.18659 45.3215 -3.95052 9.18659 47.3215 -3.95052 9.18659 
49.3215 -3.95052 9.18659 51.3215 -3.95052 9.18659 53.3215 -3.95052 9.18659 
55.3215 -3.95052 9.18659 57.3215 -3.95052 9.18659 59.3215 -3.95052 9.18659 
61.3215 -3.95052 9.18659 63.3215 -3.95052 9.18659 65.3215 -3.95052 9.18659 
67.3215 -3.95052 9.18659 69.3215 -3.95052 9.18659 71.315 -3.93677 9.19249 
73.3156 -3.93791 9.192 75.3162 -3.93842 9.19178 77.3167 -3.93955 9.1913 
79.3186 -3.94275 9.18992 81.3164 -3.93864 9.19169 83.3169 -3.9399 9.19115 
85.3186 -3.94275 9.18992 87.3164 -3.93864 9.19169 89.3169 -3.9399 9.19115 
91.3186 -3.94275 9.18992 93.3164 -3.93864 9.19169 95.3169 -3.9399 9.19115 
97.3186 -3.94275 9.18992 99.3164 -3.93864 9.19169 101.317 -3.9399 9.19115 
103.319 -3.94275 9.18992 105.316 -3.93864 9.19169 107.317 -3.9399 9.19115 
109.319 -3.94275 9.18992 111.316 -3.93864 9.19169 113.317 -3.9399 9.19115 
115.319 -3.94275 9.18992 117.316 -3.93864 9.19169 119.317 -3.9399 9.19115 
121.319 -3.94275 9.18992 123.316 -3.93864 9.19169 125.317 -3.9399 9.19115 
127.319 -3.94275 9.18992 129.316 -3.93864 9.19169 131.317 -3.9399 9.19115 
133.319 -3.94275 9.18992 135.316 -3.93864 9.19169 137.317 -3.9399 9.19115 
139.319 -3.94275 9.18992 141.316 -3.93864 9.19169 143.317 -3.9399 9.19115 
145.319 -3.94275 9.18992 147.316 -3.93864 9.19169 149.317 -3.9399 9.19115 
151.319 -3.94275 9.18992 153.316 -3.93864 9.19169 155.317 -3.9399 9.19115 
157.319 -3.94275 9.18992 159.316 -3.93864 9.19169 161.317 -3.9399 9.19115 
163.319 -3.94275 9.18992 165.316 -3.93864 9.19169 167.317 -3.9399 9.19115 
169.319 -3.94275 9.18992 171.316 -3.93864 9.19169 173.317 -3.9399 9.19115 
175.319 -3.94275 9.18992 177.316 -3.93835 9.19181 179.317 -3.9388 9.19162 
181.314 -3.93698 9.1924 183.291 -3.92317 9.1983 185.24 -3.94648 9.18832 
187.308 -4.43326 8.9636 189.544 -4.2921 9.03205 190.916 -4.91105 8.711 
195.748 9.22229 3.86644 4.25171 -9.22229 3.86644 190.843 9.20136 3.916 
9.15674 -9.20136 3.91598 196.045 -4.48737 -8.93664 3.95541 4.48737 -8.93664 
195.768 5.18881 -8.54847 4.23224 -5.18879 -8.54848 4.84925 3.75769 9.26713 
195.151 -3.75769 9.26713 195.74 4.33207 9.01295 4.26036 -4.33207 9.01295 
191.279 5.25661 -8.50694 8.70614 -5.28708 -8.48804 3.79765 4.67627 8.83926 
196.202 -4.67627 8.83926 194.52 8.71161 4.90998 5.48044 -8.71161 4.90998 
189.418 5.35515 8.44526 187.508 5.00937 8.65483 185.581 5.01711 8.65036 
183.581 5.00184 8.65919 181.589 4.94523 8.69165 179.586 4.9311 8.69967 
177.587 4.91869 8.70669 175.58 4.93294 8.69862 173.584 4.92287 8.70433 
171.587 4.91682 8.70775 169.58 4.93264 8.6988 167.584 4.92279 8.70437 
165.587 4.9168 8.70776 163.58 4.93263 8.6988 161.585 4.92167 8.70501 
159.563 4.97413 8.67514 157.585 4.92185 8.70491 155.563 4.97413 8.67514 
153.585 4.9219 8.70488 151.563 4.97413 8.67514 149.585 4.92191 8.70487 
147.563 4.97413 8.67514 145.585 4.92191 8.70487 143.563 4.97413 8.67514 
141.585 4.92191 8.70487 139.563 4.97413 8.67514 137.585 4.92191 8.70487 
135.563 4.97413 8.67514 133.585 4.92191 8.70487 131.595 4.90911 8.7121 
129.583 4.92727 8.70184 127.592 4.91154 8.71072 125.58 4.93263 8.6988 
123.583 4.92669 8.70217 121.591 4.91317 8.70981 119.58 4.93263 8.6988 
117.583 4.92669 8.70217 115.591 4.91317 8.70981 113.58 4.93263 8.6988 
111.583 4.92669 8.70217 109.591 4.91317 8.70981 107.58 4.93263 8.6988 
105.583 4.92669 8.70217 103.591 4.91317 8.70981 101.58 4.93263 8.6988 
99.5825 4.92669 8.70217 97.5911 4.91317 8.70981 95.5801 4.93263 8.6988 
93.5825 4.92669 8.70217 91.5911 4.91317 8.70981 89.5801 4.93263 8.6988 
87.5825 4.92669 8.70217 85.5911 4.91317 8.70981 83.5801 4.93263 8.6988 
81.5825 4.92669 8.70217 79.5911 4.91317 8.70981 77.5801 4.93263 8.6988 
75.5825 4.92669 8.70217 73.5911 4.91317 8.70981 71.5801 4.93263 8.6988 
69.5825 4.92669 8.70217 67.5911 4.91317 8.70981 65.5801 4.93263 8.6988 
63.5825 4.92669 8.70217 61.5911 4.91317 8.70981 59.5801 4.93263 8.6988 
57.5825 4.92669 8.70217 55.5911 4.91317 8.70981 53.5801 4.93263 8.6988 
51.5825 4.92669 8.70217 49.5911 4.91317 8.70981 47.5801 4.93263 8.6988 
45.5825 4.92669 8.70217 43.5911 4.91317 8.70981 41.5801 4.93263 8.6988 
39.5825 4.92669 8.70217 37.5911 4.91317 8.70981 35.5801 4.93263 8.6988 
33.5825 4.92669 8.70217 31.5911 4.91317 8.70981 29.5801 4.93263 8.6988 
27.5825 4.92669 8.70217 25.5911 4.91317 8.70981 23.5801 4.93263 8.6988 
21.5825 4.92644 8.70231 19.597 4.90478 8.71454 17.6019 4.9076 8.71295 
15.6848 4.87861 8.72921 13.9381 4.9456 8.69144 11.5127 5.06088 8.62482 
7.63183 5.48159 8.36374 10.5819 -5.35515 8.44526 12.4917 -5.00937 8.65483 
14.4194 -5.01711 8.65036 16.4187 -5.00184 8.65919 18.4113 -4.94523 8.69165 
20.4143 -4.9311 8.69967 22.4126 -4.91869 8.70669 24.4197 -4.93294 8.69862 
26.4158 -4.92287 8.70433 28.4133 -4.91682 8.70775 30.4199 -4.93264 8.6988 
32.4159 -4.92279 8.70437 34.4134 -4.9168 8.70776 36.4199 -4.93263 8.6988 
38.4151 -4.92167 8.70501 40.4372 -4.97413 8.67514 42.4146 -4.92185 8.70491 
44.4372 -4.97413 8.67514 46.4146 -4.9219 8.70488 48.4372 -4.97413 8.67514 
50.4146 -4.92191 8.70487 52.4372 -4.97413 8.67514 54.4146 -4.92191 8.70487 
56.4372 -4.97413 8.67514 58.4146 -4.92191 8.70487 60.4372 -4.97413 8.67514 
62.4146 -4.92191 8.70487 64.4372 -4.97413 8.67514 66.4146 -4.92191 8.70487 
68.4372 -4.97413 8.67514 70.4146 -4.92191 8.70487 72.4051 -4.90911 8.7121 
74.4172 -4.92727 8.70184 76.4082 -4.91154 8.71072 78.4199 -4.93263 8.6988 
80.4175 -4.92669 8.70217 82.4089 -4.91317 8.70981 84.4199 -4.93263 8.6988 
86.4175 -4.92669 8.70217 88.4089 -4.91317 8.70981 90.4199 -4.93263 8.6988 
92.4175 -4.92669 8.70217 94.4089 -4.91317 8.70981 96.4199 -4.93263 8.6988 
98.4175 -4.92669 8.70217 100.409 -4.91317 8.70981 102.42 -4.93263 8.6988 
104.417 -4.92669 8.70217 106.409 -4.91317 8.70981 108.42 -4.93263 8.6988 
110.417 -4.92669 8.70217 112.409 -4.91317 8.70981 114.42 -4.93263 8.6988 
116.417 -4.92669 8.70217 118.409 -4.91317 8.70981 120.42 -4.93263 8.6988 
122.417 -4.92669 8.70217 124.409 -4.91317 8.70981 126.42 -4.93263 8.6988 
128.417 -4.92669 8.70217 130.409 -4.91317 8.70981 132.42 -4.93263 8.6988 
134.417 -4.92669 8.70217 136.409 -4.91317 8.70981 138.42 -4.93263 8.6988 
140.417 -4.92669 8.70217 142.409 -4.91317 8.70981 144.42 -4.93263 8.6988 
146.417 -4.92669 8.70217 148.409 -4.91317 8.70981 150.42 -4.93263 8.6988 
152.417 -4.92669 8.70217 154.409 -4.91317 8.70981 156.42 -4.93263 8.6988 
158.417 -4.92669 8.70217 160.409 -4.91317 8.70981 162.42 -4.93263 8.6988 
164.417 -4.92669 8.70217 166.409 -4.91317 8.70981 168.42 -4.93263 8.6988 
170.417 -4.92669 8.70217 172.409 -4.91317 8.70981 174.42 -4.93263 8.6988 
176.417 -4.92669 8.70217 178.409 -4.91178 8.71059 180.419 -4.92882 8.70096 
182.396 -4.90317 8.71544 184.314 -4.877 8.73011 186.062 -4.9456 8.69144 
188.487 -5.06088 8.62482 192.368 -5.48159 8.36374 194.787 9.34873 -3.54983 
5.21347 -9.34873 -3.54983 194.281 4.47337 8.94365 5.71913 -4.47337 8.94365 
6.41622 8.59067 5.11864 193.584 -8.59067 5.11864 4.85154 8.46152 5.32941 
195.148 -8.46152 5.32941 6.18571 4.56515 8.89715 193.814 -4.56515 8.89715 
190.124 -5.25438 -8.50832 188.434 -5.22584 -8.52588 186.476 5.06421 -8.62287 
183.909 5.31066 -8.4733 182.194 5.25616 -8.50722 180.247 5.25143 -8.51014 
178.257 5.25127 -8.51024 176.509 5.33929 -8.45529 173.727 5.40284 -8.41483 
171.856 5.30602 -8.47621 169.876 5.31823 -8.46855 167.876 5.27436 -8.49595 
166.007 5.26785 -8.49999 164.195 5.25724 -8.50655 162.247 5.25161 -8.51003 
160.257 5.25129 -8.51022 158.509 5.3393 -8.45529 155.917 5.31786 -8.46879 
154.195 5.25736 -8.50648 152.498 5.33957 -8.45512 149.727 5.40251 -8.41504 
147.856 5.30588 -8.4763 145.876 5.31818 -8.46859 143.876 5.27435 -8.49596 
142.007 5.26785 -8.49999 140.195 5.25724 -8.50655 138.498 5.33955 -8.45513 
135.917 5.31775 -8.46885 134.195 5.25735 -8.50649 132.247 5.25163 -8.51002 
130.257 5.2513 -8.51022 128.258 5.25133 -8.5102 126.259 5.25135 -8.51019 
124.509 5.33932 -8.45527 121.917 5.31786 -8.46879 120.195 5.25736 -8.50648 
118.498 5.33957 -8.45511 115.727 5.40251 -8.41504 113.856 5.30588 -8.4763 
111.876 5.31818 -8.46859 109.876 5.27435 -8.49596 108.007 5.26785 -8.49999 
106.195 5.25724 -8.50655 104.498 5.33955 -8.45513 101.917 5.31775 -8.46885 
100.195 5.25735 -8.50649 98.2472 5.25163 -8.51002 96.5071 5.33926 -8.45531 
93.9174 5.31785 -8.4688 92.1951 5.25736 -8.50648 90.4976 5.33957 -8.45512 
87.7269 5.40251 -8.41504 85.8557 5.30588 -8.4763 83.8763 5.31818 -8.46859 
81.8756 5.27435 -8.49596 80.0067 5.26785 -8.49999 78.1949 5.25724 -8.50655 
76.2471 5.25161 -8.51003 74.5071 5.33926 -8.45531 71.7248 5.40192 -8.41541 
69.8402 5.29063 -8.48583 68.0026 5.26845 -8.49961 66.1949 5.25724 -8.50655 
64.4976 5.33955 -8.45513 61.9173 5.31775 -8.46885 60.1951 5.25735 -8.50649 
58.4976 5.33957 -8.45512 55.9173 5.31775 -8.46885 54.1951 5.25735 -8.50649 
52.2472 5.25163 -8.51002 50.5071 5.33926 -8.45531 47.9174 5.31785 -8.4688 
46.1951 5.25736 -8.50648 44.4976 5.33957 -8.45512 41.7269 5.40251 -8.41504 
39.8559 5.30596 -8.47625 37.8786 5.31907 -8.46803 35.8934 5.28937 -8.48661 
33.8859 5.31484 -8.47068 31.8774 5.27375 -8.49633 30.0068 5.26783 -8.5 
28.1949 5.25724 -8.50655 26.2471 5.25161 -8.51003 24.5071 5.33926 -8.45531 
21.9174 5.31785 -8.4688 20.1951 5.25736 -8.50648 18.4976 5.33958 -8.45511 
15.9173 5.31778 -8.46884 14.5099 5.35562 -8.44496 11.7049 5.37179 -8.43468 
9.85769 5.24077 -8.51671 191.68 -4.86422 -8.73724 8.31248 4.86167 -8.73866 
190.594 -3.46751 -9.37957 189.878 3.7099 -9.28637 11.9241 -3.88471 -9.21461 
9.3949 3.46506 -9.38048 10.0988 -3.65456 -9.30829 186.512 3.54727 -9.3497 
187.505 -3.82857 -9.23808 189.054 -3.72234 -9.28139 182.923 3.84453 -9.23145 
183.769 -3.88649 -9.21386 184.957 3.98239 -9.17282 180.977 3.81277 -9.24461 
178.998 3.80764 -9.24672 179.776 -3.87567 -9.21841 177.051 3.82756 -9.23849 
172.983 3.87363 -9.21927 175.002 4.01297 -9.15948 175.776 -3.87537 -9.21854 
168.981 3.87258 -9.21971 170.933 3.84998 -9.22917 171.776 -3.87537 -9.21854 
164.934 3.8521 -9.22829 166.915 3.83976 -9.23343 167.776 -3.87537 -9.21854 
162.979 3.81453 -9.24388 163.776 -3.87537 -9.21854 160.998 3.80801 -9.24657 
159.051 3.82764 -9.23846 159.776 -3.87537 -9.21854 154.935 3.85316 -9.22785 
155.776 -3.87537 -9.21854 157.002 4.01297 -9.15948 153.027 3.8353 -9.23529 
148.982 3.87347 -9.21934 151.001 4.01242 -9.15972 151.776 -3.87537 -9.21854 
144.981 3.87258 -9.21971 146.933 3.84992 -9.2292 147.776 -3.87537 -9.21854 
140.934 3.8521 -9.22829 142.915 3.83976 -9.23343 143.776 -3.87537 -9.21854 
139.027 3.83506 -9.23538 139.776 -3.87537 -9.21854 134.935 3.853 -9.22791 
135.776 -3.87537 -9.21854 137.001 4.01242 -9.15972 132.98 3.81473 -9.2438 
130.998 3.80805 -9.24655 131.776 -3.87537 -9.21854 129.004 3.80711 -9.24694 
127.005 3.80701 -9.24698 127.776 -3.87537 -9.21854 125.052 3.82754 -9.2385 
120.935 3.85317 -9.22784 123.002 4.01298 -9.15947 123.776 -3.87537 -9.21854 
119.027 3.8353 -9.23529 119.776 -3.87537 -9.21854 114.982 3.87347 -9.21934 
115.776 -3.87537 -9.21854 117.001 4.01242 -9.15972 110.981 3.87258 -9.21971 
111.776 -3.87537 -9.21854 112.933 3.84992 -9.2292 106.934 3.8521 -9.22829 
107.776 -3.87537 -9.21854 108.915 3.83976 -9.23343 105.027 3.83506 -9.23538 
100.935 3.853 -9.22791 103.001 4.01242 -9.15972 103.776 -3.87537 -9.21854 
98.9797 3.81473 -9.2438 99.7764 -3.87537 -9.21854 97.0456 3.82859 -9.23807 
92.9354 3.85314 -9.22786 95.0018 4.0129 -9.15951 95.7764 -3.87537 -9.21854 
91.027 3.83529 -9.23529 91.7764 -3.87537 -9.21854 86.9825 3.87347 -9.21934 
87.7764 -3.87537 -9.21854 89.0012 4.01242 -9.15972 82.9814 3.87258 -9.21971 
83.7764 -3.87537 -9.21854 84.9334 3.84992 -9.2292 78.9341 3.8521 -9.22829 
79.7764 -3.87537 -9.21854 80.9151 3.83976 -9.23343 76.9794 3.81453 -9.24388 
75.0456 3.82855 -9.23808 75.7764 -3.87537 -9.21854 70.9826 3.87361 -9.21928 
71.7764 -3.87537 -9.21854 73.0018 4.0129 -9.15951 66.9341 3.85211 -9.22829 
67.7764 -3.87537 -9.21854 68.9107 3.84066 -9.23306 65.0267 3.83506 -9.23538 
60.9352 3.853 -9.22791 63.0012 4.01242 -9.15972 63.7764 -3.87537 -9.21854 
59.027 3.83526 -9.2353 59.7764 -3.87537 -9.21854 54.9352 3.853 -9.22791 
55.7764 -3.87537 -9.21854 57.0012 4.01242 -9.15972 52.9797 3.81473 -9.2438 
51.0456 3.82859 -9.23807 51.7764 -3.87537 -9.21854 46.9354 3.85314 -9.22786 
47.7764 -3.87537 -9.21854 49.0018 4.0129 -9.15951 45.027 3.83529 -9.23529 
40.9825 3.87347 -9.21934 43.0012 4.01242 -9.15972 43.7764 -3.87537 -9.21854 
36.9814 3.87258 -9.21971 38.9334 3.84992 -9.2292 39.7764 -3.87537 -9.21854 
32.9814 3.87258 -9.21972 34.9379 3.84908 -9.22955 35.7764 -3.87537 -9.21854 
28.9341 3.8521 -9.22829 30.9153 3.83974 -9.23344 31.7764 -3.87537 -9.21854 
26.9794 3.81453 -9.24388 27.7764 -3.87537 -9.21854 25.0456 3.82855 -9.23808 
20.9354 3.85314 -9.22786 23.0018 4.0129 -9.15951 23.7764 -3.87537 -9.21854 
19.027 3.83529 -9.23529 19.7764 -3.87537 -9.21854 15.0766 3.89867 -9.20871 
15.774 -3.85692 -9.22628 17.0013 4.01244 -9.15971 13.1233 4.20682 -9.07208 
11.1151 3.85214 -9.22827 2.14675 8.33272 -5.52863 197.853 -8.33272 -5.52863 
197.783 8.4377 -5.36705 2.21651 -8.4377 -5.36705 193.293 7.63295 -6.4605 
6.68711 -7.63299 -6.46045 5.4398 9.11578 -4.11127 194.56 -9.11578 -4.11127 
188.91 7.48167 -6.6351 187.176 7.57002 -6.53413 185.344 7.6788 -6.40594 
183.327 7.51485 -6.5975 181.101 7.63364 -6.45968 179.063 7.65318 -6.43652 
177.138 7.67979 -6.40475 175.328 7.70297 -6.37685 173.406 7.70556 -6.37373 
171.37 7.67992 -6.40459 169.466 7.69527 -6.38614 167.371 7.67937 -6.40525 
165.33 7.51575 -6.59648 163.101 7.63375 -6.45955 161.063 7.6532 -6.4365 
159.138 7.67979 -6.40475 157.328 7.70297 -6.37685 155.323 7.51925 -6.59249 
153.181 7.65777 -6.43106 151.335 7.69932 -6.38126 149.407 7.70479 -6.37466 
147.37 7.67984 -6.4047 145.467 7.69525 -6.38617 143.371 7.67937 -6.40526 
141.33 7.51575 -6.59648 139.182 7.6572 -6.43174 137.335 7.69922 -6.38138 
135.324 7.51869 -6.59312 133.1 7.63423 -6.45899 131.063 7.65328 -6.43641 
129.057 7.65645 -6.43264 127.056 7.65697 -6.43201 125.136 7.68042 -6.404 
123.328 7.70308 -6.37672 121.323 7.51926 -6.59247 119.181 7.65778 -6.43106 
117.335 7.69932 -6.38126 115.407 7.70479 -6.37466 113.37 7.67984 -6.4047 
111.467 7.69525 -6.38617 109.371 7.67937 -6.40526 107.33 7.51575 -6.59648 
105.182 7.6572 -6.43174 103.335 7.69922 -6.38138 101.324 7.51869 -6.59312 
99.1005 7.63423 -6.45899 97.1439 7.67665 -6.40852 95.3288 7.70245 -6.37748 
93.3235 7.51917 -6.59258 91.181 7.65776 -6.43107 89.3349 7.69932 -6.38126 
87.4069 7.70479 -6.37466 85.3703 7.67984 -6.4047 83.4665 7.69525 -6.38617 
81.3711 7.67937 -6.40526 79.3296 7.51575 -6.59648 77.1013 7.63375 -6.45955 
75.144 7.67657 -6.40861 73.3288 7.70244 -6.3775 71.4043 7.70504 -6.37435 
69.3701 7.67991 -6.40461 67.3294 7.51583 -6.59639 65.182 7.65722 -6.43172 
63.3351 7.69923 -6.38137 61.3244 7.51869 -6.59312 59.1812 7.65768 -6.43117 
57.335 7.6993 -6.38128 55.3244 7.5187 -6.59311 53.1005 7.63423 -6.45898 
51.1439 7.67665 -6.40852 49.3288 7.70245 -6.37748 47.3235 7.51917 -6.59258 
45.181 7.65776 -6.43107 43.3349 7.69932 -6.38126 41.4069 7.70479 -6.37466 
39.3703 7.67984 -6.4047 37.4679 7.69565 -6.38569 35.3711 7.67937 -6.40526 
33.4691 7.69483 -6.38668 31.3711 7.67936 -6.40527 29.3296 7.51575 -6.59648 
27.1013 7.63375 -6.45955 25.144 7.67657 -6.40861 23.3288 7.70244 -6.3775 
21.3235 7.51917 -6.59258 19.181 7.65776 -6.43107 17.3349 7.69932 -6.38126 
15.3936 7.53919 -6.56968 13.3356 7.67784 -6.40709 11.5178 7.70786 -6.37094 
10.9942 -7.53736 -6.57178 12.4015 -7.88985 -6.14413 14.851 -7.49913 -6.61536 
16.1895 -7.72006 -6.35615 18.7971 -7.69491 -6.38657 20.1965 -7.76993 -6.2951 
22.7889 -7.69924 -6.38136 24.1948 -7.77078 -6.29405 26.7889 -7.69924 -6.38136 
28.1948 -7.77078 -6.29405 30.7889 -7.69924 -6.38136 32.1948 -7.77078 -6.29405 
34.7889 -7.69924 -6.38136 36.1948 -7.77078 -6.29405 38.7889 -7.69924 -6.38136 
40.1948 -7.77078 -6.29405 42.7889 -7.69924 -6.38136 44.1948 -7.77078 -6.29405 
46.7924 -7.69651 -6.38464 48.2119 -7.76055 -6.30665 50.7971 -7.69494 -6.38654 
52.1965 -7.76993 -6.29509 54.7924 -7.69651 -6.38464 56.2119 -7.76055 -6.30665 
58.7971 -7.69494 -6.38654 60.1965 -7.76993 -6.29509 62.7889 -7.69924 -6.38136 
64.1948 -7.77078 -6.29405 66.7924 -7.69651 -6.38464 68.2119 -7.76055 -6.30665 
70.8006 -7.69222 -6.38982 72.2135 -7.7597 -6.30769 74.7971 -7.69494 -6.38654 
76.1965 -7.76993 -6.29509 78.7924 -7.69651 -6.38464 80.2119 -7.76055 -6.30665 
82.8006 -7.69222 -6.38982 84.2135 -7.7597 -6.30769 86.8006 -7.69222 -6.38982 
88.2135 -7.7597 -6.30769 90.7971 -7.69494 -6.38654 92.1965 -7.76993 -6.29509 
94.7889 -7.69924 -6.38136 96.1948 -7.77078 -6.29405 98.7889 -7.69924 -6.38136 
100.195 -7.77078 -6.29405 102.789 -7.69924 -6.38136 104.195 -7.77078 -6.29405 
106.792 -7.69651 -6.38464 108.212 -7.76055 -6.30665 110.801 -7.69222 -6.38982 
112.214 -7.7597 -6.30769 114.801 -7.69222 -6.38982 116.214 -7.7597 -6.30769 
118.797 -7.69494 -6.38654 120.196 -7.76993 -6.29509 122.789 -7.69924 -6.38136 
124.195 -7.77078 -6.29405 126.789 -7.69924 -6.38136 128.195 -7.77078 -6.29405 
130.789 -7.69924 -6.38136 132.195 -7.77078 -6.29405 134.792 -7.69651 -6.38464 
136.212 -7.76055 -6.30665 138.797 -7.69494 -6.38654 140.196 -7.76993 -6.29509 
142.789 -7.69924 -6.38136 144.195 -7.77078 -6.29405 146.789 -7.69924 -6.38136 
148.195 -7.77078 -6.29405 150.789 -7.69924 -6.38136 152.195 -7.77078 -6.29405 
154.792 -7.69651 -6.38464 156.212 -7.76055 -6.30665 158.797 -7.69494 -6.38654 
160.196 -7.76993 -6.29509 162.789 -7.69924 -6.38136 164.195 -7.77078 -6.29405 
166.789 -7.69924 -6.38136 168.195 -7.77078 -6.29405 170.789 -7.69924 -6.38136 
172.195 -7.77078 -6.29405 174.789 -7.69924 -6.38136 176.195 -7.77078 -6.29405 
178.789 -7.69924 -6.38136 180.195 -7.77078 -6.29405 182.792 -7.69652 -6.38464 
184.212 -7.76059 -6.3066 186.791 -7.66639 -6.42078 188.554 -7.67597 -6.40933 
9.94149 7.69882 -6.38187 190.09 -7.67777 -6.40717 193.143 -3.9936 -9.16794 
6.85607 3.99316 -9.16813 197.493 2.76634 -9.60975 2.50722 -2.76634 -9.60975 
7.44658 9.17255 -3.983 192.555 -9.17433 -3.97891 196.366 9.06068 -4.23133 
3.6338 -9.06068 -4.23133 3.60039 9.03915 -4.27713 196.4 -9.03915 -4.27713 
197.125 9.9958 0.289926 2.87491 -9.9958 0.289926 2.79739 9.99459 0.328996 
197.203 -9.99459 0.328996 197.75 -6.93463 -7.20492 2.24967 6.93463 -7.20492 
197.882 9.22983 -3.8484 2.11777 -9.22983 -3.8484 197.785 -9.21733 -3.87824 
2.21537 9.21733 -3.87824 197.406 4.264 9.04535 2.59378 -4.264 9.04535 
2.48449 3.99797 9.16604 197.516 -3.99797 9.16604 198.901 -7.09469 -7.04736 
198.287 6.93558 -7.20401 1.09875 7.09469 -7.04736 1.71301 -6.93558 -7.20401 
197.791 -8.61673 5.07464 2.20882 8.61673 5.07464 195.283 3.43979 -9.38977 
4.71716 -3.43972 -9.3898 191.383 3.03029 -9.52981 8.6334 -3.42698 -9.39446 
197.64 9.06824 4.2151 2.36006 -9.06824 4.2151 189.495 -2.07329 -9.78271 
10.4506 2.07759 -9.7818 3.61645 9.08537 4.17805 196.384 -9.08537 4.17805 
7.76333 3.55847 9.34544 192.237 -3.55847 9.34544 191.799 3.28822 9.44392 
8.20134 -3.28822 9.44392 190.152 3.51343 9.36247 187.734 3.69225 9.2934 
185.741 3.70896 9.28674 183.725 3.70878 9.28681 181.712 3.69566 9.29204 
179.71 3.69377 9.2928 177.71 3.6935 9.2929 175.71 3.69346 9.29292 
173.71 3.69345 9.29292 171.71 3.69345 9.29292 169.71 3.69345 9.29292 
167.71 3.69345 9.29292 165.71 3.69345 9.29292 163.71 3.69345 9.29292 
161.71 3.69345 9.29292 159.71 3.69345 9.29292 157.71 3.69345 9.29292 
155.71 3.69345 9.29292 153.71 3.69345 9.29292 151.71 3.69345 9.29292 
149.71 3.69345 9.29292 147.71 3.69345 9.29292 145.71 3.69345 9.29292 
143.71 3.69345 9.29292 141.71 3.69345 9.29292 139.71 3.69345 9.29292 
137.71 3.69345 9.29292 135.71 3.69345 9.29292 133.71 3.69345 9.29292 
131.71 3.69345 9.29292 129.71 3.69345 9.29292 127.71 3.69345 9.29292 
125.71 3.69345 9.29292 123.71 3.69345 9.29292 121.71 3.69345 9.29292 
119.71 3.69345 9.29292 117.71 3.69345 9.29292 115.71 3.69345 9.29292 
113.71 3.69345 9.29292 111.71 3.69345 9.29292 109.71 3.69345 9.29292 
107.71 3.69345 9.29292 105.71 3.69345 9.29292 103.71 3.69345 9.29292 
101.71 3.69345 9.29292 99.71 3.69345 9.29292 97.71 3.69345 9.29292 
95.71 3.69345 9.29292 93.71 3.69345 9.29292 91.71 3.69345 9.29292 
89.71 3.69345 9.29292 87.71 3.69345 9.29292 85.71 3.69345 9.29292 
83.71 3.69345 9.29292 81.71 3.69345 9.29292 79.71 3.69345 9.29292 
77.71 3.69345 9.29292 75.71 3.69345 9.29292 73.71 3.69345 9.29292 
71.71 3.69345 9.29292 69.71 3.69345 9.29292 67.71 3.69345 9.29292 
65.71 3.69345 9.29292 63.71 3.69345 9.29292 61.71 3.69345 9.29292 
59.71 3.69345 9.29292 57.71 3.69345 9.29292 55.71 3.69345 9.29292 
53.71 3.69345 9.29292 51.71 3.69345 9.29292 49.71 3.69345 9.29292 
47.71 3.69345 9.29292 45.71 3.69345 9.29292 43.71 3.69345 9.29292 
41.71 3.69345 9.29292 39.71 3.69345 9.29292 37.71 3.69345 9.29292 
35.71 3.69345 9.29292 33.71 3.69345 9.29292 31.71 3.69345 9.29292 
29.71 3.69345 9.29292 27.71 3.69345 9.29292 25.71 3.69345 9.29292 
23.71 3.69345 9.29292 21.71 3.69345 9.29292 19.71 3.69345 9.29292 
17.71 3.69345 9.29292 15.7181 3.68074 9.29797 13.7318 3.68766 9.29522 
11.6254 3.65316 9.30883 9.37714 3.37406 9.41359 9.84812 -3.51343 9.36247 
12.2665 -3.69225 9.2934 14.259 -3.70896 9.28674 16.2754 -3.70878 9.28681 
18.288 -3.69566 9.29204 20.2897 -3.69377 9.2928 22.29 -3.6935 9.2929 
24.29 -3.69346 9.29292 26.29 -3.69345 9.29292 28.29 -3.69345 9.29292 
30.29 -3.69345 9.29292 32.29 -3.69345 9.29292 34.29 -3.69345 9.29292 
36.29 -3.69345 9.29292 38.29 -3.69345 9.29292 40.29 -3.69345 9.29292 
42.29 -3.69345 9.29292 44.29 -3.69345 9.29292 46.29 -3.69345 9.29292 
48.29 -3.69345 9.29292 50.29 -3.69345 9.29292 52.29 -3.69345 9.29292 
54.29 -3.69345 9.29292 56.29 -3.69345 9.29292 58.29 -3.69345 9.29292 
60.29 -3.69345 9.29292 62.29 -3.69345 9.29292 64.29 -3.69345 9.29292 
66.29 -3.69345 9.29292 68.29 -3.69345 9.29292 70.29 -3.69345 9.29292 
72.29 -3.69345 9.29292 74.29 -3.69345 9.29292 76.29 -3.69345 9.29292 
78.29 -3.69345 9.29292 80.29 -3.69345 9.29292 82.29 -3.69345 9.29292 
84.29 -3.69345 9.29292 86.29 -3.69345 9.29292 88.29 -3.69345 9.29292 
90.29 -3.69345 9.29292 92.29 -3.69345 9.29292 94.29 -3.69345 9.29292 
96.29 -3.69345 9.29292 98.29 -3.69345 9.29292 100.29 -3.69345 9.29292 
102.29 -3.69345 9.29292 104.29 -3.69345 9.29292 106.29 -3.69345 9.29292 
108.29 -3.69345 9.29292 110.29 -3.69345 9.29292 112.29 -3.69345 9.29292 
114.29 -3.69345 9.29292 116.29 -3.69345 9.29292 118.29 -3.69345 9.29292 
120.29 -3.69345 9.29292 122.29 -3.69345 9.29292 124.29 -3.69345 9.29292 
126.29 -3.69345 9.29292 128.29 -3.69345 9.29292 130.29 -3.69345 9.29292 
132.29 -3.69345 9.29292 134.29 -3.69345 9.29292 136.29 -3.69345 9.29292 
138.29 -3.69345 9.29292 140.29 -3.69345 9.29292 142.29 -3.69345 9.29292 
144.29 -3.69345 9.29292 146.29 -3.69345 9.29292 148.29 -3.69345 9.29292 
150.29 -3.69345 9.29292 152.29 -3.69345 9.29292 154.29 -3.69345 9.29292 
156.29 -3.69345 9.29292 158.29 -3.69345 9.29292 160.29 -3.69345 9.29292 
162.29 -3.69345 9.29292 164.29 -3.69345 9.29292 166.29 -3.69345 9.29292 
168.29 -3.69345 9.29292 170.29 -3.69345 9.29292 172.29 -3.69345 9.29292 
174.29 -3.69345 9.29292 176.29 -3.69345 9.29292 178.29 -3.69345 9.29292 
180.29 -3.69345 9.29292 182.29 -3.69345 9.29292 184.282 -3.68074 9.29797 
186.268 -3.68766 9.29522 188.375 -3.65316 9.30883 190.623 -3.37406 9.41359 
188.276 -2.58032 -9.66136 12.1731 2.53482 -9.6734 196.6 -2.4669 -9.69094 
3.40008 2.4669 -9.69094 194.737 -2.90215 -9.56962 5.26212 2.90216 -9.56961 
190.291 1.94603 -9.80882 9.35583 -1.92843 -9.8123 191.844 -3.05194 -9.5229 
8.14656 3.05158 -9.52302 194.265 9.97711 0.676176 5.73539 -9.97711 0.676176 
193.92 6.33793 7.73503 6.08004 -6.33793 7.73503 191.529 9.57694 -2.87788 
8.45181 -9.5867 -2.84521 188.788 9.52736 -3.038 11.2228 -9.45248 -3.26352 
187.17 9.52085 -3.05832 185.187 9.52475 -3.04618 183.2 9.52291 -3.05191 
181.19 9.52449 -3.04698 179.188 9.52476 -3.04615 177.188 9.52479 -3.04603 
175.188 9.5248 -3.04601 173.2 9.52283 -3.05218 171.19 9.52446 -3.04706 
169.2 9.52278 -3.05233 167.19 9.52446 -3.04708 165.2 9.52278 -3.05233 
163.19 9.52446 -3.04709 161.188 9.52475 -3.04617 159.188 9.52479 -3.04603 
157.188 9.5248 -3.04601 155.2 9.52283 -3.05218 153.19 9.52446 -3.04706 
151.188 9.52475 -3.04617 149.2 9.52282 -3.0522 147.19 9.52446 -3.04707 
145.2 9.52278 -3.05233 143.19 9.52446 -3.04708 141.2 9.52278 -3.05233 
139.19 9.52446 -3.04709 137.188 9.52475 -3.04617 135.2 9.52282 -3.0522 
133.19 9.52446 -3.04707 131.188 9.52475 -3.04617 129.188 9.52479 -3.04603 
127.188 9.5248 -3.04601 125.188 9.5248 -3.04601 123.188 9.5248 -3.04601 
121.2 9.52283 -3.05218 119.19 9.52446 -3.04706 117.188 9.52475 -3.04617 
115.2 9.52282 -3.0522 113.19 9.52446 -3.04707 111.2 9.52278 -3.05233 
109.19 9.52446 -3.04708 107.2 9.52278 -3.05233 105.19 9.52446 -3.04709 
103.188 9.52475 -3.04617 101.2 9.52282 -3.0522 99.19 9.52446 -3.04707 
97.1883 9.52475 -3.04617 95.188 9.52479 -3.04603 93.1996 9.52282 -3.05218 
91.1899 9.52446 -3.04706 89.1883 9.52475 -3.04617 87.1996 9.52282 -3.0522 
85.19 9.52446 -3.04707 83.1998 9.52278 -3.05233 81.19 9.52446 -3.04708 
79.1999 9.52278 -3.05233 77.19 9.52446 -3.04709 75.1883 9.52475 -3.04617 
73.188 9.52479 -3.04603 71.1996 9.52282 -3.05218 69.1899 9.52446 -3.04706 
67.1998 9.52278 -3.05233 65.19 9.52446 -3.04708 63.1883 9.52475 -3.04617 
61.1996 9.52282 -3.0522 59.19 9.52446 -3.04707 57.1883 9.52475 -3.04617 
55.1996 9.52282 -3.0522 53.19 9.52446 -3.04707 51.1883 9.52475 -3.04617 
49.188 9.52479 -3.04603 47.1996 9.52282 -3.05218 45.1899 9.52446 -3.04706 
43.1883 9.52475 -3.04617 41.1996 9.52282 -3.0522 39.19 9.52446 -3.04707 
37.1998 9.52278 -3.05233 35.19 9.52446 -3.04708 33.1998 9.52278 -3.05233 
31.19 9.52446 -3.04709 29.1999 9.52278 -3.05233 27.19 9.52446 -3.04709 
25.1883 9.52475 -3.04617 23.188 9.52479 -3.04603 21.1996 9.52282 -3.05218 
19.19 9.52446 -3.04706 17.1883 9.52475 -3.04617 15.1996 9.52282 -3.0522 
13.1667 9.5237 -3.04946 11.18 9.50501 -3.10722 12.7963 -9.31587 -3.63518 
14.8 -9.48923 -3.15508 16.7448 -9.56203 -2.92704 18.796 -9.47787 -3.18904 
20.8037 -9.56887 -2.90461 22.8034 -9.4768 -3.19222 24.8028 -9.56848 -2.90589 
26.7962 -9.47552 -3.19601 28.8035 -9.56847 -2.90591 30.8033 -9.47688 -3.19197 
32.809 -9.5695 -2.90254 34.804 -9.47705 -3.19147 36.8091 -9.56953 -2.90242 
38.8041 -9.47706 -3.19146 40.8092 -9.56949 -2.90255 42.8042 -9.4769 -3.19193 
44.8042 -9.56867 -2.90528 46.8014 -9.47645 -3.19324 48.7929 -9.49445 -3.13934 
50.8945 -9.54583 -2.97945 52.8052 -9.57802 -2.87427 54.8023 -9.47743 -3.19036 
56.7929 -9.49444 -3.13935 58.8945 -9.54583 -2.97945 60.81 -9.5789 -2.87136 
62.8051 -9.47789 -3.189 64.8044 -9.56882 -2.90476 66.8014 -9.47646 -3.19323 
68.8112 -9.56905 -2.90403 70.8066 -9.4771 -3.19133 72.7932 -9.49444 -3.13936 
74.8946 -9.54583 -2.97946 76.8052 -9.57802 -2.87429 78.8023 -9.47742 -3.19039 
80.8114 -9.5692 -2.90352 82.8066 -9.47712 -3.19128 84.8129 -9.56908 -2.90391 
86.8068 -9.47711 -3.19129 88.7932 -9.49444 -3.13936 90.8946 -9.54583 -2.97946 
92.81 -9.5789 -2.87136 94.805 -9.47788 -3.18901 96.8031 -9.56867 -2.90528 
98.7962 -9.47554 -3.19596 100.804 -9.56844 -2.90602 102.803 -9.47673 -3.19243 
104.804 -9.56862 -2.90541 106.801 -9.47644 -3.19328 108.811 -9.56904 -2.90404 
110.807 -9.4771 -3.19132 112.813 -9.56908 -2.90391 114.807 -9.47711 -3.19129 
116.793 -9.49444 -3.13936 118.895 -9.54583 -2.97946 120.81 -9.5789 -2.87136 
122.805 -9.47788 -3.18901 124.803 -9.56863 -2.90539 126.796 -9.47545 -3.19622 
128.797 -9.56732 -2.9097 130.795 -9.47525 -3.19682 132.798 -9.56749 -2.90915 
134.801 -9.47626 -3.19382 136.793 -9.49444 -3.13935 138.895 -9.54583 -2.97945 
140.81 -9.57893 -2.87124 142.805 -9.47804 -3.18854 144.809 -9.5697 -2.90188 
146.804 -9.47707 -3.19142 148.809 -9.5695 -2.90254 150.804 -9.4769 -3.19193 
152.804 -9.56867 -2.90528 154.801 -9.47645 -3.19324 156.793 -9.49445 -3.13934 
158.895 -9.54583 -2.97945 160.804 -9.57785 -2.87487 162.797 -9.47649 -3.19313 
164.804 -9.56863 -2.90538 166.803 -9.4769 -3.19193 168.809 -9.5695 -2.90253 
170.804 -9.47705 -3.19148 172.809 -9.56949 -2.90255 174.804 -9.47689 -3.19194 
176.803 -9.56847 -2.90591 178.796 -9.47544 -3.19625 180.799 -9.56754 -2.90898 
182.801 -9.47631 -3.19368 184.818 -9.5684 -2.90614 186.83 -9.47595 -3.19475 
188.835 -9.48739 -3.1606 9.28376 9.3175 -3.63101 190.721 -9.31421 -3.63943 
195.238 -8.10481 -5.85765 4.76226 8.10481 -5.85765 194.993 8.1773 -5.75602 
5.00375 -8.17731 -5.75601 8.83045 6.24641 7.80912 191.17 -6.24641 7.80912 
6.11515 2.5255 9.67584 193.885 -2.5255 9.67584 189.83 9.74172 -2.25809 
10.2355 -9.73233 -2.29822 188.375 9.85568 -1.69282 186.139 9.87577 -1.57135 
184.146 9.87564 -1.57216 182.145 9.87577 -1.57136 180.124 9.87761 -1.55976 
178.123 9.87768 -1.55928 176.123 9.87769 -1.55924 174.146 9.87569 -1.57187 
172.145 9.87576 -1.57143 170.147 9.8756 -1.57241 168.145 9.87575 -1.57146 
166.147 9.8756 -1.57242 164.145 9.87575 -1.57146 162.124 9.8776 -1.55979 
160.123 9.87768 -1.55928 158.123 9.87769 -1.55924 156.146 9.87569 -1.57187 
154.145 9.87576 -1.57143 152.124 9.8776 -1.55978 150.146 9.87568 -1.57192 
148.145 9.87576 -1.57143 146.147 9.8756 -1.57241 144.145 9.87575 -1.57146 
142.147 9.8756 -1.57242 140.145 9.87575 -1.57146 138.124 9.8776 -1.55979 
136.146 9.87568 -1.57192 134.145 9.87576 -1.57143 132.124 9.8776 -1.55978 
130.123 9.87768 -1.55928 128.123 9.87769 -1.55924 126.123 9.87769 -1.55924 
124.123 9.87769 -1.55924 122.146 9.87569 -1.57187 120.145 9.87576 -1.57143 
118.124 9.8776 -1.55978 116.146 9.87568 -1.57192 114.145 9.87576 -1.57143 
112.147 9.8756 -1.57241 110.145 9.87575 -1.57146 108.147 9.8756 -1.57242 
106.145 9.87575 -1.57146 104.124 9.8776 -1.55979 102.146 9.87568 -1.57192 
100.145 9.87576 -1.57143 98.1235 9.8776 -1.55978 96.1226 9.87768 -1.55928 
94.146 9.87569 -1.57188 92.1446 9.87576 -1.57143 90.1235 9.8776 -1.55978 
88.146 9.87568 -1.57192 86.1446 9.87576 -1.57143 84.1469 9.8756 -1.57241 
82.1447 9.87575 -1.57146 80.1469 9.8756 -1.57242 78.1447 9.87575 -1.57146 
76.1235 9.8776 -1.55979 74.1226 9.87768 -1.55928 72.146 9.87569 -1.57188 
70.1446 9.87576 -1.57143 68.1469 9.8756 -1.57241 66.1447 9.87575 -1.57146 
64.1235 9.8776 -1.55979 62.146 9.87568 -1.57192 60.1446 9.87576 -1.57143 
58.1235 9.8776 -1.55978 56.146 9.87568 -1.57192 54.1446 9.87576 -1.57143 
52.1235 9.8776 -1.55978 50.1226 9.87768 -1.55928 48.146 9.87569 -1.57188 
46.1446 9.87576 -1.57143 44.1235 9.8776 -1.55978 42.146 9.87568 -1.57192 
40.1446 9.87576 -1.57143 38.1469 9.8756 -1.57241 36.1447 9.87575 -1.57146 
34.1469 9.8756 -1.57242 32.1447 9.87575 -1.57146 30.1469 9.8756 -1.57242 
28.1447 9.87575 -1.57146 26.1235 9.8776 -1.55979 24.1226 9.87768 -1.55928 
22.146 9.87569 -1.57188 20.1446 9.87576 -1.57143 18.1235 9.8776 -1.55978 
16.146 9.87568 -1.57192 14.1393 9.8757 -1.57181 12.079 9.88117 -1.53705 
11.9296 -9.85141 -1.71746 13.8292 -9.85798 -1.67933 15.8477 -9.87028 -1.60548 
17.8395 -9.86298 -1.64975 19.8226 -9.86012 -1.66676 21.8452 -9.86205 -1.65531 
23.8432 -9.8619 -1.65617 25.8229 -9.86001 -1.66741 27.8226 -9.85998 -1.66756 
29.8452 -9.86203 -1.65543 31.8432 -9.8619 -1.65618 33.8455 -9.86205 -1.65526 
35.8432 -9.8619 -1.65616 37.8455 -9.86206 -1.65525 39.8433 -9.8619 -1.65616 
41.8455 -9.86206 -1.65525 43.8433 -9.8619 -1.65616 45.8229 -9.86 -1.66743 
47.8458 -9.86202 -1.65547 49.8439 -9.86187 -1.65639 51.8231 -9.85998 -1.6676 
53.8227 -9.85997 -1.66761 55.8458 -9.86201 -1.6555 57.8439 -9.86186 -1.65639 
59.8231 -9.85998 -1.6676 61.8453 -9.86203 -1.65543 63.8432 -9.8619 -1.65618 
65.8229 -9.86 -1.66743 67.8458 -9.86202 -1.65547 69.844 -9.86186 -1.65641 
71.8463 -9.86201 -1.65551 73.844 -9.86186 -1.65639 75.8231 -9.85997 -1.6676 
77.8227 -9.85997 -1.66761 79.8458 -9.86201 -1.6555 81.844 -9.86186 -1.65642 
83.8463 -9.86201 -1.65551 85.8441 -9.86186 -1.65642 87.8463 -9.86201 -1.65551 
89.844 -9.86186 -1.65639 91.8231 -9.85997 -1.6676 93.8453 -9.86203 -1.65543 
95.8432 -9.8619 -1.65618 97.8229 -9.86001 -1.66741 99.8226 -9.85998 -1.66756 
101.845 -9.86203 -1.65543 103.843 -9.8619 -1.65618 105.823 -9.86 -1.66743 
107.846 -9.86202 -1.65547 109.844 -9.86186 -1.65641 111.846 -9.86201 -1.65551 
113.844 -9.86186 -1.65642 115.846 -9.86201 -1.65551 117.844 -9.86186 -1.65639 
119.823 -9.85997 -1.6676 121.845 -9.86203 -1.65543 123.843 -9.8619 -1.65618 
125.823 -9.86001 -1.66741 127.823 -9.85998 -1.66756 129.823 -9.85998 -1.66758 
131.823 -9.85998 -1.66758 133.823 -9.85997 -1.66761 135.846 -9.86201 -1.6555 
137.844 -9.86186 -1.65639 139.823 -9.85998 -1.6676 141.845 -9.86203 -1.65543 
143.843 -9.8619 -1.65618 145.846 -9.86205 -1.65526 147.843 -9.8619 -1.65616 
149.846 -9.86206 -1.65525 151.843 -9.8619 -1.65616 153.823 -9.86 -1.66743 
155.846 -9.86202 -1.65547 157.844 -9.86187 -1.65639 159.823 -9.85998 -1.6676 
161.823 -9.85998 -1.66758 163.823 -9.85998 -1.66758 165.845 -9.86203 -1.65543 
167.843 -9.8619 -1.65618 169.846 -9.86205 -1.65526 171.843 -9.8619 -1.65616 
173.846 -9.86206 -1.65525 175.843 -9.8619 -1.65616 177.823 -9.86001 -1.6674 
179.823 -9.85998 -1.66756 181.823 -9.85997 -1.6676 183.846 -9.86201 -1.65549 
185.849 -9.86174 -1.65716 187.898 -9.86705 -1.62522 9.59207 9.88804 -1.49222 
190.411 -9.88638 -1.50318 192.33 9.9431 -1.06526 7.66758 -9.94325 -1.06386 
196.39 2.59769 -9.65671 3.60984 -2.59761 -9.65673 6.97753 9.87987 1.54535 
193.022 -9.87987 1.54535 3.15249 2.37103 9.71484 196.848 -2.37103 9.71484 
196.434 2.83647 9.58929 3.56583 -2.83647 9.58929 193.423 0.775062 -9.96992 
6.5712 -0.773304 -9.97006 194.546 9.80794 -1.95046 5.45385 -9.80794 -1.95046 
4.58165 9.6952 -2.45012 195.418 -9.6952 -2.45012 5.52759 9.95574 -0.939768 
194.472 -9.95574 -0.939768 191.538 8.09945 5.86505 8.46236 -8.09945 5.86505 
187.079 9.87659 1.56619 185.09 9.87742 1.56096 183.092 9.87726 1.56197 
181.088 9.87596 1.57018 179.085 9.87558 1.57254 177.086 9.87558 1.57254 
175.089 9.87685 1.56459 173.092 9.87721 1.56226 171.093 9.87728 1.56182 
169.093 9.87729 1.56177 167.093 9.87729 1.56176 165.092 9.87722 1.5622 
163.089 9.87595 1.57022 161.085 9.87558 1.57255 159.086 9.87558 1.57254 
157.089 9.87685 1.56459 155.091 9.87714 1.5627 153.089 9.87601 1.56985 
151.09 9.87692 1.5641 149.092 9.87722 1.56219 147.093 9.87728 1.56182 
145.093 9.87729 1.56177 143.093 9.87729 1.56176 141.092 9.87722 1.5622 
139.089 9.87602 1.56978 137.09 9.87692 1.56409 135.092 9.87716 1.56263 
133.088 9.87594 1.57028 131.085 9.87558 1.57256 129.085 9.87551 1.57298 
127.085 9.8755 1.57305 125.086 9.87557 1.57261 123.089 9.87684 1.5646 
121.091 9.87714 1.5627 119.089 9.87601 1.56985 117.09 9.87692 1.5641 
115.092 9.87722 1.56219 113.093 9.87728 1.56182 111.093 9.87729 1.56177 
109.093 9.87729 1.56176 107.092 9.87722 1.5622 105.089 9.87602 1.56978 
103.09 9.87692 1.56409 101.092 9.87716 1.56263 99.0884 9.87594 1.57028 
97.0863 9.87565 1.57212 95.0893 9.87685 1.56452 93.0915 9.87714 1.56269 
91.0893 9.87601 1.56985 89.0899 9.87692 1.5641 87.0925 9.87722 1.56219 
85.093 9.87728 1.56182 83.0931 9.87729 1.56177 81.0931 9.87729 1.56176 
79.0922 9.87722 1.5622 77.0885 9.87595 1.57022 75.0863 9.87565 1.57211 
73.0893 9.87685 1.56452 71.0924 9.87722 1.56225 69.093 9.87728 1.56182 
67.0922 9.87722 1.56221 65.0894 9.87602 1.56978 63.0899 9.87692 1.56409 
61.0916 9.87716 1.56263 59.0893 9.87601 1.56984 57.0899 9.87692 1.5641 
55.0916 9.87715 1.56263 53.0884 9.87594 1.57028 51.0863 9.87565 1.57212 
49.0893 9.87685 1.56452 47.0915 9.87714 1.56269 45.0893 9.87601 1.56985 
43.0899 9.87692 1.5641 41.0925 9.87722 1.56219 39.093 9.87728 1.56182 
37.0931 9.87729 1.56177 35.0931 9.87729 1.56176 33.0931 9.87729 1.56176 
31.0931 9.87729 1.56176 29.0922 9.87722 1.5622 27.0885 9.87595 1.57022 
25.0863 9.87565 1.57211 23.0893 9.87685 1.56452 21.0915 9.87714 1.56269 
19.0893 9.87601 1.56985 17.0899 9.87692 1.5641 15.0845 9.86986 1.60805 
13.073 9.89478 1.44685 10.9396 9.90922 1.34439 12.9392 -9.87407 1.58198 
14.917 -9.87506 1.57579 16.9058 -9.87826 1.55565 18.9014 -9.88039 1.54202 
20.9024 -9.8793 1.54901 22.9039 -9.87909 1.55036 24.9002 -9.88071 1.54002 
26.8982 -9.88101 1.53808 28.9018 -9.8794 1.54834 30.9049 -9.87901 1.55082 
32.9055 -9.87895 1.55123 34.9056 -9.87894 1.55128 36.9056 -9.87894 1.55129 
38.9056 -9.87894 1.55129 40.9056 -9.87894 1.55129 42.9044 -9.87903 1.55074 
44.9014 -9.88061 1.54062 46.9024 -9.87952 1.54759 48.9039 -9.87931 1.54897 
50.9002 -9.88074 1.53979 52.8982 -9.88101 1.53803 54.9018 -9.87959 1.54717 
56.9038 -9.87931 1.54892 58.9013 -9.88066 1.54033 60.9024 -9.87935 1.5487 
62.9039 -9.8791 1.55031 64.9013 -9.88062 1.54056 66.9024 -9.87952 1.54758 
68.905 -9.87922 1.54952 70.9055 -9.87917 1.54985 72.9045 -9.87925 1.54934 
74.9003 -9.88073 1.53983 76.8982 -9.88101 1.53804 78.9018 -9.87959 1.54717 
80.905 -9.87923 1.54947 82.9055 -9.87917 1.54984 84.9056 -9.87916 1.54989 
86.9056 -9.87916 1.54989 88.9045 -9.87925 1.54934 90.9014 -9.88065 1.54039 
92.9024 -9.87935 1.54871 94.9039 -9.8791 1.55031 96.9002 -9.88071 1.54001 
98.8982 -9.88101 1.53808 100.902 -9.8794 1.54834 102.904 -9.8791 1.55027 
104.901 -9.88062 1.54056 106.902 -9.87952 1.54758 108.905 -9.87922 1.54952 
110.906 -9.87917 1.54985 112.906 -9.87916 1.54989 114.906 -9.87916 1.54989 
116.904 -9.87925 1.54934 118.901 -9.88065 1.54039 120.902 -9.87935 1.54871 
122.904 -9.8791 1.55031 124.9 -9.88071 1.54001 126.897 -9.88109 1.53752 
128.896 -9.88116 1.53712 130.896 -9.88116 1.53707 132.898 -9.88108 1.53762 
134.902 -9.8796 1.54712 136.904 -9.87932 1.54891 138.901 -9.88066 1.54033 
140.902 -9.87935 1.5487 142.905 -9.87901 1.55086 144.906 -9.87895 1.55123 
146.906 -9.87894 1.55128 148.906 -9.87894 1.55129 150.904 -9.87903 1.55074 
152.901 -9.88061 1.54062 154.902 -9.87952 1.54759 156.904 -9.87931 1.54897 
158.9 -9.88074 1.53979 160.897 -9.8811 1.53748 162.898 -9.88107 1.53766 
164.902 -9.87941 1.5483 166.905 -9.87902 1.55082 168.905 -9.87895 1.55123 
170.906 -9.87894 1.55128 172.906 -9.87894 1.55129 174.904 -9.87903 1.55074 
176.9 -9.8807 1.54007 178.897 -9.88109 1.53753 180.898 -9.88107 1.53767 
182.902 -9.87959 1.54714 184.919 -9.87294 1.58902 186.918 -9.89584 1.43957 
189.058 -9.9094 1.34303 188.981 9.93745 1.11672 11.0249 -9.93262 1.15891 
195.673 9.71817 -2.35734 4.32721 -9.71817 -2.35734 195.179 5.70681 8.21172 
4.82141 -5.70681 8.21172 195.66 9.85895 1.67367 4.33982 -9.85895 1.67367 
193.012 8.89413 -4.57105 6.97072 -8.89782 -4.56386 8.23248 8.32267 5.54374 
191.768 -8.32267 5.54374 189.996 8.51898 5.23707 10.0042 -8.51898 5.23707 
188.249 8.44093 5.36196 186.257 8.48934 5.28499 184.275 8.49182 5.281 
182.262 8.54172 5.1999 180.259 8.54436 5.19556 178.257 8.54298 5.19784 
176.256 8.54213 5.19924 174.256 8.54183 5.19973 172.256 8.54174 5.19987 
170.256 8.54172 5.19991 168.256 8.5417 5.19993 166.256 8.54165 5.20002 
164.256 8.54132 5.20057 162.256 8.53932 5.20385 160.256 8.53899 5.20439 
158.256 8.54087 5.2013 156.256 8.54151 5.20025 154.256 8.54167 5.19999 
152.256 8.54171 5.19993 150.256 8.54171 5.19992 148.256 8.54171 5.19992 
146.256 8.54171 5.19992 144.256 8.54171 5.19992 142.256 8.54171 5.19992 
140.256 8.54171 5.19992 138.256 8.54171 5.19992 136.256 8.54171 5.19992 
134.256 8.54171 5.19992 132.256 8.54171 5.19992 130.256 8.54171 5.19992 
128.256 8.54171 5.19992 126.256 8.54171 5.19992 124.256 8.54171 5.19992 
122.256 8.54171 5.19992 120.256 8.54171 5.19992 118.256 8.54171 5.19992 
116.256 8.54171 5.19992 114.256 8.54171 5.19992 112.256 8.54171 5.19992 
110.256 8.54171 5.19992 108.256 8.54171 5.19992 106.256 8.54171 5.19992 
104.256 8.54171 5.19992 102.256 8.54171 5.19992 100.256 8.54171 5.19992 
98.2557 8.54171 5.19992 96.2557 8.54171 5.19992 94.2557 8.54171 5.19992 
92.2557 8.54171 5.19992 90.2557 8.54171 5.19992 88.2557 8.54171 5.19992 
86.2557 8.54171 5.19992 84.2557 8.54171 5.19992 82.2557 8.54171 5.19992 
80.2557 8.54171 5.19992 78.2557 8.54171 5.19992 76.2557 8.54171 5.19992 
74.2557 8.54171 5.19992 72.2557 8.54171 5.19992 70.2557 8.54171 5.19992 
68.2557 8.54171 5.19992 66.2557 8.54171 5.19992 64.2557 8.54171 5.19992 
62.2557 8.54171 5.19992 60.2557 8.54171 5.19992 58.2557 8.54171 5.19992 
56.2557 8.54171 5.19992 54.2557 8.54171 5.19992 52.2557 8.54171 5.19992 
50.2557 8.54171 5.19992 48.2557 8.54171 5.19992 46.2557 8.54171 5.19992 
44.2557 8.54171 5.19992 42.2557 8.54171 5.19992 40.2557 8.54171 5.19992 
38.2557 8.54171 5.19992 36.2557 8.54171 5.19992 34.2557 8.54171 5.19992 
32.2557 8.54171 5.19992 30.2557 8.54171 5.19992 28.2557 8.54171 5.19992 
26.2557 8.54171 5.19992 24.2557 8.54171 5.19992 22.2557 8.54171 5.19992 
20.2543 8.53937 5.20376 18.2508 8.55746 5.17397 16.265 8.51603 5.24187 
14.3851 8.33962 5.51821 12.321 8.39419 5.43485 11.7515 -8.44094 5.36195 
13.7433 -8.48934 5.28498 15.7254 -8.49182 5.281 17.7378 -8.54172 5.1999 
19.7407 -8.54436 5.19556 21.7427 -8.54298 5.19784 23.7437 -8.54213 5.19924 
25.7441 -8.54183 5.19973 27.7442 -8.54174 5.19987 29.7443 -8.54172 5.19991 
31.7443 -8.5417 5.19993 33.7443 -8.54165 5.20002 35.7442 -8.54132 5.20057 
37.7436 -8.53932 5.20385 39.7435 -8.53899 5.20439 41.744 -8.54087 5.2013 
43.7442 -8.54151 5.20025 45.7443 -8.54167 5.19999 47.7443 -8.54171 5.19993 
49.7443 -8.54171 5.19992 51.7443 -8.54171 5.19992 53.7443 -8.54171 5.19992 
55.7443 -8.54171 5.19992 57.7443 -8.54171 5.19992 59.7443 -8.54171 5.19992 
61.7443 -8.54171 5.19992 63.7443 -8.54171 5.19992 65.7443 -8.54171 5.19992 
67.7443 -8.54171 5.19992 69.7443 -8.54171 5.19992 71.7443 -8.54171 5.19992 
73.7443 -8.54171 5.19992 75.7443 -8.54171 5.19992 77.7443 -8.54171 5.19992 
79.7443 -8.54171 5.19992 81.7443 -8.54171 5.19992 83.7443 -8.54171 5.19992 
85.7443 -8.54171 5.19992 87.7443 -8.54171 5.19992 89.7443 -8.54171 5.19992 
91.7443 -8.54171 5.19992 93.7443 -8.54171 5.19992 95.7443 -8.54171 5.19992 
97.7443 -8.54171 5.19992 99.7443 -8.54171 5.19992 101.744 -8.54171 5.19992 
103.744 -8.54171 5.19992 105.744 -8.54171 5.19992 107.744 -8.54171 5.19992 
109.744 -8.54171 5.19992 111.744 -8.54171 5.19992 113.744 -8.54171 5.19992 
115.744 -8.54171 5.19992 117.744 -8.54171 5.19992 119.744 -8.54171 5.19992 
121.744 -8.54171 5.19992 123.744 -8.54171 5.19992 125.744 -8.54171 5.19992 
127.744 -8.54171 5.19992 129.744 -8.54171 5.19992 131.744 -8.54171 5.19992 
133.744 -8.54171 5.19992 135.744 -8.54171 5.19992 137.744 -8.54171 5.19992 
139.744 -8.54171 5.19992 141.744 -8.54171 5.19992 143.744 -8.54171 5.19992 
145.744 -8.54171 5.19992 147.744 -8.54171 5.19992 149.744 -8.54171 5.19992 
151.744 -8.54171 5.19992 153.744 -8.54171 5.19992 155.744 -8.54171 5.19992 
157.744 -8.54171 5.19992 159.744 -8.54171 5.19992 161.744 -8.54171 5.19992 
163.744 -8.54171 5.19992 165.744 -8.54171 5.19992 167.744 -8.54171 5.19992 
169.744 -8.54171 5.19992 171.744 -8.54171 5.19992 173.744 -8.54171 5.19992 
175.744 -8.54171 5.19992 177.744 -8.54171 5.19992 179.746 -8.53937 5.20377 
181.749 -8.55743 5.17401 183.733 -8.51471 5.24402 185.615 -8.33956 5.51832 
187.679 -8.3942 5.43483 10.3201 8.42003 5.39473 189.68 -8.42004 5.39472 
5.09443 5.92492 8.05576 194.906 -5.92492 8.05576 192.753 9.11909 4.10391 
7.24677 -9.11909 4.10391 192.675 3.94417 -9.18932 7.32237 -3.94362 -9.18955 
193.513 3.17229 9.48349 6.4869 -3.17229 9.48349 191.063 1.7466 9.84629 
8.93666 -1.7466 9.84629 188.543 2.62288 9.6499 186.828 2.3562 9.71845 
184.835 2.3728 9.71441 182.829 2.36962 9.71519 180.826 2.3664 9.71597 
178.825 2.36555 9.71618 176.825 2.36537 9.71623 174.825 2.36533 9.71623 
172.825 2.36533 9.71624 170.825 2.36532 9.71624 168.825 2.36532 9.71624 
166.825 2.36532 9.71624 164.825 2.36532 9.71624 162.825 2.36532 9.71624 
160.825 2.36532 9.71624 158.825 2.36532 9.71624 156.825 2.36532 9.71624 
154.825 2.36532 9.71624 152.825 2.36532 9.71624 150.825 2.36532 9.71624 
148.825 2.36532 9.71624 146.825 2.36532 9.71624 144.825 2.36532 9.71624 
142.825 2.36532 9.71624 140.825 2.36532 9.71624 138.825 2.36532 9.71624 
136.825 2.36532 9.71624 134.825 2.36532 9.71624 132.825 2.36532 9.71624 
130.825 2.36532 9.71624 128.825 2.36532 9.71624 126.825 2.36532 9.71624 
124.825 2.36532 9.71624 122.825 2.36532 9.71624 120.825 2.36532 9.71624 
118.825 2.36532 9.71624 116.825 2.36532 9.71624 114.825 2.36532 9.71624 
112.825 2.36532 9.71624 110.825 2.36532 9.71624 108.825 2.36532 9.71624 
106.825 2.36532 9.71624 104.825 2.36532 9.71624 102.825 2.36532 9.71624 
100.825 2.36532 9.71624 98.8245 2.36532 9.71624 96.8245 2.36532 9.71624 
94.8245 2.36532 9.71624 92.8245 2.36532 9.71624 90.8245 2.36532 9.71624 
88.8245 2.36532 9.71624 86.8245 2.36532 9.71624 84.8245 2.36532 9.71624 
82.8245 2.36532 9.71624 80.8245 2.36532 9.71624 78.8245 2.36532 9.71624 
76.8245 2.36532 9.71624 74.8245 2.36532 9.71624 72.8245 2.36532 9.71624 
70.8245 2.36532 9.71624 68.8245 2.36532 9.71624 66.8245 2.36532 9.71624 
64.8245 2.36532 9.71624 62.8245 2.36532 9.71624 60.8245 2.36532 9.71624 
58.8245 2.36532 9.71624 56.8245 2.36532 9.71624 54.8245 2.36532 9.71624 
52.8245 2.36532 9.71624 50.8245 2.36532 9.71624 48.8245 2.36532 9.71624 
46.8245 2.36532 9.71624 44.8245 2.36532 9.71624 42.8245 2.36532 9.71624 
40.8245 2.36532 9.71624 38.8245 2.36532 9.71624 36.8245 2.36532 9.71624 
34.8245 2.36532 9.71624 32.8245 2.36532 9.71624 30.8245 2.36532 9.71624 
28.8245 2.36532 9.71624 26.8245 2.36532 9.71624 24.8245 2.36532 9.71624 
22.8245 2.36532 9.71624 20.8245 2.36532 9.71624 18.8245 2.36532 9.71624 
16.8257 2.36343 9.7167 14.8314 2.35833 9.71793 12.7832 2.35887 9.7178 
10.7246 2.24038 9.7458 8.83017 1.80811 9.83518 11.4571 -2.62288 9.6499 
13.172 -2.3562 9.71845 15.1647 -2.3728 9.71441 17.171 -2.36962 9.71519 
19.1744 -2.3664 9.71597 21.1753 -2.36555 9.71618 23.1754 -2.36537 9.71623 
25.1755 -2.36533 9.71623 27.1755 -2.36533 9.71624 29.1755 -2.36532 9.71624 
31.1755 -2.36532 9.71624 33.1755 -2.36532 9.71624 35.1755 -2.36532 9.71624 
37.1755 -2.36532 9.71624 39.1755 -2.36532 9.71624 41.1755 -2.36532 9.71624 
43.1755 -2.36532 9.71624 45.1755 -2.36532 9.71624 47.1755 -2.36532 9.71624 
49.1755 -2.36532 9.71624 51.1755 -2.36532 9.71624 53.1755 -2.36532 9.71624 
55.1755 -2.36532 9.71624 57.1755 -2.36532 9.71624 59.1755 -2.36532 9.71624 
61.1755 -2.36532 9.71624 63.1755 -2.36532 9.71624 65.1755 -2.36532 9.71624 
67.1755 -2.36532 9.71624 69.1755 -2.36532 9.71624 71.1755 -2.36532 9.71624 
73.1755 -2.36532 9.71624 75.1755 -2.36532 9.71624 77.1755 -2.36532 9.71624 
79.1755 -2.36532 9.71624 81.1755 -2.36532 9.71624 83.1755 -2.36532 9.71624 
85.1755 -2.36532 9.71624 87.1755 -2.36532 9.71624 89.1755 -2.36532 9.71624 
91.1755 -2.36532 9.71624 93.1755 -2.36532 9.71624 95.1755 -2.36532 9.71624 
97.1755 -2.36532 9.71624 99.1755 -2.36532 9.71624 101.175 -2.36532 9.71624 
103.175 -2.36532 9.71624 105.175 -2.36532 9.71624 107.175 -2.36532 9.71624 
109.175 -2.36532 9.71624 111.175 -2.36532 9.71624 113.175 -2.36532 9.71624 
115.175 -2.36532 9.71624 117.175 -2.36532 9.71624 119.175 -2.36532 9.71624 
121.175 -2.36532 9.71624 123.175 -2.36532 9.71624 125.175 -2.36532 9.71624 
127.175 -2.36532 9.71624 129.175 -2.36532 9.71624 131.175 -2.36532 9.71624 
133.175 -2.36532 9.71624 135.175 -2.36532 9.71624 137.175 -2.36532 9.71624 
139.175 -2.36532 9.71624 141.175 -2.36532 9.71624 143.175 -2.36532 9.71624 
145.175 -2.36532 9.71624 147.175 -2.36532 9.71624 149.175 -2.36532 9.71624 
151.175 -2.36532 9.71624 153.175 -2.36532 9.71624 155.175 -2.36532 9.71624 
157.175 -2.36532 9.71624 159.175 -2.36532 9.71624 161.175 -2.36532 9.71624 
163.175 -2.36532 9.71624 165.175 -2.36532 9.71624 167.175 -2.36532 9.71624 
169.175 -2.36532 9.71624 171.175 -2.36532 9.71624 173.175 -2.36532 9.71624 
175.175 -2.36532 9.71624 177.175 -2.36532 9.71624 179.175 -2.36532 9.71624 
181.175 -2.36532 9.71624 183.174 -2.36343 9.7167 185.169 -2.35833 9.71793 
187.217 -2.35887 9.7178 189.275 -2.24038 9.7458 191.17 -1.80811 9.83518 
4.86279 1.76107 9.84371 195.137 -1.76107 9.84371 6.36206 9.73944 -2.2679 
193.638 -9.73944 -2.2679 194.856 1.64414 9.86391 5.14394 -1.64414 9.86391 
196.008 -6.55438 -7.55249 3.9917 6.55438 -7.55249 192.578 2.10641 -9.77563 
7.74101 -2.1895 -9.75736 191.012 -1.56862 -9.8762 8.9518 1.59004 -9.87278 
191.527 9.72498 2.32913 8.47336 -9.72498 2.32913 4.27212 9.92739 1.20286 
195.728 -9.92739 1.20286 188.917 2.0949 -9.77811 11.1375 -1.95842 -9.80635 
8.60795 9.80427 1.96881 191.392 -9.80428 1.96878 189.88 9.77386 2.11464 
10.1216 -9.77256 2.12062 188.052 9.80683 1.95604 186.074 9.80413 1.96954 
184.081 9.80349 1.97272 182.078 9.80306 1.97486 180.072 9.80231 1.97856 
178.071 9.80224 1.97892 176.072 9.80232 1.97854 174.081 9.80323 1.97402 
172.079 9.8031 1.97463 170.082 9.80329 1.97368 168.079 9.8031 1.97463 
166.082 9.80329 1.97368 164.079 9.80302 1.97503 162.072 9.80231 1.97859 
160.071 9.80224 1.97893 158.072 9.80232 1.97854 156.081 9.80323 1.97402 
154.079 9.80302 1.97503 152.073 9.80239 1.97819 150.081 9.80323 1.97401 
148.079 9.8031 1.97463 146.082 9.80329 1.97368 144.079 9.8031 1.97463 
142.082 9.80329 1.97368 140.079 9.80302 1.97503 138.073 9.80239 1.97819 
136.081 9.80323 1.97401 134.079 9.80302 1.97503 132.072 9.80231 1.97859 
130.071 9.80224 1.97893 128.071 9.80224 1.97893 126.071 9.80224 1.97893 
124.072 9.80232 1.97854 122.081 9.80323 1.97402 120.079 9.80302 1.97503 
118.073 9.80239 1.97819 116.081 9.80323 1.97401 114.079 9.8031 1.97463 
112.082 9.80329 1.97368 110.079 9.8031 1.97463 108.082 9.80329 1.97368 
106.079 9.80302 1.97503 104.073 9.80239 1.97819 102.081 9.80323 1.97401 
100.079 9.80302 1.97503 98.072 9.80231 1.97859 96.0722 9.80232 1.97853 
94.081 9.80323 1.97402 92.0786 9.80302 1.97503 90.0728 9.80239 1.97819 
88.0811 9.80323 1.97401 86.0794 9.8031 1.97463 84.0817 9.80329 1.97368 
82.0794 9.8031 1.97463 80.0817 9.80329 1.97368 78.0786 9.80302 1.97503 
76.072 9.80231 1.97859 74.0722 9.80232 1.97853 72.081 9.80323 1.97402 
70.0794 9.8031 1.97464 68.0817 9.80329 1.97368 66.0786 9.80302 1.97503 
64.0728 9.80239 1.97819 62.0811 9.80323 1.97401 60.0786 9.80302 1.97503 
58.0728 9.80239 1.97819 56.0811 9.80323 1.97401 54.0786 9.80302 1.97503 
52.072 9.80231 1.97859 50.0722 9.80232 1.97853 48.081 9.80323 1.97402 
46.0786 9.80302 1.97503 44.0728 9.80239 1.97819 42.0811 9.80323 1.97401 
40.0794 9.8031 1.97463 38.0817 9.80329 1.97368 36.0794 9.8031 1.97463 
34.0817 9.80329 1.97368 32.0794 9.8031 1.97463 30.0817 9.80329 1.97368 
28.0786 9.80302 1.97503 26.072 9.80231 1.97859 24.0722 9.80232 1.97853 
22.081 9.80323 1.97402 20.0786 9.80302 1.97503 18.0728 9.80239 1.97819 
16.0811 9.80323 1.97402 14.0779 9.80295 1.97537 12.0457 9.79954 1.99225 
11.9474 -9.80693 1.95552 13.9166 -9.80502 1.96511 15.9209 -9.8033 1.97365 
17.9176 -9.80335 1.97342 19.9118 -9.80395 1.97044 21.9201 -9.8031 1.97464 
23.9174 -9.80331 1.9736 25.9109 -9.80402 1.97008 27.9113 -9.80399 1.97023 
29.9201 -9.8031 1.97465 31.9183 -9.80323 1.97399 33.9205 -9.80305 1.97489 
35.9183 -9.80323 1.97399 37.9205 -9.80305 1.97489 39.9183 -9.80323 1.97399 
41.9205 -9.80305 1.97489 43.9174 -9.80331 1.9736 45.9118 -9.80394 1.97047 
47.9201 -9.8031 1.97465 49.9174 -9.80331 1.9736 51.9109 -9.80402 1.97008 
53.9113 -9.80399 1.97023 55.9201 -9.8031 1.97465 57.9174 -9.80331 1.9736 
59.9118 -9.80394 1.97047 61.9201 -9.8031 1.97465 63.9174 -9.80331 1.9736 
65.9118 -9.80394 1.97047 67.9201 -9.8031 1.97465 69.9183 -9.80323 1.97399 
71.9205 -9.80305 1.97489 73.9174 -9.80331 1.9736 75.9109 -9.80402 1.97008 
77.9113 -9.80399 1.97023 79.9201 -9.8031 1.97465 81.9183 -9.80323 1.97399 
83.9205 -9.80305 1.97489 85.9183 -9.80323 1.97399 87.9205 -9.80305 1.97489 
89.9174 -9.80331 1.9736 91.9118 -9.80394 1.97047 93.9201 -9.8031 1.97465 
95.9174 -9.80331 1.9736 97.9109 -9.80402 1.97008 99.9113 -9.80399 1.97023 
101.92 -9.8031 1.97465 103.917 -9.80331 1.9736 105.912 -9.80394 1.97047 
107.92 -9.8031 1.97465 109.918 -9.80323 1.97399 111.921 -9.80305 1.97489 
113.918 -9.80323 1.97399 115.921 -9.80305 1.97489 117.917 -9.80331 1.9736 
119.912 -9.80394 1.97047 121.92 -9.8031 1.97465 123.917 -9.80331 1.9736 
125.911 -9.80402 1.97008 127.91 -9.80407 1.96984 129.91 -9.80407 1.96984 
131.91 -9.80407 1.96984 133.911 -9.80399 1.97023 135.92 -9.8031 1.97465 
137.917 -9.80331 1.9736 139.912 -9.80394 1.97047 141.92 -9.8031 1.97465 
143.918 -9.80323 1.97399 145.921 -9.80305 1.97489 147.918 -9.80323 1.97399 
149.921 -9.80305 1.97489 151.917 -9.80331 1.9736 153.912 -9.80394 1.97047 
155.92 -9.8031 1.97465 157.917 -9.80331 1.9736 159.911 -9.80402 1.97008 
161.91 -9.80407 1.96984 163.911 -9.80399 1.97023 165.92 -9.8031 1.97465 
167.918 -9.80323 1.97399 169.921 -9.80305 1.97489 171.918 -9.80323 1.97399 
173.921 -9.80305 1.97489 175.917 -9.80331 1.9736 177.911 -9.80402 1.97008 
179.91 -9.80407 1.96984 181.911 -9.80399 1.97023 183.92 -9.8031 1.97465 
185.919 -9.80316 1.97434 187.948 -9.80023 1.98885 9.92229 9.7402 2.26462 
190.077 -9.74027 2.26432 196.327 6.7376 -7.3895 3.67199 -6.7376 -7.3895 
7.98549 9.8 -1.98999 192.016 -9.79948 -1.99255 187.335 2.22417 -9.74952 
185.648 2.38151 -9.71228 186.821 -1.97653 -9.80272 183.782 2.46872 -9.69048 
184.681 -1.97173 -9.80369 181.831 2.46289 -9.69197 182.612 -1.89874 -9.81808 
179.872 2.45533 -9.69388 180.694 -1.934 -9.8112 177.888 2.47023 -9.6901 
178.611 -1.89364 -9.81907 175.903 2.50745 -9.68053 176.694 -1.93278 -9.81144 
173.884 2.51837 -9.6777 174.611 -1.89347 -9.8191 171.872 2.48834 -9.68546 
172.694 -1.93275 -9.81145 169.866 2.48057 -9.68746 170.611 -1.89347 -9.8191 
167.859 2.47436 -9.68904 168.694 -1.93275 -9.81145 165.846 2.46624 -9.69111 
166.611 -1.89347 -9.8191 163.819 2.45936 -9.69286 164.694 -1.93275 -9.81145 
161.873 2.45161 -9.69482 162.611 -1.89347 -9.8191 159.891 2.4632 -9.69188 
160.694 -1.93275 -9.81145 157.905 2.50544 -9.68105 158.611 -1.89347 -9.8191 
155.887 2.51538 -9.67847 156.694 -1.93275 -9.81145 153.885 2.49265 -9.68435 
154.611 -1.89347 -9.8191 151.899 2.51561 -9.67841 152.694 -1.93275 -9.81145 
149.881 2.5211 -9.67698 150.611 -1.89347 -9.8191 147.871 2.48903 -9.68528 
148.694 -1.93275 -9.81145 145.869 2.48043 -9.68749 146.611 -1.89347 -9.8191 
143.865 2.47533 -9.6888 144.694 -1.93275 -9.81145 141.861 2.47219 -9.6896 
142.611 -1.89347 -9.8191 139.876 2.48083 -9.68739 140.694 -1.93275 -9.81145 
137.895 2.50943 -9.68002 138.611 -1.89347 -9.8191 135.88 2.50943 -9.68002 
136.694 -1.93275 -9.81145 133.867 2.46738 -9.69082 134.611 -1.89347 -9.8191 
131.88 2.44853 -9.6956 132.694 -1.93275 -9.81145 129.877 2.44539 -9.69639 
130.611 -1.89347 -9.8191 127.884 2.44913 -9.69545 128.694 -1.93275 -9.81145 
125.892 2.46874 -9.69048 126.611 -1.89347 -9.8191 123.906 2.50647 -9.68079 
124.694 -1.93275 -9.81145 121.884 2.51556 -9.67843 122.611 -1.89347 -9.8191 
119.863 2.49402 -9.684 120.694 -1.93275 -9.81145 117.892 2.51389 -9.67886 
118.611 -1.89347 -9.8191 115.885 2.51763 -9.67789 116.694 -1.93275 -9.81145 
113.87 2.48653 -9.68593 114.611 -1.89347 -9.8191 111.869 2.47902 -9.68785 
112.694 -1.93275 -9.81145 109.866 2.47505 -9.68887 110.611 -1.89347 -9.8191 
107.861 2.47264 -9.68948 108.694 -1.93275 -9.81145 105.878 2.48161 -9.68719 
106.611 -1.89347 -9.8191 103.898 2.51022 -9.67981 104.694 -1.93275 -9.81145 
101.885 2.51195 -9.67937 102.611 -1.89347 -9.8191 99.8808 2.47587 -9.68866 
100.694 -1.93275 -9.81145 97.8983 2.47264 -9.68948 98.6111 -1.89347 -9.8191 
95.906 2.50806 -9.68037 96.6937 -1.93275 -9.81145 93.8835 2.51587 -9.67835 
94.6111 -1.89347 -9.8191 91.8627 2.4938 -9.68406 92.6937 -1.93275 -9.81145 
89.892 2.51381 -9.67888 90.6111 -1.89347 -9.8191 87.8845 2.51758 -9.6779 
88.6937 -1.93275 -9.81145 85.8701 2.48647 -9.68594 86.6111 -1.89347 -9.8191 
83.8672 2.47874 -9.68792 84.6937 -1.93275 -9.81145 81.862 2.47378 -9.68919 
82.6111 -1.89347 -9.8191 79.8476 2.46704 -9.69091 80.6937 -1.93275 -9.81145 
77.8219 2.45953 -9.69282 78.6111 -1.89347 -9.8191 75.8854 2.46518 -9.69138 
76.6937 -1.93275 -9.81145 73.8992 2.50651 -9.68077 74.6111 -1.89347 -9.8191 
71.8819 2.51824 -9.67773 72.6937 -1.93275 -9.81145 69.8694 2.48522 -9.68626 
70.6111 -1.89347 -9.8191 67.8619 2.47563 -9.68872 68.6937 -1.93275 -9.81145 
65.8777 2.48237 -9.68699 66.6111 -1.89347 -9.8191 63.897 2.51156 -9.67947 
64.6937 -1.93275 -9.81145 61.8809 2.51671 -9.67813 62.6111 -1.89347 -9.8191 
59.8622 2.4938 -9.68406 60.6937 -1.93275 -9.81145 57.8928 2.51446 -9.67871 
58.6111 -1.89347 -9.8191 55.8825 2.51386 -9.67887 56.6937 -1.93275 -9.81145 
53.88 2.47648 -9.6885 54.6111 -1.89347 -9.8191 51.8983 2.47301 -9.68939 
52.6937 -1.93275 -9.81145 49.9061 2.50886 -9.68017 50.6111 -1.89347 -9.8191 
47.8875 2.51659 -9.67816 48.6937 -1.93275 -9.81145 45.8852 2.49309 -9.68424 
46.6111 -1.89347 -9.8191 43.8987 2.51576 -9.67838 44.6937 -1.93275 -9.81145 
41.8815 2.52114 -9.67697 42.6111 -1.89347 -9.8191 39.8714 2.48999 -9.68504 
40.6937 -1.93275 -9.81145 37.87 2.48253 -9.68695 38.6111 -1.89347 -9.8191 
35.8711 2.47897 -9.68786 36.6937 -1.93275 -9.81145 33.8709 2.47643 -9.68851 
34.6111 -1.89347 -9.8191 31.8655 2.47304 -9.68938 32.6937 -1.93275 -9.81145 
29.8583 2.46887 -9.69044 30.6111 -1.89347 -9.8191 27.8679 2.469 -9.69041 
28.6937 -1.93275 -9.81145 25.8933 2.47051 -9.69002 26.6111 -1.89347 -9.8191 
23.9076 2.50772 -9.68046 24.6937 -1.93275 -9.81145 21.8922 2.51774 -9.67786 
22.6111 -1.89347 -9.8191 19.8908 2.50287 -9.68172 20.6937 -1.93275 -9.81145 
17.9238 2.535 -9.67335 18.6111 -1.89347 -9.8191 15.9591 2.57148 -9.66372 
16.6947 -1.92764 -9.81245 14.0575 2.60144 -9.6557 14.6198 -1.88246 -9.82122 
12.8629 -1.86454 -9.82464 195.889 -1.43415 -9.89663 4.11021 1.43418 -9.89662 
196.316 8.33275 5.52859 3.68434 -8.33275 5.52859 195.247 1.47124 -9.89118 
4.75161 -1.47091 -9.89123 5.35429 9.50966 3.09295 194.646 -9.50966 3.09295 
188.401 -1.24538 -9.92215 11.6054 1.1044 -9.93883 186.198 1.19056 -9.92888 
184.609 1.13311 -9.9356 182.722 1.05563 -9.94413 180.758 1.03938 -9.94584 
178.789 1.03553 -9.94624 176.797 1.04673 -9.94507 174.798 1.0574 -9.94394 
172.78 1.05518 -9.94417 170.782 1.04722 -9.94502 168.77 1.04566 -9.94518 
166.776 1.03629 -9.94616 164.771 1.03123 -9.94669 162.779 1.02798 -9.94702 
160.794 1.03059 -9.94675 158.803 1.04385 -9.94537 156.798 1.0581 -9.94386 
154.798 1.05762 -9.94391 152.8 1.05869 -9.9438 150.797 1.06221 -9.94343 
148.779 1.05645 -9.94404 146.782 1.04776 -9.94496 144.78 1.04265 -9.9455 
142.785 1.03932 -9.94584 140.789 1.04176 -9.94559 138.795 1.05019 -9.9447 
136.789 1.05699 -9.94398 134.79 1.04467 -9.94528 132.788 1.0299 -9.94682 
130.793 1.02289 -9.94755 128.796 1.02289 -9.94755 126.801 1.03021 -9.94679 
124.805 1.04526 -9.94522 122.802 1.05724 -9.94396 120.794 1.05709 -9.94397 
118.793 1.05621 -9.94406 116.784 1.05623 -9.94406 114.778 1.04979 -9.94475 
112.775 1.04404 -9.94535 110.785 1.04055 -9.94572 108.785 1.04072 -9.9457 
106.79 1.04261 -9.9455 104.796 1.05173 -9.94454 102.799 1.05694 -9.94399 
100.797 1.05071 -9.94465 98.8002 1.04359 -9.9454 96.8052 1.04902 -9.94483 
94.8016 1.05792 -9.94388 92.7935 1.05702 -9.94398 90.7925 1.05603 -9.94408 
88.7839 1.05617 -9.94407 86.7783 1.04977 -9.94475 84.7744 1.04403 -9.94535 
82.7821 1.04016 -9.94576 80.7783 1.03932 -9.94584 78.7742 1.03349 -9.94645 
76.7823 1.03422 -9.94638 74.7959 1.04521 -9.94523 72.7848 1.05747 -9.94393 
70.7906 1.05328 -9.94438 68.7885 1.0452 -9.94523 66.7913 1.04435 -9.94532 
64.7976 1.05178 -9.94453 62.7977 1.05945 -9.94372 60.7922 1.05775 -9.9439 
58.7936 1.05756 -9.94392 56.7904 1.06252 -9.94339 54.7951 1.05192 -9.94452 
52.7994 1.04436 -9.94532 50.8053 1.04995 -9.94473 48.7983 1.0608 -9.94358 
46.7981 1.05852 -9.94382 44.8003 1.05899 -9.94377 42.7971 1.06231 -9.94341 
40.7794 1.05651 -9.94403 38.7818 1.05141 -9.94457 36.7807 1.04719 -9.94502 
34.786 1.04068 -9.9457 32.7836 1.03866 -9.94591 30.7837 1.03676 -9.94611 
28.7835 1.03842 -9.94594 26.7932 1.03976 -9.9458 24.8048 1.04735 -9.945 
22.8079 1.05772 -9.9439 20.8097 1.05974 -9.94369 18.8202 1.07284 -9.94228 
16.8445 1.10529 -9.93873 14.9188 1.13417 -9.93547 13.1212 1.12824 -9.93615 
196.519 5.85427 8.10725 3.48093 -5.85427 8.10725 185.226 5.53302 -8.32981 
186.926 -5.22016 -8.52936 184.593 -5.57597 -8.30112 183.211 -5.30451 -8.47716 
180.587 -5.57829 -8.29956 179.207 -5.30774 -8.47513 175.233 5.60512 -8.28146 
176.587 -5.57812 -8.29967 175.207 -5.30765 -8.47519 172.587 -5.57812 -8.29967 
171.207 -5.30764 -8.47519 168.587 -5.57812 -8.29967 167.207 -5.30764 -8.47519 
164.587 -5.57812 -8.29967 163.207 -5.30764 -8.47519 160.587 -5.57812 -8.29967 
157.233 5.60512 -8.28146 159.207 -5.30764 -8.47519 156.6 -5.56843 -8.30618 
155.214 -5.30077 -8.47949 151.23 5.60504 -8.28152 152.587 -5.57812 -8.29967 
151.207 -5.30764 -8.47519 148.587 -5.57812 -8.29967 147.207 -5.30764 -8.47519 
144.587 -5.57812 -8.29967 143.207 -5.30764 -8.47519 140.587 -5.57812 -8.29967 
137.23 5.60503 -8.28152 139.207 -5.30764 -8.47519 136.6 -5.56843 -8.30618 
135.214 -5.30077 -8.47949 132.587 -5.57812 -8.29967 131.207 -5.30764 -8.47519 
128.587 -5.57812 -8.29967 127.207 -5.30764 -8.47519 123.233 5.60513 -8.28146 
124.587 -5.57812 -8.29967 123.207 -5.30764 -8.47519 120.587 -5.57812 -8.29967 
117.23 5.60504 -8.28152 119.207 -5.30764 -8.47519 116.6 -5.56843 -8.30618 
115.214 -5.30077 -8.47949 112.6 -5.56843 -8.30618 111.214 -5.30077 -8.47949 
108.6 -5.56843 -8.30618 107.214 -5.30077 -8.47949 103.23 5.60503 -8.28152 
104.587 -5.57812 -8.29967 103.207 -5.30764 -8.47519 100.587 -5.57812 -8.29967 
99.2072 -5.30764 -8.47519 95.2325 5.60509 -8.28148 96.5873 -5.57812 -8.29967 
95.2072 -5.30764 -8.47519 92.5873 -5.57812 -8.29967 89.2305 5.60504 -8.28152 
91.2072 -5.30764 -8.47519 88.5995 -5.56843 -8.30618 87.2143 -5.30077 -8.47949 
84.5995 -5.56843 -8.30618 83.2143 -5.30077 -8.47949 80.5995 -5.56843 -8.30618 
79.2143 -5.30077 -8.47949 76.5873 -5.57812 -8.29967 73.2325 5.60509 -8.28148 
75.2072 -5.30764 -8.47519 72.5995 -5.56843 -8.30618 71.2143 -5.30077 -8.47949 
68.5995 -5.56843 -8.30618 67.2143 -5.30077 -8.47949 63.2305 5.60503 -8.28152 
64.5873 -5.57812 -8.29967 63.2072 -5.30764 -8.47519 60.5873 -5.57812 -8.29967 
57.2305 5.60504 -8.28152 59.2072 -5.30764 -8.47519 56.5996 -5.56843 -8.30618 
55.2143 -5.30077 -8.47949 52.5873 -5.57812 -8.29967 49.2325 5.60509 -8.28148 
51.2072 -5.30764 -8.47519 48.5996 -5.56843 -8.30618 47.2143 -5.30077 -8.47949 
43.2305 5.60504 -8.28152 44.5873 -5.57812 -8.29967 43.2072 -5.30764 -8.47519 
40.5873 -5.57812 -8.29967 39.2072 -5.30764 -8.47519 36.5873 -5.57812 -8.29967 
35.2072 -5.30764 -8.47519 32.5873 -5.57812 -8.29967 31.2072 -5.30764 -8.47519 
28.5873 -5.57812 -8.29967 27.2072 -5.30764 -8.47519 23.2325 5.60509 -8.28148 
24.5873 -5.57812 -8.29967 23.2072 -5.30764 -8.47519 20.5873 -5.57812 -8.29967 
17.2305 5.60505 -8.28151 19.2072 -5.30764 -8.47519 16.5987 -5.56538 -8.30822 
13.226 5.57805 -8.29972 15.206 -5.27623 -8.49479 12.6963 -5.57401 -8.30243 
189.519 5.5603 -8.31162 10.8362 -5.76656 -8.16987 197.114 -3.98501 -9.17168 
2.88581 3.98501 -9.17168 187.995 6.22615 -7.82529 186.158 -6.11156 -7.9151 
183.138 6.2549 -7.80232 181.6 6.44248 -7.64817 182.15 -6.11014 -7.9162 
179.643 6.49957 -7.59971 177.781 6.55872 -7.54872 178.15 -6.11014 -7.9162 
174.15 -6.11014 -7.9162 170.15 -6.11014 -7.9162 165.139 6.25818 -7.79969 
166.15 -6.11014 -7.9162 163.601 6.44339 -7.6474 161.644 6.49978 -7.59953 
162.15 -6.11014 -7.9162 159.781 6.55876 -7.54869 158.15 -6.11014 -7.9162 
155.138 6.2592 -7.79887 153.735 6.48993 -7.60795 154.15 -6.11014 -7.9162 
150.15 -6.11014 -7.9162 146.15 -6.11014 -7.9162 141.139 6.25818 -7.79969 
142.15 -6.11014 -7.9162 139.737 6.48896 -7.60878 138.15 -6.11014 -7.9162 
135.138 6.25904 -7.799 133.6 6.44422 -7.6467 134.15 -6.11014 -7.9162 
131.643 6.50003 -7.59932 129.645 6.51361 -7.58768 130.15 -6.11014 -7.9162 
127.645 6.51661 -7.58511 125.78 6.56242 -7.5455 126.15 -6.11014 -7.9162 
121.138 6.2592 -7.79887 122.15 -6.11014 -7.9162 119.735 6.48993 -7.60794 
118.15 -6.11014 -7.9162 114.15 -6.11014 -7.9162 110.15 -6.11014 -7.9162 
107.139 6.25818 -7.79969 105.737 6.48896 -7.60878 106.15 -6.11014 -7.9162 
101.138 6.25904 -7.799 102.15 -6.11014 -7.9162 99.5996 6.44422 -7.6467 
97.7793 6.5453 -7.56036 98.1504 -6.11014 -7.9162 93.1376 6.25918 -7.79889 
94.1504 -6.11014 -7.9162 91.7353 6.48991 -7.60796 90.1504 -6.11014 -7.9162 
86.1504 -6.11014 -7.9162 82.1504 -6.11014 -7.9162 79.1385 6.25818 -7.79969 
77.6007 6.44339 -7.6474 78.1504 -6.11014 -7.9162 75.7796 6.54506 -7.56057 
74.1504 -6.11014 -7.9162 70.1504 -6.11014 -7.9162 67.1385 6.25819 -7.79968 
65.7366 6.48898 -7.60876 66.1504 -6.11014 -7.9162 61.1377 6.25904 -7.799 
62.1504 -6.11014 -7.9162 59.7355 6.48977 -7.60808 58.1504 -6.11014 -7.9162 
55.1377 6.25904 -7.799 53.5996 6.44422 -7.6467 54.1504 -6.11014 -7.9162 
51.7793 6.5453 -7.56036 50.1504 -6.11014 -7.9162 47.1376 6.25918 -7.79889 
45.7353 6.48991 -7.60796 46.1504 -6.11014 -7.9162 42.1504 -6.11014 -7.9162 
38.1504 -6.11014 -7.9162 34.1504 -6.11014 -7.9162 29.1385 6.25818 -7.7997 
30.1504 -6.11014 -7.9162 27.6007 6.44339 -7.6474 25.7796 6.54506 -7.56057 
26.1504 -6.11014 -7.9162 21.1376 6.25918 -7.79889 22.1504 -6.11014 -7.9162 
19.7353 6.48991 -7.60796 18.1504 -6.11014 -7.9162 15.3115 6.31579 -7.75311 
14.137 -6.10191 -7.92254 12.0527 -6.81352 -7.31956 189.235 6.60302 -7.51 
196.825 3.85106 -9.22872 3.17476 -3.85103 -9.22873 3.54086 8.25709 5.64096 
196.459 -8.25709 5.64096 190.067 9.21228 -3.89023 9.91958 -9.20659 -3.90369 
3.75434 6.33501 7.73742 196.246 -6.33501 7.73742 190.8 9.91181 1.32519 
9.20298 -9.91167 1.3262 197.01 -1.10506 -9.93876 2.9898 1.10508 -9.93875 
197.001 1.42347 -9.89817 2.9987 -1.42338 -9.89818 189.873 1.97537 9.80296 
10.1267 -1.97537 9.80296 197.623 -9.41073 3.38203 2.37672 9.41073 3.38203 
193.778 9.96382 -0.849891 6.22176 -9.96384 -0.849638 18.4882 -8.74038 -4.85857 
22.4924 -8.74027 -4.85877 26.4911 -8.73992 -4.8594 30.4923 -8.74028 -4.85875 
34.4926 -8.74039 -4.85856 38.4927 -8.74039 -4.85856 42.4927 -8.74034 -4.85864 
46.4932 -8.73964 -4.85991 50.3234 -8.83341 -4.68731 54.4932 -8.73986 -4.85951 
58.3234 -8.83341 -4.68731 62.4927 -8.74057 -4.85824 66.4932 -8.73964 -4.85991 
70.4996 -8.73859 -4.86179 74.3235 -8.83339 -4.68735 78.4932 -8.73986 -4.85952 
82.4996 -8.7386 -4.86178 86.4997 -8.73858 -4.86182 90.3235 -8.83339 -4.68735 
94.4927 -8.74057 -4.85824 98.4911 -8.73993 -4.85939 102.492 -8.74024 -4.85883 
106.493 -8.73963 -4.85992 110.5 -8.73859 -4.86179 114.5 -8.73858 -4.86182 
118.324 -8.83339 -4.68735 122.493 -8.74057 -4.85824 126.491 -8.7399 -4.85944 
130.491 -8.73979 -4.85964 134.493 -8.73952 -4.86011 138.323 -8.83341 -4.68731 
142.493 -8.74062 -4.85815 146.493 -8.74039 -4.85855 150.493 -8.74034 -4.85864 
154.493 -8.73964 -4.85991 158.323 -8.83341 -4.68731 162.491 -8.74014 -4.859 
166.492 -8.74029 -4.85874 170.493 -8.74039 -4.85856 174.493 -8.74034 -4.85864 
178.491 -8.7399 -4.85944 182.493 -8.73954 -4.86009 186.51 -8.72893 -4.87912 
12.6496 -8.61124 -5.08395 7.23828 1.64251 9.86419 192.762 -1.64251 9.86419 
188.045 4.14247 -9.10165 185.665 -4.13948 -9.103 181.829 -4.14409 -9.10091 
177.829 -4.14216 -9.10179 173.829 -4.14207 -9.10182 169.829 -4.14207 -9.10183 
165.829 -4.14207 -9.10183 161.829 -4.14207 -9.10183 157.831 -4.14055 -9.10252 
153.83 -4.14102 -9.10231 149.829 -4.14207 -9.10183 145.829 -4.14207 -9.10183 
141.829 -4.14207 -9.10183 137.831 -4.14055 -9.10252 133.83 -4.14102 -9.10231 
129.829 -4.14207 -9.10183 125.829 -4.14207 -9.10183 121.829 -4.14207 -9.10183 
117.831 -4.14055 -9.10252 113.832 -4.1395 -9.103 109.832 -4.1395 -9.103 
105.83 -4.14102 -9.10231 101.829 -4.14207 -9.10183 97.8289 -4.14207 -9.10183 
93.8289 -4.14207 -9.10183 89.8307 -4.14055 -9.10252 85.8317 -4.1395 -9.103 
81.8317 -4.1395 -9.103 77.8299 -4.14102 -9.10231 73.8307 -4.14055 -9.10252 
69.8317 -4.1395 -9.103 65.8299 -4.14102 -9.10231 61.8289 -4.14207 -9.10183 
57.8307 -4.14055 -9.10252 53.8299 -4.14102 -9.10231 49.8307 -4.14055 -9.10252 
45.8299 -4.14102 -9.10231 41.8289 -4.14207 -9.10183 37.8289 -4.14207 -9.10183 
33.8289 -4.14207 -9.10183 29.8289 -4.14207 -9.10183 25.8289 -4.14207 -9.10183 
21.8289 -4.14207 -9.10183 17.8304 -4.1368 -9.10422 13.8067 -4.0328 -9.15077 
197.054 1.44676 9.89479 2.94615 -1.44676 9.89479 193.007 -7.01461 -7.12708 
6.99079 7.01395 -7.12773 194.903 3.11018 9.50404 5.0972 -3.11018 9.50404 
197.455 8.24399 5.66009 2.54515 -8.24399 5.66009 192.872 1.65664 9.86182 
7.12814 -1.65664 9.86182 191.317 8.88275 -4.59312 8.6271 -8.90138 -4.55691 
13.4291 7.36569 6.76363 186.571 -7.36579 6.76351 187.356 7.46857 6.64985 
12.6438 -7.46857 6.64984 185.351 7.51113 6.60173 14.6486 -7.51113 6.60173 
161.363 7.53797 6.57107 159.361 7.54025 6.56846 157.361 7.54131 6.56724 
155.361 7.54235 6.56605 153.361 7.54221 6.5662 151.361 7.54266 6.56569 
149.361 7.5423 6.5661 147.361 7.54269 6.56566 145.361 7.54302 6.56528 
143.361 7.54443 6.56366 141.361 7.54529 6.56267 139.362 7.54559 6.56232 
137.361 7.54551 6.56242 135.361 7.54424 6.56388 133.36 7.54316 6.56512 
131.362 7.54279 6.56554 129.363 7.54164 6.56686 127.362 7.54245 6.56593 
125.364 7.54181 6.56667 123.363 7.54215 6.56627 121.363 7.54211 6.56632 
119.364 7.54193 6.56653 117.363 7.54226 6.56615 115.363 7.54216 6.56626 
113.364 7.54195 6.56651 111.363 7.54226 6.56614 109.363 7.54216 6.56626 
107.364 7.54195 6.56651 105.363 7.54226 6.56614 103.363 7.54216 6.56626 
101.364 7.54195 6.56651 99.3631 7.54226 6.56614 97.3631 7.54216 6.56626 
95.3637 7.54195 6.56651 93.3631 7.54226 6.56614 91.3631 7.54216 6.56626 
89.3637 7.54195 6.56651 87.3631 7.54226 6.56614 85.3631 7.54216 6.56626 
83.3637 7.54195 6.56651 81.3631 7.54226 6.56614 79.3631 7.54216 6.56626 
77.3637 7.54195 6.56651 75.3631 7.54226 6.56614 73.3631 7.54216 6.56626 
71.3637 7.54195 6.56651 69.3631 7.54226 6.56614 67.3631 7.54216 6.56626 
65.3637 7.54195 6.56651 63.3631 7.54226 6.56614 61.3631 7.54216 6.56626 
59.3637 7.54195 6.56651 57.3631 7.54226 6.56614 55.3631 7.54216 6.56626 
53.3637 7.54195 6.56651 51.3631 7.54226 6.56614 49.3631 7.54216 6.56626 
47.3637 7.54195 6.56651 45.3631 7.54226 6.56614 43.3631 7.54216 6.56626 
41.3637 7.54195 6.56651 39.3631 7.54226 6.56614 37.3631 7.54216 6.56626 
35.3637 7.54195 6.56651 33.3631 7.54226 6.56614 31.3631 7.54216 6.56626 
29.3637 7.54193 6.56653 27.3631 7.5422 6.56621 25.3629 7.54188 6.56659 
23.3633 7.54065 6.56799 21.3602 7.53835 6.57063 38.6375 -7.53797 6.57107 
40.6385 -7.54025 6.56846 42.6391 -7.54131 6.56724 44.6391 -7.54235 6.56605 
46.6393 -7.54221 6.5662 48.6392 -7.54266 6.56569 50.6393 -7.5423 6.5661 
52.6392 -7.54269 6.56566 54.6393 -7.54231 6.56609 56.6392 -7.54269 6.56566 
58.6391 -7.54302 6.56528 60.6388 -7.54443 6.56366 62.6385 -7.54529 6.56267 
64.6385 -7.54559 6.56232 66.6385 -7.54551 6.56242 68.6389 -7.54424 6.56388 
70.6395 -7.54316 6.56512 72.6377 -7.54279 6.56554 74.6367 -7.54164 6.56686 
76.6384 -7.54245 6.56593 78.6365 -7.54181 6.56667 80.6369 -7.54215 6.56627 
82.6369 -7.54211 6.56632 84.6363 -7.54193 6.56653 86.6369 -7.54226 6.56615 
88.6369 -7.54216 6.56626 90.6363 -7.54195 6.56651 92.6369 -7.54226 6.56614 
94.6369 -7.54216 6.56626 96.6363 -7.54195 6.56651 98.6369 -7.54226 6.56614 
100.637 -7.54216 6.56626 102.636 -7.54195 6.56651 104.637 -7.54226 6.56614 
106.637 -7.54216 6.56626 108.636 -7.54195 6.56651 110.637 -7.54226 6.56614 
112.637 -7.54216 6.56626 114.636 -7.54195 6.56651 116.637 -7.54226 6.56614 
118.637 -7.54216 6.56626 120.636 -7.54195 6.56651 122.637 -7.54226 6.56614 
124.637 -7.54216 6.56626 126.636 -7.54195 6.56651 128.637 -7.54226 6.56614 
130.637 -7.54216 6.56626 132.636 -7.54195 6.56651 134.637 -7.54226 6.56614 
136.637 -7.54216 6.56626 138.636 -7.54195 6.56651 140.637 -7.54226 6.56614 
142.637 -7.54216 6.56626 144.636 -7.54195 6.56651 146.637 -7.54226 6.56614 
148.637 -7.54216 6.56626 150.636 -7.54195 6.56651 152.637 -7.54226 6.56614 
154.637 -7.54216 6.56626 156.636 -7.54195 6.56651 158.637 -7.54226 6.56614 
160.637 -7.54216 6.56626 162.636 -7.54195 6.56651 164.637 -7.54226 6.56614 
166.637 -7.54216 6.56626 168.636 -7.54194 6.56651 170.637 -7.54225 6.56616 
172.637 -7.54209 6.56635 174.636 -7.54155 6.56696 176.638 -7.54147 6.56706 
178.641 -7.53912 6.56976 163.363 7.53405 6.57556 19.3496 7.52959 6.58067 
36.6373 -7.53405 6.57556 180.65 -7.52958 6.58069 165.364 7.53662 6.57263 
34.6363 -7.53662 6.57263 167.363 7.53451 6.57504 32.6372 -7.53451 6.57504 
169.364 7.53835 6.57064 30.6362 -7.53835 6.57064 17.3773 7.5126 6.60006 
182.622 -7.51202 6.60073 171.364 7.53957 6.56923 28.636 -7.53957 6.56923 
173.364 7.54068 6.56796 26.6357 -7.54068 6.56796 175.365 7.54178 6.5667 
24.6354 -7.54178 6.5667 177.364 7.54323 6.56503 22.6355 -7.54323 6.56503 
179.365 7.54494 6.56307 20.6346 -7.54494 6.56307 181.365 7.545 6.563 
18.6347 -7.545 6.563 183.361 7.53254 6.57729 16.6386 -7.53254 6.57729 
11.4319 7.31658 6.81672 188.568 -7.31661 6.81669 190.665 6.02407 7.98189 
9.33487 -6.02407 7.98189 13.241 9.04579 4.26306 186.758 -9.0459 4.26283 
15.4061 7.44837 6.67246 184.578 -7.43958 6.68227 1.32454 1.48842 9.88861 
198.675 -1.48842 9.88861 17.4234 -8.99399 -4.37129 21.5222 -9.01489 -4.32802 
133.52 -9.014 -4.32987 165.522 -9.0149 -4.328 29.5218 -9.0148 -4.32821 
101.522 -9.01473 -4.32835 129.518 -9.0138 -4.33029 181.52 -9.01405 -4.32978 
141.498 -9.02437 -4.30821 61.4983 -9.0243 -4.30836 53.4967 -9.02362 -4.30979 
161.495 -9.02342 -4.3102 77.4968 -9.02361 -4.3098 93.4983 -9.0243 -4.30836 
121.498 -9.0243 -4.30836 25.5201 -9.01438 -4.32909 169.524 -9.01529 -4.32719 
33.5236 -9.01529 -4.32719 105.522 -9.01454 -4.32875 145.524 -9.01541 -4.32693 
65.5222 -9.01467 -4.32848 97.5202 -9.01449 -4.32885 125.52 -9.01445 -4.32894 
173.524 -9.01524 -4.32729 37.5237 -9.01531 -4.32714 149.524 -9.01524 -4.32728 
41.5237 -9.01524 -4.32728 177.52 -9.01435 -4.32915 153.522 -9.01457 -4.32869 
45.5222 -9.01457 -4.32869 81.5304 -9.01335 -4.33123 109.53 -9.01325 -4.33143 
69.5303 -9.01325 -4.33143 185.539 -9.0098 -4.3386 85.5314 -9.01315 -4.33165 
113.531 -9.01315 -4.33165 198.679 1.26448 9.91973 1.32079 -1.26448 9.91973 
200 -7.90335 -4.17831 200 7.90335 4.17831 200 -7.90335 4.17831 
200 7.90335 -4.17831 0 -7.90335 -4.17831 0 7.90335 4.17831 
0 -7.90335 4.17831 0 7.90335 -4.17831 4.03572 0.809803 -7.95891 
11.1743 -0.0473377 -7.99986 9.53557 -0.120201 -7.9991 12.9693 -0.0321856 -7.99994 
14.9839 -0.00724594 -8 19.0129 -0.000918771 -8 16.9774 -0.00140616 -8 
22.5948 -0.00130111 -8 20.9109 -0.00145347 -8 27.0051 -0.0021305 -8 
25.3856 -0.00172736 -8 28.9471 -0.00234806 -8 30.5551 -0.000312541 -8 
35.0053 -0.00197333 -8 33.3876 -0.000214019 -8 36.9471 -0.00232187 -8 
38.9797 -0.000256085 -8 42.595 -0.00111267 -8 40.907 -7.75864e-05 -8 
46.9756 -0.00213051 -8 45.3797 -0.00172738 -8 48.9828 -0.00145913 -8 
53.0129 -0.000946872 -8 50.977 -0.000404828 -8 56.5948 -0.00130128 -8 
54.9109 -0.00145909 -8 61.0051 -0.00213051 -8 59.3856 -0.00172738 -8 
62.9766 -0.00234806 -8 64.944 -0.00112693 -8 66.5548 0.000143389 -8 
70.9758 -0.00197053 -8 69.3818 -0.000186995 -8 72.5589 -0.00171896 -8 
77.0053 -0.00199298 -8 75.3874 -0.000403189 -8 78.9471 -0.00232514 -8 
80.5551 -0.000307957 -8 84.9758 -0.00197333 -8 83.3817 -0.000214019 -8 
86.5589 -0.00171952 -8 91.0053 -0.00199298 -8 89.3874 -0.000403189 -8 
92.9471 -0.00232514 -8 94.5551 -0.000307957 -8 99.0053 -0.00197333 -8 
97.3876 -0.000214019 -8 100.977 -0.00232187 -8 102.974 -0.00112256 -8 
104.973 -0.000743053 -8 106.944 -0.00065414 -8 108.555 0.000272511 -8 
112.976 -0.00197007 -8 111.382 -0.000182582 -8 114.983 -0.00143239 -8 
119.013 -0.000946872 -8 116.977 -0.000400372 -8 123.013 -0.0010844 -8 
120.981 -0.00142294 -8 126.595 -0.00130128 -8 124.911 -0.00148201 -8 
130.976 -0.00213051 -8 129.38 -0.00172738 -8 132.559 -0.00175096 -8 
136.976 -0.00199298 -8 135.381 -0.000403189 -8 138.559 -0.00172345 -8 
143.005 -0.00199298 -8 141.387 -0.000403189 -8 144.947 -0.00232514 -8 
146.555 -0.000307957 -8 150.976 -0.00197333 -8 149.382 -0.000214019 -8 
152.983 -0.00143293 -8 156.595 -0.00113625 -8 154.907 -0.000432025 -8 
160.976 -0.00213051 -8 159.38 -0.00172738 -8 162.559 -0.00175096 -8 
166.976 -0.00199298 -8 165.381 -0.000403189 -8 168.559 -0.00172345 -8 
172.976 -0.00199298 -8 171.381 -0.000403189 -8 174.559 -0.00172345 -8 
178.976 -0.00199298 -8 177.381 -0.000403189 -8 180.559 -0.00172345 -8 
185.012 -0.00103397 -8 183.389 -0.000211387 -8 186.975 0.0499873 -7.99984 
190.062 0.0394461 -7.9999 188.517 0.356927 -7.99203 195.964 -0.809803 -7.95891 
2.53647 -0.119585 -7.99911 5.59671 -0.339312 -7.9928 8.2167 -0.160632 -7.99839 
191.537 0.12883 -7.99896 194.404 0.338911 -7.99282 197.464 0.119585 -7.99911 
1.37363 7.84053 -1.58938 198.798 7.85441 -1.51931 198.624 -7.83998 -1.59207 
1.20174 -7.85441 -1.51931 1.42986 7.84369 1.57369 198.85 7.83618 1.61069 
198.565 -7.84361 1.57412 1.14952 -7.83618 1.61069 1.22544 1.24069 7.90321 
198.728 1.28617 7.89593 198.775 -1.24066 7.90321 1.27183 -1.28617 7.89593 
4.24139 7.9392 -0.984466 8.48651 7.97335 0.652389 12.6396 7.93229 -1.03861 
14.2804 7.87907 -1.38573 16.4506 7.81464 -1.71212 18.4056 7.86847 -1.44469 
20.4683 7.81206 -1.72387 22.4084 7.86808 -1.44685 24.4692 7.81194 -1.72441 
26.412 7.86779 -1.44843 28.2435 7.86427 -1.46737 30.2116 7.86438 -1.46679 
32.4408 7.81181 -1.72498 34.4073 7.86778 -1.44847 36.2427 7.86427 -1.46737 
38.2115 7.86438 -1.46679 40.4403 7.81186 -1.72476 42.4037 7.86806 -1.44695 
44.4686 7.81194 -1.72442 46.4119 7.86779 -1.44843 48.24 7.86455 -1.46589 
50.4444 7.81183 -1.72492 52.4044 7.86805 -1.44699 54.4681 7.81198 -1.72421 
56.4083 7.86807 -1.44691 58.4692 7.81194 -1.72442 60.412 7.86778 -1.44843 
62.2435 7.86427 -1.46737 64.2151 7.86411 -1.46827 66.2069 7.86442 -1.46661 
68.4401 7.81183 -1.72491 70.4072 7.86778 -1.44846 72.2392 7.86455 -1.46589 
74.4448 7.81178 -1.72514 76.4079 7.86777 -1.44851 78.2428 7.86427 -1.46738 
80.2115 7.86438 -1.46679 82.4408 7.81181 -1.72498 84.4073 7.86778 -1.44847 
86.2392 7.86455 -1.46589 88.4448 7.81178 -1.72514 90.4079 7.86777 -1.44851 
92.2428 7.86427 -1.46738 94.2115 7.86438 -1.46679 96.4408 7.81181 -1.72498 
98.4073 7.86778 -1.44847 100.243 7.86427 -1.46737 102.215 7.86411 -1.46826 
104.21 7.86414 -1.46808 106.21 7.86416 -1.468 108.206 7.86444 -1.46651 
110.44 7.81183 -1.72489 112.407 7.86778 -1.44846 114.239 7.86455 -1.46589 
116.444 7.81183 -1.72492 118.404 7.86805 -1.44698 120.468 7.81198 -1.72421 
122.408 7.86807 -1.44691 124.469 7.81199 -1.7242 126.408 7.86807 -1.44691 
128.469 7.81194 -1.72442 130.412 7.86778 -1.44843 132.24 7.86455 -1.46589 
134.445 7.81178 -1.72514 136.408 7.86777 -1.44851 138.239 7.86455 -1.4659 
140.445 7.81178 -1.72514 142.408 7.86777 -1.44851 144.243 7.86427 -1.46738 
146.212 7.86438 -1.46679 148.441 7.81181 -1.72498 150.407 7.86778 -1.44847 
152.239 7.86455 -1.46589 154.444 7.81183 -1.72492 156.404 7.86805 -1.44698 
158.469 7.81194 -1.72443 160.412 7.86778 -1.44843 162.24 7.86455 -1.46589 
164.445 7.81178 -1.72514 166.408 7.86777 -1.44851 168.239 7.86455 -1.4659 
170.445 7.81178 -1.72514 172.408 7.86777 -1.44851 174.239 7.86455 -1.4659 
176.445 7.81178 -1.72514 178.408 7.86777 -1.44851 180.239 7.86455 -1.4659 
182.445 7.81178 -1.72514 184.408 7.86777 -1.44851 186.255 7.86211 -1.47892 
188.145 7.85603 -1.51089 189.985 7.8236 -1.67073 192.499 7.99887 -0.134202 
195.913 7.97808 -0.591757 195.757 -7.93536 -1.01494 191.242 -7.93895 -0.986471 
189.645 -7.88116 -1.37377 187.538 -7.81168 -1.72559 185.599 -7.86939 -1.43971 
183.763 -7.86505 -1.46323 181.556 -7.81189 -1.72463 179.592 -7.86779 -1.4484 
177.761 -7.86455 -1.46588 175.555 -7.81178 -1.72514 173.592 -7.86777 -1.44851 
171.761 -7.86455 -1.4659 169.555 -7.81178 -1.72514 167.592 -7.86777 -1.44851 
165.761 -7.86455 -1.4659 163.556 -7.81183 -1.72492 161.596 -7.86805 -1.44698 
159.531 -7.81194 -1.72443 157.588 -7.86778 -1.44843 155.76 -7.86455 -1.46589 
153.556 -7.81183 -1.72492 151.596 -7.86805 -1.44699 149.532 -7.81198 -1.72421 
147.592 -7.86807 -1.44691 145.531 -7.81194 -1.72442 143.588 -7.86778 -1.44843 
141.76 -7.86455 -1.46589 139.555 -7.81178 -1.72514 137.592 -7.86777 -1.44851 
135.761 -7.86455 -1.4659 133.556 -7.81183 -1.72492 131.596 -7.86805 -1.44698 
129.532 -7.81198 -1.72421 127.592 -7.86807 -1.44691 125.531 -7.81199 -1.7242 
123.592 -7.86807 -1.44691 121.531 -7.81194 -1.72442 119.588 -7.86778 -1.44843 
117.76 -7.86455 -1.46589 115.555 -7.81178 -1.72514 113.592 -7.86777 -1.44851 
111.761 -7.86455 -1.4659 109.556 -7.81183 -1.72492 107.596 -7.86805 -1.44698 
105.532 -7.81198 -1.72421 103.592 -7.86807 -1.44691 101.531 -7.81199 -1.7242 
99.5916 -7.86807 -1.44691 97.5313 -7.81199 -1.7242 95.5916 -7.86807 -1.44691 
93.5308 -7.81194 -1.72442 91.588 -7.86778 -1.44843 89.76 -7.86455 -1.46589 
87.5556 -7.81183 -1.72492 85.5956 -7.86805 -1.44699 83.5319 -7.81198 -1.72421 
81.5917 -7.86807 -1.44691 79.5308 -7.81194 -1.72442 77.588 -7.86778 -1.44843 
75.76 -7.86455 -1.46589 73.5551 -7.81178 -1.72514 71.5921 -7.86777 -1.44851 
69.7607 -7.86455 -1.4659 67.5557 -7.81183 -1.72492 65.5956 -7.86805 -1.44698 
63.5319 -7.81198 -1.72421 61.5917 -7.86807 -1.44691 59.5313 -7.81199 -1.7242 
57.5916 -7.86807 -1.44691 55.5308 -7.81194 -1.72442 53.588 -7.86778 -1.44843 
51.76 -7.86455 -1.46589 49.5556 -7.81183 -1.72492 47.5956 -7.86805 -1.44699 
45.5319 -7.81198 -1.72421 43.5917 -7.86807 -1.44691 41.5313 -7.81199 -1.7242 
39.5916 -7.86807 -1.44691 37.5313 -7.81199 -1.7242 35.5916 -7.86807 -1.44691 
33.5313 -7.81199 -1.7242 31.5916 -7.86807 -1.44691 29.5313 -7.81199 -1.7242 
27.5916 -7.86807 -1.44691 25.5313 -7.81199 -1.7242 23.5916 -7.86807 -1.44691 
21.5313 -7.81199 -1.7242 19.5916 -7.86807 -1.44691 17.5313 -7.81199 -1.7242 
15.5916 -7.86807 -1.44691 13.5209 -7.80985 -1.73385 11.6593 -7.86252 -1.47676 
9.94492 -7.82417 -1.66804 7.50021 -7.99887 -0.134445 4.087 -7.97808 -0.591757 
5.72073 7.99742 -0.203126 10.0668 7.9771 0.604899 194.086 7.99334 -0.326375 
194.197 -7.9945 -0.296547 5.91402 -7.99334 -0.326417 197.454 7.17722 3.53378 
2.54571 -7.17722 3.53378 198.729 7.2266 -3.43166 198.397 -7.18971 -3.50829 
1.27111 -7.2266 -3.43166 1.60325 7.1897 -3.5083 199.05 7.99974 0.0638914 
198.905 -8 -0.00825309 0.950041 -7.99974 0.0638913 1.09103 8 -0.00648474 
198.809 -9.79717e-16 -8 1.19131 -9.79717e-16 -8 2.473 5.34753 -5.95012 
2.86695 -5.42138 -5.88291 197.133 5.42138 -5.88291 197.527 -5.34753 -5.95012 
3.9039 6.45737 -4.72254 3.91942 -6.43731 -4.74984 196.081 6.43731 -4.74984 
196.096 -6.45737 -4.72254 5.34348 5.10198 6.16197 194.57 -5.06841 6.1896 
195.213 4.61656 6.53355 4.78733 -4.61656 6.53355 3.68165 6.93413 3.98972 
196.207 6.79381 4.22423 196.321 -6.92264 4.00962 3.79337 -6.79381 4.22423 
4.42608 -5.26103 -6.02674 195.574 5.26103 -6.02674 194.457 6.13497 5.13441 
5.54286 -6.13497 5.13441 5.31501 -6.80134 -4.2121 194.685 6.80134 -4.2121 
7.62557 6.03696 5.2493 9.45805 5.75323 5.5588 11.263 5.70671 5.60656 
13.2099 5.69296 5.62052 15.1919 5.68717 5.62637 17.1876 5.68571 5.62785 
19.1867 5.6854 5.62816 21.1866 5.68534 5.62822 23.1865 5.68533 5.62824 
25.1865 5.68533 5.62824 27.1865 5.68533 5.62824 29.1865 5.68533 5.62824 
31.1865 5.68533 5.62824 33.1865 5.68533 5.62824 35.1865 5.68533 5.62824 
37.1865 5.68533 5.62824 39.1865 5.68533 5.62824 41.1865 5.68533 5.62824 
43.1865 5.68533 5.62824 45.1865 5.68533 5.62824 47.1865 5.68533 5.62824 
49.1865 5.68533 5.62824 51.1865 5.68533 5.62824 53.1865 5.68533 5.62824 
55.1865 5.68533 5.62824 57.1865 5.68533 5.62824 59.1865 5.68533 5.62824 
61.1865 5.68533 5.62824 63.1865 5.68533 5.62824 65.1865 5.68533 5.62824 
67.1865 5.68533 5.62824 69.1865 5.68533 5.62824 71.1865 5.68533 5.62824 
73.1865 5.68533 5.62824 75.1865 5.68533 5.62824 77.1865 5.68533 5.62824 
79.1865 5.68533 5.62824 81.1865 5.68533 5.62824 83.1865 5.68533 5.62824 
85.1865 5.68533 5.62824 87.1865 5.68533 5.62824 89.1865 5.68533 5.62824 
91.1865 5.68533 5.62824 93.1865 5.68533 5.62824 95.1865 5.68533 5.62824 
97.1865 5.68533 5.62824 99.1865 5.68533 5.62824 101.187 5.68533 5.62824 
103.187 5.68533 5.62824 105.187 5.68533 5.62824 107.187 5.68533 5.62824 
109.187 5.68533 5.62824 111.187 5.68533 5.62824 113.187 5.68533 5.62824 
115.187 5.68533 5.62824 117.187 5.68533 5.62824 119.187 5.68533 5.62824 
121.187 5.68533 5.62824 123.187 5.68533 5.62824 125.187 5.68533 5.62824 
127.187 5.68533 5.62824 129.187 5.68533 5.62824 131.187 5.68533 5.62824 
133.187 5.68533 5.62824 135.187 5.68533 5.62824 137.187 5.68533 5.62824 
139.187 5.68533 5.62824 141.187 5.68533 5.62824 143.187 5.68533 5.62824 
145.187 5.68533 5.62824 147.187 5.68533 5.62824 149.187 5.68533 5.62824 
151.187 5.68533 5.62824 153.187 5.68533 5.62824 155.187 5.68533 5.62824 
157.187 5.68533 5.62824 159.187 5.68533 5.62824 161.187 5.68533 5.62824 
163.187 5.68533 5.62824 165.187 5.68533 5.62824 167.187 5.68533 5.62824 
169.187 5.68533 5.62824 171.187 5.68533 5.62824 173.187 5.68533 5.62824 
175.187 5.68533 5.62824 177.187 5.68533 5.62824 179.187 5.68533 5.62824 
181.187 5.68533 5.62824 183.187 5.68533 5.62824 185.187 5.68533 5.62824 
187.19 5.68766 5.62588 189.399 5.62983 5.68375 191.868 6.03671 5.24958 
192.514 -5.97409 5.32074 190.731 -5.73066 5.58207 188.789 -5.69744 5.61597 
186.806 -5.69065 5.62286 184.812 -5.68668 5.62687 182.813 -5.68562 5.62794 
180.813 -5.68538 5.62818 178.813 -5.68534 5.62823 176.813 -5.68533 5.62824 
174.813 -5.68533 5.62824 172.813 -5.68533 5.62824 170.813 -5.68533 5.62824 
168.813 -5.68533 5.62824 166.813 -5.68533 5.62824 164.813 -5.68533 5.62824 
162.813 -5.68533 5.62824 160.813 -5.68533 5.62824 158.813 -5.68533 5.62824 
156.813 -5.68533 5.62824 154.813 -5.68533 5.62824 152.813 -5.68533 5.62824 
150.813 -5.68533 5.62824 148.813 -5.68533 5.62824 146.813 -5.68533 5.62824 
144.813 -5.68533 5.62824 142.813 -5.68533 5.62824 140.813 -5.68533 5.62824 
138.813 -5.68533 5.62824 136.813 -5.68533 5.62824 134.813 -5.68533 5.62824 
132.813 -5.68533 5.62824 130.813 -5.68533 5.62824 128.813 -5.68533 5.62824 
126.813 -5.68533 5.62824 124.813 -5.68533 5.62824 122.813 -5.68533 5.62824 
120.813 -5.68533 5.62824 118.813 -5.68533 5.62824 116.813 -5.68533 5.62824 
114.813 -5.68533 5.62824 112.813 -5.68533 5.62824 110.813 -5.68533 5.62824 
108.813 -5.68533 5.62824 106.813 -5.68533 5.62824 104.813 -5.68533 5.62824 
102.813 -5.68533 5.62824 100.813 -5.68533 5.62824 98.8135 -5.68533 5.62824 
96.8135 -5.68533 5.62824 94.8135 -5.68533 5.62824 92.8135 -5.68533 5.62824 
90.8135 -5.68533 5.62824 88.8135 -5.68533 5.62824 86.8135 -5.68533 5.62824 
84.8135 -5.68533 5.62824 82.8135 -5.68533 5.62824 80.8135 -5.68533 5.62824 
78.8135 -5.68533 5.62824 76.8135 -5.68533 5.62824 74.8135 -5.68533 5.62824 
72.8135 -5.68533 5.62824 70.8135 -5.68533 5.62824 68.8135 -5.68533 5.62824 
66.8135 -5.68533 5.62824 64.8135 -5.68533 5.62824 62.8135 -5.68533 5.62824 
60.8135 -5.68533 5.62824 58.8135 -5.68533 5.62824 56.8135 -5.68533 5.62824 
54.8135 -5.68533 5.62824 52.8135 -5.68533 5.62824 50.8135 -5.68533 5.62824 
48.8135 -5.68533 5.62824 46.8135 -5.68533 5.62824 44.8135 -5.68533 5.62824 
42.8135 -5.68533 5.62824 40.8135 -5.68533 5.62824 38.8135 -5.68533 5.62824 
36.8135 -5.68533 5.62824 34.8135 -5.68533 5.62824 32.8135 -5.68533 5.62824 
30.8135 -5.68533 5.62824 28.8135 -5.68533 5.62824 26.8135 -5.68533 5.62824 
24.8135 -5.68533 5.62824 22.8135 -5.68533 5.62824 20.8135 -5.68533 5.62824 
18.8135 -5.68533 5.62824 16.8135 -5.68533 5.62824 14.8135 -5.68533 5.62824 
12.8104 -5.68766 5.62588 10.6008 -5.62983 5.68375 8.13206 -6.03674 5.24955 
6.54794 5.21489 6.06671 193.48 -5.17825 6.09801 196.158 5.6684 5.64529 
3.84198 -5.6684 5.64529 6.16261 -5.32471 -5.97055 193.837 5.32496 -5.97033 
4.08871 5.53822 5.77305 5.88154 6.53784 4.61049 195.911 -5.53269 5.77835 
194.155 -6.48859 4.67956 6.68283 -6.67475 -4.40995 10.953 -5.91059 -5.39119 
8.57692 -4.66125 -6.50175 12.5915 -5.87522 -5.42972 14.9903 -6.00223 -5.28897 
18.9913 6.00063 -5.29078 18.9891 -6.00005 -5.29144 17.4001 5.8667 -5.43892 
16.5999 -5.8667 -5.43892 22.9938 5.99967 -5.29188 22.9875 -6.00076 -5.29064 
21.4001 5.8667 -5.43892 20.5999 -5.8667 -5.43892 27.4262 5.77739 -5.53369 
26.9875 -6.00079 -5.2906 25.4237 5.85974 -5.44642 24.5999 -5.8667 -5.43892 
29.226 5.76942 -5.542 28.5999 -5.8667 -5.43892 30.9031 5.97997 -5.31413 
30.9866 -6.00123 -5.29011 35.4236 5.77717 -5.53392 34.989 -6.00005 -5.29145 
33.4237 5.85974 -5.44642 32.5999 -5.8667 -5.43892 37.2246 5.76954 -5.54188 
36.5999 -5.8667 -5.43892 38.9015 5.98045 -5.31359 38.9867 -6.0012 -5.29014 
42.9932 5.99998 -5.29153 42.989 -6.00004 -5.29145 41.4001 5.8667 -5.43892 
40.5999 -5.8667 -5.43892 47.2631 5.80711 -5.5025 46.9878 -6.00081 -5.29058 
45.4237 5.85974 -5.44642 44.5999 -5.8667 -5.43892 48.9156 5.96948 -5.32591 
48.5999 -5.8667 -5.43892 52.9917 6.00036 -5.2911 52.7157 -5.80919 -5.5003 
51.4001 5.8667 -5.43892 51.0651 -5.97583 -5.31879 56.9938 5.99966 -5.29189 
56.9851 -5.99932 -5.29227 55.4001 5.8667 -5.43892 54.5763 -5.85974 -5.44642 
61.4758 5.77674 -5.53437 60.9874 -6.00076 -5.29064 59.4237 5.85974 -5.44642 
58.5999 -5.8667 -5.43892 63.3843 5.74141 -5.57101 62.5999 -5.8667 -5.43892 
65.199 5.75904 -5.55279 64.9869 -6.00128 -5.29005 66.9006 5.98205 -5.31178 
66.5999 -5.8667 -5.43892 71.2629 5.80737 -5.50222 70.7165 -5.80886 -5.50065 
69.4237 5.85974 -5.44642 69.0667 -5.97507 -5.31964 72.917 5.96906 -5.32638 
72.5763 -5.85974 -5.44642 77.4242 5.77703 -5.53407 76.715 -5.80871 -5.5008 
75.4237 5.85974 -5.44642 75.0627 -5.97433 -5.32047 79.2253 5.76935 -5.54208 
78.5763 -5.85974 -5.44642 80.9031 5.97998 -5.31412 80.9842 -5.99975 -5.29178 
85.2629 5.80735 -5.50224 84.9892 -6.00007 -5.29143 83.4237 5.85974 -5.44642 
82.5999 -5.8667 -5.43892 86.917 5.96906 -5.32638 86.5999 -5.8667 -5.43892 
91.4242 5.77703 -5.53407 90.7157 -5.80918 -5.50031 89.4237 5.85974 -5.44642 
89.0652 -5.9758 -5.31882 93.2253 5.76935 -5.54208 92.5763 -5.85974 -5.44642 
94.9031 5.97998 -5.31412 94.9842 -5.99976 -5.29178 99.4904 5.7776 -5.53348 
98.9889 -6.00002 -5.29148 97.4237 5.85974 -5.44642 96.5999 -5.8667 -5.43892 
101.456 5.74217 -5.57023 100.6 -5.8667 -5.43892 103.417 5.72979 -5.58297 
102.987 -6.0012 -5.29014 105.35 5.72647 -5.58637 104.6 -5.8667 -5.43892 
107.183 5.75483 -5.55715 106.988 -6.00052 -5.29091 108.9 5.9825 -5.31128 
108.6 -5.8667 -5.43892 113.263 5.80747 -5.50212 112.717 -5.80885 -5.50067 
111.424 5.85974 -5.44642 111.067 -5.97502 -5.31969 114.915 5.96953 -5.32585 
114.576 -5.85974 -5.44642 118.992 6.00036 -5.2911 118.715 -5.80871 -5.5008 
117.4 5.8667 -5.43892 117.063 -5.97433 -5.32047 122.992 6.00012 -5.29137 
122.985 -5.99932 -5.29228 121.4 5.8667 -5.43892 120.576 -5.85974 -5.44642 
126.994 5.99966 -5.29189 126.987 -6.00076 -5.29064 125.4 5.8667 -5.43892 
124.6 -5.8667 -5.43892 131.263 5.80701 -5.5026 130.988 -6.00084 -5.29055 
129.424 5.85974 -5.44642 128.6 -5.8667 -5.43892 132.917 5.96901 -5.32644 
132.6 -5.8667 -5.43892 137.263 5.80727 -5.50233 136.716 -5.80924 -5.50025 
135.424 5.85974 -5.44642 135.065 -5.97583 -5.31878 138.917 5.96904 -5.3264 
138.576 -5.85974 -5.44642 143.424 5.77703 -5.53407 142.715 -5.80872 -5.5008 
141.424 5.85974 -5.44642 141.063 -5.97434 -5.32046 145.225 5.76935 -5.54208 
144.576 -5.85974 -5.44642 146.903 5.97998 -5.31412 146.984 -5.99975 -5.29178 
151.263 5.80744 -5.50215 150.989 -6.00007 -5.29143 149.424 5.85974 -5.44642 
148.6 -5.8667 -5.43892 152.915 5.96953 -5.32586 152.6 -5.8667 -5.43892 
156.993 5.9999 -5.29162 156.716 -5.80918 -5.50031 155.4 5.8667 -5.43892 
155.065 -5.9758 -5.31882 161.263 5.80702 -5.50259 160.985 -5.99937 -5.29222 
159.424 5.85974 -5.44642 158.576 -5.85974 -5.44642 162.917 5.96901 -5.32644 
162.6 -5.8667 -5.43892 167.263 5.80727 -5.50233 166.716 -5.80923 -5.50026 
165.424 5.85974 -5.44642 165.065 -5.9758 -5.31881 168.917 5.96904 -5.3264 
168.576 -5.85974 -5.44642 173.263 5.80727 -5.50233 172.715 -5.80876 -5.50075 
171.424 5.85974 -5.44642 171.063 -5.97434 -5.32046 174.917 5.96904 -5.3264 
174.576 -5.85974 -5.44642 179.263 5.80727 -5.50233 178.715 -5.80876 -5.50075 
177.424 5.85974 -5.44642 177.063 -5.97434 -5.32046 180.917 5.96904 -5.3264 
180.576 -5.85974 -5.44642 185.452 5.78746 -5.52316 184.748 -5.81987 -5.489 
183.424 5.85974 -5.44642 183.063 -5.97447 -5.32031 187.274 5.78105 -5.52987 
186.705 -5.9165 -5.38471 191.423 4.66125 -6.50175 188.943 5.87807 -5.42663 
193.317 6.67475 -4.40995 5.08682 7.01372 -3.84807 194.936 -7.01167 -3.85182 
7.05444 4.65124 -6.50892 192.912 -4.66793 -6.49696 8.78106 5.77564 -5.53552 
7.79909 -6.0928 -5.18438 10.8242 5.9764 -5.31814 13.0664 5.83614 -5.4717 
14.8326 6.00961 -5.28058 13.8269 -6.27476 -4.96259 16.0801 6.27739 -4.95927 
17.828 -6.27079 -4.96761 20.1578 6.27137 -4.96688 21.8263 -6.27153 -4.96668 
24.1667 6.26883 -4.97008 25.8262 -6.27156 -4.96664 29.825 -6.27214 -4.96591 
32.1137 6.26068 -4.98035 33.8279 -6.27078 -4.96763 37.825 -6.2721 -4.96596 
40.1053 6.26294 -4.97751 41.8279 -6.27078 -4.96763 44.1661 6.26894 -4.96995 
45.8267 -6.27155 -4.96666 50.1138 6.26063 -4.98042 49.8686 -6.26313 -4.97727 
54.1579 6.27116 -4.96714 55.817 -6.26817 -4.97092 58.1667 6.26883 -4.97009 
59.8262 -6.27153 -4.96668 63.8254 -6.27216 -4.96589 68.1122 6.26125 -4.97963 
67.8703 -6.26235 -4.97825 74.122 6.25839 -4.98323 73.8594 -6.25972 -4.98155 
79.8158 -6.26874 -4.9702 82.1137 6.26068 -4.98035 83.8282 -6.27077 -4.96764 
88.122 6.25838 -4.98323 87.8687 -6.2631 -4.97731 93.8158 -6.26875 -4.97019 
96.1137 6.26068 -4.98035 97.8278 -6.27075 -4.96767 101.825 -6.2721 -4.96596 
105.827 -6.27137 -4.96688 110.112 6.26139 -4.97945 109.87 -6.26229 -4.97832 
116.114 6.26064 -4.98039 115.859 -6.25972 -4.98155 120.158 6.27116 -4.96714 
121.817 -6.26817 -4.97093 124.158 6.27108 -4.96725 125.826 -6.27153 -4.96668 
128.167 6.26883 -4.97009 129.827 -6.27158 -4.96661 134.122 6.25837 -4.98326 
133.869 -6.26313 -4.97726 140.122 6.25838 -4.98324 139.859 -6.25973 -4.98154 
145.816 -6.26874 -4.9702 148.114 6.26068 -4.98035 149.828 -6.27077 -4.96764 
154.114 6.26064 -4.9804 153.869 -6.2631 -4.97731 158.166 6.26891 -4.96998 
159.817 -6.26819 -4.97089 164.122 6.25837 -4.98326 163.869 -6.2631 -4.9773 
170.122 6.25838 -4.98324 169.859 -6.25973 -4.98154 176.122 6.25838 -4.98324 
175.859 -6.25973 -4.98154 182.122 6.25838 -4.98324 181.86 -6.25986 -4.98138 
188.886 -6.16996 -5.09231 192.2 6.09434 -5.18256 191.278 -5.84678 -5.46033 
2.91348 4.60798 6.53961 196.854 4.51769 6.60231 197.063 -4.60044 6.54492 
3.14584 -4.51769 6.60231 1.59154 4.24922 6.77821 198.424 4.24878 6.77849 
198.408 -4.24903 6.77833 1.57625 -4.24878 6.77849 198.71 4.66504 -6.49903 
198.66 -4.60353 -6.54274 1.28951 -4.66504 -6.49903 1.3385 4.60299 -6.54313 
2.65165 7.99998 -0.0164159 197.601 7.9968 0.226248 197.338 -7.99997 -0.0229521 
2.39895 -7.9968 0.226247 2.19321 -3.7172 -7.08396 197.807 3.7172 -7.08396 
2.75265 1.56493 7.84544 197.053 1.76722 7.80237 197.219 -1.5609 7.84625 
2.94699 -1.76722 7.80237 2.01205 5.88256 5.42176 197.979 6.02815 5.25941 
197.988 -5.87934 5.42525 2.02108 -6.02815 5.25941 1.7045 7.23642 3.41089 
198.682 7.27191 3.33457 198.296 -7.23395 3.41614 1.31757 -7.27191 3.33457 
198.797 2.95594 -7.43387 198.615 -2.93699 -7.44138 1.20313 -2.95594 -7.43387 
1.38319 2.93637 -7.44162 2.89582 7.7314 -2.0556 197.41 7.73918 -2.02611 
197.104 -7.72929 -2.0635 2.59034 -7.73918 -2.02611 197.741 7.69999 2.17031 
2.25854 -7.69999 2.17031 1.22379 6.09537 -5.18135 198.667 6.09863 -5.17752 
198.776 -6.09537 -5.18135 1.33288 -6.09863 -5.17752 198.762 1.2238 -7.90584 
198.692 -1.32152 -7.89009 1.3083 1.32152 -7.89009 1.23814 -1.22381 -7.90584 
5.94547 3.91319 6.9776 193.578 -3.85228 7.01141 194.48 3.49188 7.19769 
5.51988 -3.49188 7.19769 10.9452 7.5426 2.66631 12.8087 7.55572 2.62889 
14.9172 7.61487 2.45229 17.065 7.49309 2.80243 19.0885 7.46304 2.88149 
21.1124 7.44141 2.93692 23.1364 7.43578 2.95112 25.1348 7.43256 2.95923 
27.1318 7.43326 2.95748 29.1308 7.43448 2.95439 31.1323 7.43494 2.95324 
33.1343 7.43581 2.95104 35.1349 7.43643 2.9495 37.1355 7.43613 2.95026 
39.1342 7.43559 2.95162 41.1393 7.43535 2.9522 43.1385 7.4335 2.95686 
45.1298 7.43172 2.96135 47.1273 7.43161 2.96161 49.1261 7.43053 2.96433 
51.1197 7.42872 2.96887 53.112 7.42724 2.97257 55.1111 7.42699 2.97319 
57.111 7.42674 2.9738 59.1187 7.42733 2.97233 61.111 7.4278 2.97116 
63.1138 7.43188 2.96094 65.1209 7.4342 2.95512 67.1273 7.43477 2.95368 
69.1295 7.43473 2.95377 71.1352 7.43518 2.95264 73.1334 7.43389 2.9559 
75.1266 7.43279 2.95866 77.1286 7.43438 2.95464 79.1296 7.43498 2.95315 
81.1299 7.43525 2.95246 83.1099 7.4348 2.9536 85.1028 7.43133 2.96233 
87.1019 7.4313 2.9624 89.113 7.42979 2.96619 91.1105 7.42905 2.96802 
93.1171 7.43229 2.95992 95.1206 7.43391 2.95583 97.1222 7.43429 2.95488 
99.1229 7.43459 2.95412 101.127 7.43715 2.94769 103.126 7.4385 2.94427 
105.129 7.43952 2.94169 107.129 7.43768 2.94633 109.127 7.43465 2.95396 
111.123 7.43223 2.96006 113.124 7.43154 2.9618 115.125 7.43045 2.96451 
117.119 7.4287 2.96892 119.112 7.42723 2.97257 121.111 7.42701 2.97313 
123.111 7.42683 2.97359 125.111 7.42678 2.97371 127.111 7.42665 2.97403 
129.109 7.42589 2.97594 131.106 7.42513 2.97783 133.105 7.42552 2.97686 
135.106 7.42557 2.97674 137.105 7.42506 2.978 139.105 7.42558 2.9767 
141.115 7.42776 2.97127 143.111 7.42798 2.97071 145.121 7.43153 2.96182 
147.126 7.43412 2.95532 149.11 7.4348 2.9536 151.103 7.43133 2.96233 
153.102 7.43139 2.96218 155.115 7.4299 2.96591 157.13 7.4307 2.9639 
159.13 7.42961 2.96662 161.13 7.4302 2.96516 163.128 7.43035 2.96477 
165.126 7.43081 2.96363 167.125 7.43083 2.96357 169.125 7.43035 2.96477 
171.126 7.43085 2.96353 173.125 7.43083 2.96357 175.125 7.43034 2.96479 
177.126 7.43087 2.96347 179.125 7.43104 2.96306 181.127 7.43205 2.96051 
183.126 7.43443 2.95453 185.119 7.44307 2.93269 187.077 7.46821 2.86808 
188.923 7.57583 2.57036 189.073 -7.60946 2.46902 186.934 -7.49106 2.80786 
184.916 -7.46089 2.88705 182.896 -7.43917 2.94257 180.888 -7.43118 2.96269 
178.878 -7.43143 2.96206 176.876 -7.43082 2.96359 174.874 -7.43107 2.96296 
172.875 -7.43096 2.96324 170.875 -7.43043 2.96457 168.874 -7.43089 2.96343 
166.875 -7.43089 2.96343 164.875 -7.43 2.96566 162.88 -7.42837 2.96974 
160.89 -7.42675 2.97378 158.891 -7.4259 2.9759 156.894 -7.42515 2.97776 
154.894 -7.42566 2.9765 152.892 -7.42645 2.97453 150.89 -7.42671 2.97388 
148.889 -7.42675 2.97378 146.889 -7.42665 2.97404 144.891 -7.42588 2.97596 
142.894 -7.42513 2.97783 140.895 -7.42552 2.97686 138.894 -7.42557 2.97674 
136.895 -7.42507 2.97797 134.895 -7.42564 2.97655 132.892 -7.42645 2.97454 
130.89 -7.42671 2.97387 128.889 -7.42674 2.9738 126.889 -7.42675 2.97379 
124.889 -7.42673 2.97382 122.889 -7.42665 2.97403 120.891 -7.42588 2.97596 
118.894 -7.42513 2.97783 116.895 -7.42552 2.97686 114.894 -7.42557 2.97674 
112.895 -7.42507 2.97797 110.895 -7.42564 2.97655 108.892 -7.42645 2.97454 
106.89 -7.42671 2.97387 104.889 -7.42675 2.97379 102.889 -7.42675 2.97379 
100.889 -7.42675 2.97378 98.8887 -7.42675 2.97379 96.8888 -7.42673 2.97382 
94.8891 -7.42665 2.97403 92.8909 -7.42588 2.97595 90.894 -7.42515 2.97777 
88.8944 -7.42566 2.9765 86.892 -7.42645 2.97453 84.8899 -7.42671 2.97388 
82.8891 -7.42675 2.97378 80.8891 -7.42665 2.97404 78.8909 -7.42588 2.97596 
76.894 -7.42513 2.97783 74.8948 -7.42552 2.97686 72.8941 -7.42557 2.97674 
70.8951 -7.42507 2.97797 68.8948 -7.42564 2.97655 66.892 -7.42645 2.97454 
64.8899 -7.42671 2.97387 62.889 -7.42674 2.9738 60.8888 -7.42675 2.97379 
58.8888 -7.42673 2.97382 56.8891 -7.42665 2.97403 54.8909 -7.42588 2.97595 
52.894 -7.42515 2.97777 50.8944 -7.42566 2.9765 48.892 -7.42645 2.97453 
46.8899 -7.42672 2.97387 44.889 -7.42675 2.97379 42.8888 -7.42675 2.97379 
40.8887 -7.42675 2.97378 38.8887 -7.42675 2.97378 36.8887 -7.42675 2.97378 
34.8887 -7.42675 2.97378 32.8887 -7.42675 2.97378 30.8887 -7.42675 2.97378 
28.8887 -7.42675 2.97378 26.8887 -7.42675 2.97378 24.8887 -7.42675 2.97378 
22.8887 -7.42676 2.97375 20.8887 -7.42682 2.97362 18.8887 -7.42713 2.97284 
16.8884 -7.42894 2.9683 14.896 -7.43906 2.94284 12.9143 -7.4705 2.86211 
11.0776 -7.57617 2.56938 6.49751 7.56987 2.58786 193.322 -7.521 2.72663 
3.53369 -3.62928 -7.1294 196.466 3.62928 -7.1294 193.374 7.79857 1.78389 
6.62558 -7.79859 1.78383 9.13965 7.52825 2.70654 190.491 7.73141 2.05555 
191.434 -7.50857 2.76067 9.50891 -7.73147 2.05531 4.25375 3.94355 6.96049 
195.61 -3.90824 6.98037 7.4188 -4.68485 -6.48476 192.581 4.68485 -6.48476 
6.73174 2.71683 -7.52455 193.076 -2.79677 -7.4952 193.036 3.03395 7.40238 
6.96351 -3.03395 7.40238 8.75978 3.25901 7.30608 191.799 -3.34347 7.26782 
190 3.88781 6.99177 191.717 4.23005 6.79019 10.0002 -3.88781 6.99177 
8.28326 -4.23006 6.79018 194.815 7.39165 3.05999 5.18523 -7.39165 3.05998 
7.987 7.08378 -3.71754 192.136 -7.06809 -3.74728 191.811 7.32674 3.2123 
8.18935 -7.32676 3.21227 193.265 7.06379 3.75538 6.73502 -7.0638 3.75535 
194.74 1.83059 7.78774 5.25976 -1.83059 7.78774 5.14949 2.36479 7.6425 
194.617 -2.28155 7.66776 8.17204 3.24731 -7.31129 191.518 -3.36028 -7.26006 
5.11809 -3.69998 -7.09297 194.882 3.69998 -7.09297 190.772 7.13981 -3.60875 
9.18289 -7.13555 -3.61717 9.37976 7.55751 -2.62376 17.7321 7.46354 -2.8802 
21.7364 7.46231 -2.8834 25.7496 7.46022 -2.88878 33.7429 7.46037 -2.88842 
41.7298 7.46242 -2.88311 45.7494 7.46022 -2.88878 51.7307 7.46238 -2.88321 
55.7363 7.46228 -2.88348 59.7496 7.46022 -2.88878 69.7427 7.46037 -2.88839 
75.7438 7.46033 -2.88851 83.7429 7.46037 -2.88842 89.7438 7.46033 -2.88851 
97.7429 7.46037 -2.88842 111.743 7.46038 -2.88839 117.731 7.46238 -2.88321 
121.736 7.46228 -2.88348 125.736 7.46228 -2.88347 129.75 7.46022 -2.88878 
135.744 7.46033 -2.88851 141.744 7.46033 -2.88851 149.743 7.46037 -2.88842 
155.731 7.46238 -2.88321 159.749 7.46022 -2.88878 165.744 7.46033 -2.88851 
171.744 7.46033 -2.88851 177.744 7.46033 -2.88851 183.744 7.46033 -2.88851 
186.259 -7.46043 -2.88824 180.256 -7.46037 -2.8884 174.256 -7.46033 -2.88851 
168.256 -7.46033 -2.88851 162.269 -7.46238 -2.88321 158.251 -7.46022 -2.88878 
152.269 -7.46238 -2.88321 148.264 -7.46228 -2.88348 144.25 -7.46022 -2.88878 
138.256 -7.46033 -2.88851 132.269 -7.46238 -2.88321 128.264 -7.46228 -2.88348 
124.264 -7.46228 -2.88347 120.25 -7.46022 -2.88878 114.256 -7.46033 -2.88851 
108.269 -7.46238 -2.88321 104.264 -7.46228 -2.88348 100.264 -7.46228 -2.88347 
96.2635 -7.46228 -2.88347 92.2504 -7.46022 -2.88878 86.2693 -7.46238 -2.88321 
82.2637 -7.46228 -2.88348 78.2504 -7.46022 -2.88878 72.2561 -7.46033 -2.88851 
66.2693 -7.46238 -2.88321 62.2637 -7.46228 -2.88348 58.2635 -7.46228 -2.88347 
54.2504 -7.46022 -2.88878 48.2693 -7.46238 -2.88321 44.2637 -7.46228 -2.88348 
40.2635 -7.46228 -2.88347 36.2635 -7.46228 -2.88347 32.2635 -7.46228 -2.88347 
28.2635 -7.46228 -2.88347 24.2635 -7.46228 -2.88347 20.2635 -7.46228 -2.88347 
16.2635 -7.46228 -2.88347 12.2713 -7.45753 -2.89572 8.17473 -3.22306 -7.32201 
191.825 3.22306 -7.32201 197.306 6.8777 -4.08623 2.69441 -6.8777 -4.08623 
2.53503 6.72717 -4.32957 197.465 -6.72717 -4.32957 9.94889 2.76205 -7.50807 
12.0163 2.96372 -7.43077 14.053 2.98651 -7.42164 16.0733 3.03604 -7.40152 
18.0941 3.04429 -7.39813 20.1011 3.04308 -7.39863 22.1035 3.04245 -7.39889 
24.1095 3.04201 -7.39907 26.1058 3.07251 -7.38645 28.0988 3.03171 -7.40329 
30.0927 2.99175 -7.41953 32.0964 3.033 -7.40276 34.1016 3.07324 -7.38615 
36.0977 3.03221 -7.40309 38.0919 2.9919 -7.41947 40.0901 3.0333 -7.40264 
42.0997 3.04298 -7.39867 44.1086 3.04245 -7.39888 46.1013 3.07263 -7.3864 
48.1029 3.00078 -7.41588 50.0941 3.03268 -7.4029 52.1002 3.04228 -7.39895 
54.1026 3.04251 -7.39886 56.1038 3.04232 -7.39894 58.1096 3.04198 -7.39908 
60.1059 3.0725 -7.38646 62.1031 3.03171 -7.40329 64.088 3.02273 -7.40696 
66.0887 2.99242 -7.41926 68.0953 3.03381 -7.40243 70.0971 3.07352 -7.38603 
72.1024 3.00132 -7.41567 74.1 3.03256 -7.40294 76.1026 3.07258 -7.38642 
78.098 3.032 -7.40317 80.0925 2.99185 -7.41949 82.0964 3.03302 -7.40276 
84.0973 3.07325 -7.38615 86.1024 3.00125 -7.41569 88.1 3.03254 -7.40295 
90.1026 3.07258 -7.38642 92.098 3.032 -7.40317 94.0925 2.99185 -7.41949 
96.0964 3.03302 -7.40276 98.1016 3.07325 -7.38615 100.102 3.03221 -7.40309 
102.092 3.02287 -7.4069 104.088 3.02343 -7.40668 106.083 3.02424 -7.40635 
108.087 2.99357 -7.4188 110.095 3.0342 -7.40227 112.097 3.07362 -7.38599 
114.102 3.00134 -7.41566 116.094 3.03283 -7.40283 118.1 3.04232 -7.39894 
120.103 3.04252 -7.39886 122.103 3.04232 -7.39894 124.103 3.04225 -7.39897 
126.104 3.04224 -7.39897 128.11 3.04196 -7.39909 130.102 3.0725 -7.38646 
132.103 3.00075 -7.4159 134.1 3.0324 -7.40301 136.098 3.07255 -7.38644 
138.103 3.00103 -7.41578 140.1 3.03249 -7.40297 142.103 3.07257 -7.38643 
144.098 3.032 -7.40318 146.092 2.99185 -7.41949 148.096 3.03302 -7.40276 
150.097 3.07325 -7.38615 152.102 3.00125 -7.41569 154.094 3.03281 -7.40284 
156.101 3.04231 -7.39894 158.109 3.04224 -7.39897 160.101 3.07259 -7.38642 
162.103 3.00077 -7.41589 164.1 3.0324 -7.40301 166.098 3.07255 -7.38644 
168.103 3.00103 -7.41578 170.1 3.03249 -7.40297 172.098 3.07257 -7.38643 
174.103 3.00103 -7.41578 176.1 3.03249 -7.40297 178.098 3.07257 -7.38643 
180.103 3.00104 -7.41578 182.1 3.03249 -7.40297 184.134 3.07321 -7.38616 
186.141 3.05095 -7.39538 189.82 -3.09951 -7.37516 11.8954 -3.15804 -7.35029 
9.95097 -3.31934 -7.27887 13.8379 -3.10774 -7.3717 15.8225 -3.0507 -7.39549 
19.8063 -3.00558 -7.41394 17.8331 -3.06888 -7.38796 23.8052 -3.00671 -7.41348 
21.8269 -3.06359 -7.39016 27.8096 -3.04509 -7.3978 25.8329 -3.0702 -7.38741 
29.8137 -3.07925 -7.38364 31.8176 -3.04476 -7.39793 35.8112 -3.04397 -7.39826 
33.8383 -3.07416 -7.38577 37.814 -3.07902 -7.38374 39.8171 -3.04472 -7.39795 
43.8068 -3.00558 -7.41394 41.832 -3.06777 -7.38842 47.8055 -3.04707 -7.39698 
45.8325 -3.0703 -7.38737 49.823 -3.04665 -7.39716 53.8004 -2.99626 -7.41771 
51.8289 -3.02164 -7.40741 57.805 -3.00644 -7.41359 55.8244 -3.06035 -7.3915 
61.8095 -3.04509 -7.3978 59.8328 -3.07012 -7.38745 63.818 -3.07925 -7.38365 
65.8183 -3.08488 -7.3813 67.8292 -3.05049 -7.39558 71.8016 -3.03645 -7.40135 
69.8363 -3.02848 -7.40461 73.8215 -3.04318 -7.39859 77.8053 -3.03461 -7.4021 
75.8347 -3.02716 -7.40515 79.8115 -3.07581 -7.38508 81.817 -3.04391 -7.39828 
85.8071 -3.04595 -7.39745 83.8375 -3.0743 -7.38571 87.8239 -3.04642 -7.39725 
91.8054 -3.03466 -7.40209 89.8354 -3.02799 -7.40482 93.8115 -3.07583 -7.38507 
95.817 -3.04392 -7.39828 99.8112 -3.04396 -7.39826 97.8382 -3.07397 -7.38584 
101.818 -3.07902 -7.38374 103.822 -3.08285 -7.38214 105.824 -3.08305 -7.38206 
107.82 -3.08499 -7.38125 109.83 -3.05041 -7.39561 113.802 -3.03645 -7.40135 
111.836 -3.02845 -7.40462 115.821 -3.04318 -7.39859 119.8 -2.99621 -7.41773 
117.828 -3.02077 -7.40776 123.804 -3.00644 -7.41359 121.824 -3.06034 -7.39151 
127.805 -3.00671 -7.41348 125.827 -3.06373 -7.3901 131.806 -3.04708 -7.39698 
129.832 -3.07053 -7.38727 133.824 -3.04665 -7.39716 137.801 -3.03664 -7.40127 
135.835 -3.02837 -7.40466 139.821 -3.04322 -7.39857 143.805 -3.03461 -7.4021 
141.835 -3.02717 -7.40515 145.812 -3.07581 -7.38508 147.817 -3.04391 -7.39828 
151.807 -3.04595 -7.39745 149.837 -3.0743 -7.38571 153.823 -3.04642 -7.39725 
157.801 -2.99625 -7.41771 155.829 -3.02159 -7.40743 161.805 -3.0468 -7.39709 
159.83 -3.06706 -7.38872 163.823 -3.04656 -7.39719 167.801 -3.03664 -7.40127 
165.835 -3.02834 -7.40467 169.821 -3.04322 -7.39857 173.801 -3.0366 -7.40129 
171.834 -3.0275 -7.40501 175.821 -3.04321 -7.39857 179.801 -3.0366 -7.40129 
177.834 -3.0275 -7.40501 181.821 -3.04321 -7.39857 185.824 -3.03019 -7.40391 
183.838 -3.02643 -7.40545 187.883 -3.0969 -7.37626 190.087 3.34606 -7.26663 
188.068 3.15465 -7.35175 6.62624 -3.54352 -7.17241 193.374 3.54333 -7.1725 
190.976 -7.57811 -2.56363 10.9142 7.16817 -3.55209 12.8039 7.46964 -2.86435 
14.9968 7.14848 -3.59155 16.7769 7.01008 -3.85471 19.2062 7.1686 -3.55122 
20.8285 7.01164 -3.85188 23.2107 7.16749 -3.55346 24.8433 7.00846 -3.85765 
27.3823 7.43561 -2.95157 29.15 7.37007 -3.11159 31.062 7.11278 -3.66175 
32.8038 6.99765 -3.87723 35.378 7.43537 -2.95217 37.1488 7.37018 -3.11134 
39.0587 7.11342 -3.66051 40.7893 7.00068 -3.87175 43.2088 7.16757 -3.5533 
44.8427 7.00849 -3.8576 47.2642 7.39504 -3.05178 49.0896 7.11442 -3.65856 
50.7967 7.00053 -3.87202 53.2059 7.16816 -3.55211 54.8284 7.0115 -3.85213 
57.2107 7.16748 -3.55348 58.8433 7.00846 -3.85766 61.4221 7.44591 -2.92548 
63.249 7.42102 -2.98806 65.1172 7.36668 -3.11961 67.0564 7.11313 -3.66106 
68.8025 6.99779 -3.87697 71.2625 7.395 -3.05187 73.0923 7.1138 -3.65976 
74.811 6.99751 -3.87749 77.3788 7.43532 -2.95229 79.1495 7.37008 -3.11157 
81.0619 7.11278 -3.66175 82.8038 6.99765 -3.87723 85.2626 7.395 -3.05188 
87.0923 7.1138 -3.65976 88.811 6.99751 -3.87749 91.3788 7.43532 -2.95229 
93.1495 7.37008 -3.11157 95.0619 7.11278 -3.66175 96.8038 6.99765 -3.87723 
99.4281 7.44782 -2.92062 101.28 7.4311 -2.9629 103.249 7.42523 -2.97757 
105.197 7.41324 -3.0073 107.108 7.36637 -3.12035 109.055 7.11329 -3.66075 
110.802 6.99784 -3.87688 113.262 7.3951 -3.05164 115.089 7.11444 -3.65852 
116.797 7.00054 -3.87201 119.206 7.16816 -3.55211 120.828 7.0115 -3.85213 
123.208 7.16809 -3.55225 124.829 7.01147 -3.85217 127.211 7.16748 -3.55348 
128.843 7.00846 -3.85766 131.265 7.39495 -3.05201 133.093 7.11378 -3.65979 
134.811 6.9975 -3.8775 137.263 7.39499 -3.05191 139.092 7.11379 -3.65977 
140.811 6.9975 -3.87749 143.379 7.43532 -2.95229 145.149 7.37008 -3.11157 
147.062 7.11278 -3.66175 148.804 6.99765 -3.87723 151.262 7.39509 -3.05165 
153.089 7.11444 -3.65852 154.797 7.00054 -3.87201 157.209 7.16755 -3.55334 
158.843 7.00848 -3.85761 161.265 7.39495 -3.05201 163.093 7.11378 -3.65979 
164.811 6.9975 -3.8775 167.263 7.39499 -3.05191 169.092 7.11379 -3.65977 
170.811 6.9975 -3.87749 173.263 7.39499 -3.05191 175.092 7.11379 -3.65977 
176.811 6.9975 -3.87749 179.263 7.39499 -3.05191 181.092 7.11379 -3.65977 
182.811 6.9975 -3.87749 185.392 7.44529 -2.92704 187.166 7.41801 -2.99552 
188.966 7.35483 -3.14745 189.244 -7.342 -3.17727 187.433 -7.03561 -3.80792 
184.75 -7.39672 -3.04772 182.903 -7.11484 -3.65773 181.185 -6.99794 -3.87671 
178.735 -7.3938 -3.05479 176.902 -7.11446 -3.65847 175.185 -6.9978 -3.87696 
172.735 -7.39377 -3.05485 170.902 -7.11446 -3.65848 169.185 -6.9978 -3.87696 
166.736 -7.39398 -3.05436 164.906 -7.11531 -3.65683 163.2 -7.00101 -3.87116 
160.786 -7.16742 -3.5536 159.154 -7.00837 -3.85783 156.735 -7.39516 -3.05149 
154.905 -7.1153 -3.65684 153.199 -7.00101 -3.87116 150.789 -7.16809 -3.55225 
149.169 -7.01143 -3.85225 146.784 -7.16748 -3.55348 145.153 -7.00845 -3.85768 
142.734 -7.39504 -3.05179 140.902 -7.11445 -3.6585 139.185 -6.9978 -3.87696 
136.736 -7.39398 -3.05435 134.906 -7.11531 -3.65682 133.2 -7.00101 -3.87115 
130.789 -7.16825 -3.55193 129.168 -7.01157 -3.85201 126.787 -7.1682 -3.55203 
125.168 -7.01155 -3.85203 122.784 -7.16738 -3.55369 121.153 -7.00835 -3.85785 
118.734 -7.39504 -3.05179 116.902 -7.11445 -3.6585 115.185 -6.99779 -3.87697 
112.736 -7.39392 -3.0545 110.906 -7.11515 -3.65714 109.2 -7.00088 -3.8714 
106.789 -7.1682 -3.55204 105.168 -7.01153 -3.85207 102.787 -7.1683 -3.55183 
101.167 -7.01164 -3.85187 98.7878 -7.16805 -3.55234 97.1681 -7.01142 -3.85227 
94.7836 -7.16748 -3.55348 93.1529 -7.00845 -3.85768 90.7349 -7.39516 -3.05149 
88.9052 -7.1153 -3.65684 87.1995 -7.00101 -3.87116 84.7894 -7.16809 -3.55225 
83.1685 -7.01143 -3.85225 80.7837 -7.16748 -3.55348 79.1529 -7.00845 -3.85768 
76.7343 -7.39504 -3.05179 74.9017 -7.11445 -3.6585 73.1848 -6.99779 -3.87697 
70.7361 -7.39392 -3.05449 68.906 -7.11516 -3.65712 67.1999 -7.00089 -3.87138 
64.7887 -7.16835 -3.55173 63.1679 -7.01166 -3.85184 60.7873 -7.1682 -3.55203 
59.1677 -7.01155 -3.85203 56.7839 -7.16738 -3.55369 55.1531 -7.00836 -3.85784 
52.7349 -7.39516 -3.05148 50.9051 -7.11531 -3.65683 49.1994 -7.00101 -3.87115 
46.789 -7.16824 -3.55194 45.1682 -7.01156 -3.85202 42.7878 -7.16805 -3.55233 
41.1681 -7.01143 -3.85226 38.787 -7.1683 -3.55183 37.1675 -7.01164 -3.85187 
34.7878 -7.16805 -3.55233 33.1681 -7.01143 -3.85226 30.787 -7.1683 -3.55182 
29.1675 -7.01165 -3.85186 26.7873 -7.1682 -3.55202 25.1677 -7.01156 -3.85202 
22.7873 -7.1682 -3.55203 21.1677 -7.01155 -3.85203 18.7878 -7.16805 -3.55232 
17.1681 -7.01143 -3.85226 14.7856 -7.16813 -3.55218 13.162 -7.01251 -3.85029 
10.875 -7.38752 -3.06994 4.19871 7.59758 -2.50534 195.817 -7.59459 -2.51441 
196.031 7.40953 -3.01642 3.96914 -7.40953 -3.01642 2.49791 -2.26 -7.67414 
197.502 2.25999 -7.67414 2.70132 2.01917 -7.74099 197.299 -2.01917 -7.74099 
4.88686 7.55398 2.63389 195.051 -7.54263 2.66622 5.56041 7.76893 -1.90884 
194.493 -7.75994 -1.94509 194.791 7.72426 -2.08225 5.20868 -7.72426 -2.08225 
1.37001 2.66458 7.54321 198.588 2.69021 7.53411 198.63 -2.66454 7.54323 
1.41215 -2.69021 7.53411 193.33 7.63701 -2.38246 6.66953 -7.63701 -2.38247 
3.13198 7.71635 2.11139 196.852 -7.71499 2.11635 196.373 7.74836 1.99069 
3.6266 -7.74836 1.99069 3.3063 7.16393 -3.56064 196.693 -7.16414 -3.56022 
2.60063 3.14325 7.35663 197.399 -3.14325 7.35663 197.41 3.14217 7.35709 
2.58952 -3.14217 7.35709 195.904 3.26375 7.30397 4.09569 -3.26375 7.30397 
3.74339 2.48959 7.60276 196.124 -2.47598 7.6072 4.15295 -1.63946 -7.83021 
195.847 1.63941 -7.83022 5.38421 1.75969 -7.80407 194.584 -1.77377 -7.80088 
6.6252 2.32413 7.65496 5.74307 -2.19048 -7.69427 194.257 2.19009 -7.69438 
6.97094 0.697514 -7.96953 192.865 -0.754974 -7.9643 6.62378 7.31825 -3.23159 
193.523 -7.30664 -3.25777 8.55332 1.51051 -7.8561 3.92043 2.48521 -7.60419 
196.073 -2.48795 -7.6033 192.783 -7.82889 -1.64576 7.45301 7.87731 -1.3957 
10.9466 7.8582 -1.49954 9.26653 7.95326 -0.863512 190.702 4.92255 6.30623 
9.29762 -4.92255 6.30623 4.43111 7.9526 0.869564 195.54 -7.95574 0.840352 
192.996 1.38882 7.87853 7.00423 -1.38882 7.87853 9.33611 2.02233 7.74017 
190.735 -2.04566 7.73403 11.1176 2.18138 7.69685 13.0678 2.20398 7.69042 
15.0539 2.20756 7.68939 17.05 2.20802 7.68925 19.0489 2.20804 7.68925 
21.0486 2.20802 7.68925 23.0485 2.20802 7.68926 25.0485 2.20801 7.68926 
27.0485 2.20801 7.68926 29.0485 2.20801 7.68926 31.0485 2.20801 7.68926 
33.0485 2.20801 7.68926 35.0485 2.20801 7.68926 37.0485 2.20801 7.68926 
39.0485 2.20801 7.68926 41.0485 2.20801 7.68926 43.0485 2.20801 7.68926 
45.0485 2.20801 7.68926 47.0485 2.20801 7.68926 49.0485 2.20801 7.68926 
51.0485 2.20801 7.68926 53.0485 2.20801 7.68926 55.0485 2.20801 7.68926 
57.0485 2.20801 7.68926 59.0485 2.20801 7.68926 61.0485 2.20801 7.68926 
63.0485 2.20801 7.68926 65.0485 2.20801 7.68926 67.0485 2.20801 7.68926 
69.0485 2.20801 7.68926 71.0485 2.20801 7.68926 73.0485 2.20801 7.68926 
75.0485 2.20801 7.68926 77.0485 2.20801 7.68926 79.0485 2.20801 7.68926 
81.0485 2.20801 7.68926 83.0485 2.20801 7.68926 85.0485 2.20801 7.68926 
87.0485 2.20801 7.68926 89.0485 2.20801 7.68926 91.0485 2.20801 7.68926 
93.0485 2.20801 7.68926 95.0485 2.20801 7.68926 97.0485 2.20801 7.68926 
99.0485 2.20801 7.68926 101.049 2.20801 7.68926 103.049 2.20801 7.68926 
105.049 2.20801 7.68926 107.049 2.20801 7.68926 109.049 2.20801 7.68926 
111.049 2.20801 7.68926 113.049 2.20801 7.68926 115.049 2.20801 7.68926 
117.049 2.20801 7.68926 119.049 2.20801 7.68926 121.049 2.20801 7.68926 
123.049 2.20801 7.68926 125.049 2.20801 7.68926 127.049 2.20801 7.68926 
129.049 2.20801 7.68926 131.049 2.20801 7.68926 133.049 2.20801 7.68926 
135.049 2.20801 7.68926 137.049 2.20801 7.68926 139.049 2.20801 7.68926 
141.049 2.20801 7.68926 143.049 2.20801 7.68926 145.049 2.20801 7.68926 
147.049 2.20801 7.68926 149.049 2.20801 7.68926 151.049 2.20801 7.68926 
153.049 2.20801 7.68926 155.049 2.20801 7.68926 157.049 2.20801 7.68926 
159.049 2.20801 7.68926 161.049 2.20801 7.68926 163.049 2.20801 7.68926 
165.049 2.20801 7.68926 167.049 2.20801 7.68926 169.049 2.20801 7.68926 
171.049 2.20801 7.68926 173.049 2.20801 7.68926 175.049 2.20801 7.68926 
177.049 2.20801 7.68926 179.049 2.20801 7.68926 181.049 2.20801 7.68926 
183.049 2.20801 7.68926 185.045 2.20481 7.69018 187.001 2.12875 7.71158 
189.018 2.0892 7.72239 191.24 2.14259 7.70774 188.903 -2.17985 7.69729 
186.939 -2.20234 7.69088 184.948 -2.20696 7.68956 182.951 -2.20785 7.6893 
180.951 -2.208 7.68926 178.951 -2.20801 7.68926 176.951 -2.20801 7.68926 
174.951 -2.20801 7.68926 172.951 -2.20801 7.68926 170.951 -2.20801 7.68926 
168.951 -2.20801 7.68926 166.951 -2.20801 7.68926 164.951 -2.20801 7.68926 
162.951 -2.20801 7.68926 160.951 -2.20801 7.68926 158.951 -2.20801 7.68926 
156.951 -2.20801 7.68926 154.951 -2.20801 7.68926 152.951 -2.20801 7.68926 
150.951 -2.20801 7.68926 148.951 -2.20801 7.68926 146.951 -2.20801 7.68926 
144.951 -2.20801 7.68926 142.951 -2.20801 7.68926 140.951 -2.20801 7.68926 
138.951 -2.20801 7.68926 136.951 -2.20801 7.68926 134.951 -2.20801 7.68926 
132.951 -2.20801 7.68926 130.951 -2.20801 7.68926 128.951 -2.20801 7.68926 
126.951 -2.20801 7.68926 124.951 -2.20801 7.68926 122.951 -2.20801 7.68926 
120.951 -2.20801 7.68926 118.951 -2.20801 7.68926 116.951 -2.20801 7.68926 
114.951 -2.20801 7.68926 112.951 -2.20801 7.68926 110.951 -2.20801 7.68926 
108.951 -2.20801 7.68926 106.951 -2.20801 7.68926 104.951 -2.20801 7.68926 
102.951 -2.20801 7.68926 100.951 -2.20801 7.68926 98.9515 -2.20801 7.68926 
96.9515 -2.20801 7.68926 94.9515 -2.20801 7.68926 92.9515 -2.20801 7.68926 
90.9515 -2.20801 7.68926 88.9515 -2.20801 7.68926 86.9515 -2.20801 7.68926 
84.9515 -2.20801 7.68926 82.9515 -2.20801 7.68926 80.9515 -2.20801 7.68926 
78.9515 -2.20801 7.68926 76.9515 -2.20801 7.68926 74.9515 -2.20801 7.68926 
72.9515 -2.20801 7.68926 70.9515 -2.20801 7.68926 68.9515 -2.20801 7.68926 
66.9515 -2.20801 7.68926 64.9515 -2.20801 7.68926 62.9515 -2.20801 7.68926 
60.9515 -2.20801 7.68926 58.9515 -2.20801 7.68926 56.9515 -2.20801 7.68926 
54.9515 -2.20801 7.68926 52.9515 -2.20801 7.68926 50.9515 -2.20801 7.68926 
48.9515 -2.20801 7.68926 46.9515 -2.20801 7.68926 44.9515 -2.20801 7.68926 
42.9515 -2.20801 7.68926 40.9515 -2.20801 7.68926 38.9515 -2.20801 7.68926 
36.9515 -2.20801 7.68926 34.9515 -2.20801 7.68926 32.9515 -2.20801 7.68926 
30.9515 -2.20801 7.68926 28.9515 -2.20801 7.68926 26.9515 -2.20801 7.68926 
24.9515 -2.20801 7.68926 22.9515 -2.20801 7.68926 20.9515 -2.20801 7.68926 
18.9515 -2.20801 7.68926 16.9515 -2.20801 7.68926 14.9547 -2.20481 7.69018 
12.9986 -2.12875 7.71158 10.982 -2.0892 7.72239 8.75998 -2.14259 7.70774 
7.91477 2.18626 7.69547 192.788 -1.95515 7.75741 11.499 -4.59366 -6.54968 
188.428 4.62683 -6.52629 10.4459 4.49382 -6.61858 189.497 -4.51007 -6.60751 
12.4589 4.54233 -6.58538 14.4738 4.55447 -6.57699 13.4182 -4.77648 -6.41757 
16.5193 4.77929 -6.41548 15.357 -4.55508 -6.57657 18.5782 4.55409 -6.57725 
17.4092 -4.76373 -6.42704 20.5407 4.76585 -6.42547 19.3553 -4.55311 -6.57793 
22.5818 4.5518 -6.57884 21.4021 -4.76764 -6.42414 24.5453 4.76412 -6.42675 
23.3531 -4.55441 -6.57704 26.6101 4.54168 -6.58583 25.4018 -4.76783 -6.42401 
28.5586 4.52162 -6.59962 27.353 -4.55444 -6.57701 30.5244 4.53851 -6.58801 
29.3966 -4.77101 -6.42164 32.5349 4.7741 -6.41934 31.353 -4.55444 -6.57701 
34.6084 4.54338 -6.58465 33.4086 -4.76367 -6.42708 36.5584 4.5219 -6.59942 
35.3552 -4.55311 -6.57793 38.5243 4.53856 -6.58798 37.3969 -4.77082 -6.42178 
40.5309 4.77551 -6.41829 39.3531 -4.55441 -6.57704 42.5802 4.55344 -6.5777 
41.4086 -4.76367 -6.42709 44.5451 4.76435 -6.42658 43.3552 -4.55311 -6.57793 
46.6101 4.54172 -6.5858 45.4021 -4.76764 -6.42414 48.5351 4.53006 -6.59383 
47.3531 -4.55441 -6.57704 50.5327 4.77285 -6.42027 49.3985 -4.78135 -6.41395 
52.5805 4.55299 -6.57802 51.4178 -4.56845 -6.56729 54.5411 4.7657 -6.42558 
53.329 -4.51034 -6.60733 56.5819 4.55177 -6.57886 55.3943 -4.76028 -6.4296 
58.5453 4.76412 -6.42675 57.3518 -4.55315 -6.57791 60.6101 4.54168 -6.58583 
59.4016 -4.76765 -6.42414 62.5586 4.52162 -6.59962 61.353 -4.55441 -6.57703 
64.548 4.53008 -6.59381 63.3966 -4.77101 -6.42164 66.5223 4.5416 -6.58588 
65.353 -4.55444 -6.57701 68.5346 4.77474 -6.41887 67.4053 -4.7772 -6.41704 
70.6083 4.54349 -6.58458 69.42 -4.56704 -6.56827 72.5348 4.53036 -6.59362 
71.3296 -4.51001 -6.60756 74.5367 4.77149 -6.42129 73.3911 -4.77377 -6.41959 
76.6087 4.54294 -6.58496 75.4165 -4.56716 -6.56819 78.5584 4.52183 -6.59947 
77.3288 -4.51012 -6.60748 80.5243 4.53855 -6.58799 79.3891 -4.76343 -6.42726 
82.5349 4.7741 -6.41934 81.3518 -4.55314 -6.57791 84.6084 4.54338 -6.58465 
83.4084 -4.76349 -6.42722 86.5348 4.53034 -6.59364 85.3551 -4.55308 -6.57795 
88.5367 4.77148 -6.42129 87.3988 -4.78116 -6.41409 90.6087 4.54294 -6.58496 
89.4178 -4.56842 -6.56731 92.5584 4.52183 -6.59947 91.329 -4.51033 -6.60734 
94.5243 4.53855 -6.58799 93.3891 -4.76346 -6.42724 96.5349 4.7741 -6.41934 
95.3518 -4.55315 -6.57791 98.6084 4.54338 -6.58465 97.4084 -4.76349 -6.42722 
100.558 4.5219 -6.59942 99.3551 -4.55308 -6.57795 102.548 4.53013 -6.59378 
101.397 -4.77082 -6.42178 104.546 4.53319 -6.59168 103.353 -4.5544 -6.57704 
106.545 4.53394 -6.59116 105.403 -4.76685 -6.42473 108.522 4.54252 -6.58525 
107.355 -4.55302 -6.578 110.535 4.7749 -6.41875 109.406 -4.77692 -6.41725 
112.608 4.54352 -6.58456 111.42 -4.56697 -6.56831 114.535 4.53036 -6.59362 
113.33 -4.51 -6.60756 116.533 4.77289 -6.42024 115.391 -4.77376 -6.41959 
118.58 4.553 -6.57801 117.417 -4.56716 -6.56819 120.541 4.7657 -6.42558 
119.329 -4.51012 -6.60748 122.582 4.55177 -6.57886 121.394 -4.76025 -6.42962 
124.541 4.76553 -6.42571 123.352 -4.55314 -6.57791 126.582 4.55174 -6.57888 
125.402 -4.76765 -6.42414 128.545 4.76412 -6.42676 127.353 -4.55441 -6.57703 
130.61 4.54168 -6.58583 129.402 -4.76783 -6.42401 132.535 4.53006 -6.59383 
131.353 -4.55444 -6.57701 134.537 4.77144 -6.42132 133.398 -4.78135 -6.41395 
136.609 4.54293 -6.58497 135.418 -4.56845 -6.56729 138.535 4.53026 -6.59369 
137.329 -4.51034 -6.60733 140.537 4.77147 -6.4213 139.391 -4.77381 -6.41956 
142.609 4.54293 -6.58496 141.417 -4.56717 -6.56818 144.558 4.52183 -6.59947 
143.329 -4.51012 -6.60748 146.524 4.53855 -6.58799 145.389 -4.76343 -6.42726 
148.535 4.7741 -6.41934 147.352 -4.55314 -6.57791 150.608 4.54338 -6.58465 
149.408 -4.76349 -6.42722 152.535 4.53034 -6.59364 151.355 -4.55308 -6.57795 
154.533 4.77289 -6.42024 153.399 -4.78116 -6.41409 156.58 4.553 -6.57801 
155.418 -4.56842 -6.56731 158.545 4.76429 -6.42663 157.329 -4.51033 -6.60734 
160.61 4.54171 -6.58581 159.394 -4.76028 -6.4296 162.535 4.53006 -6.59383 
161.352 -4.55315 -6.57791 164.537 4.77144 -6.42132 163.398 -4.78117 -6.41408 
166.609 4.54293 -6.58497 165.418 -4.56842 -6.56731 168.535 4.53026 -6.59369 
167.329 -4.51033 -6.60734 170.537 4.77147 -6.4213 169.391 -4.77381 -6.41956 
172.609 4.54293 -6.58496 171.417 -4.56717 -6.56818 174.535 4.53026 -6.59369 
173.329 -4.51012 -6.60748 176.537 4.77147 -6.4213 175.391 -4.77378 -6.41958 
178.609 4.54293 -6.58496 177.417 -4.56716 -6.56818 180.535 4.53026 -6.59369 
179.329 -4.51012 -6.60748 182.537 4.77147 -6.4213 181.391 -4.77378 -6.41958 
184.632 4.54335 -6.58468 183.417 -4.56716 -6.56818 186.609 4.54171 -6.58581 
185.329 -4.51012 -6.60748 187.354 -4.62334 -6.52876 10.0157 -5.03066 -6.22033 
189.975 5.05486 -6.20067 3.85373 5.04793 -6.20632 196.146 -5.04793 -6.20632 
5.28199 5.64994 -5.66376 194.704 -5.65747 -5.65624 191.04 -1.63277 -7.83161 
10.1497 1.11193 -7.92235 5.6974 7.883 1.36322 194.119 -7.88736 1.33775 
11.6396 1.3868 -7.87888 12.4389 -1.58749 -7.84091 13.5536 1.44459 -7.86849 
14.3893 -1.52744 -7.85283 15.5407 1.50666 -7.85684 16.388 -1.54085 -7.85021 
18.382 -1.49965 -7.85818 17.5597 1.49373 -7.85931 19.547 1.52731 -7.85285 
20.3766 -1.52643 -7.85302 22.2987 -1.49658 -7.85877 21.4867 1.49802 -7.85849 
23.6558 1.13236 -7.91945 24.2747 -1.15097 -7.91677 26.4373 -1.4779 -7.8623 
25.6447 1.4719 -7.86343 27.5637 1.52632 -7.85305 28.3853 -1.53278 -7.85179 
29.4867 1.48689 -7.86061 30.3008 -1.50607 -7.85696 31.6482 1.12291 -7.9208 
32.2713 -1.15961 -7.91551 34.4383 -1.47956 -7.86199 33.641 1.46914 -7.86394 
35.5622 1.5261 -7.85309 36.3858 -1.53279 -7.85179 37.5564 1.48698 -7.86059 
38.3711 -1.50601 -7.85697 39.5381 1.51553 -7.85514 40.3715 -1.53466 -7.85142 
42.2983 -1.49824 -7.85845 41.4821 1.49468 -7.85913 43.6536 1.13206 -7.9195 
44.2737 -1.15107 -7.91676 46.4262 -1.47828 -7.86223 45.6332 1.47195 -7.86342 
47.5759 1.48652 -7.86068 48.3825 -1.4919 -7.85966 49.556 1.51666 -7.85492 
50.386 -1.52476 -7.85335 52.3799 -1.4868 -7.86063 51.5666 1.4946 -7.85915 
53.5494 1.52699 -7.85292 54.3749 -1.52208 -7.85387 56.2979 -1.49523 -7.85903 
55.4874 1.49784 -7.85853 57.6559 1.13231 -7.91946 58.2746 -1.15073 -7.91681 
60.4373 -1.47784 -7.86231 59.6448 1.47188 -7.86343 61.5737 1.52631 -7.85305 
62.3953 -1.53277 -7.85179 63.5443 1.52673 -7.85297 64.3754 -1.54864 -7.84868 
65.4804 1.48577 -7.86082 66.3013 -1.51043 -7.85612 67.6457 1.12306 -7.92078 
68.2715 -1.15404 -7.91632 70.4262 -1.46921 -7.86393 69.6294 1.46936 -7.8639 
71.5044 1.48633 -7.86071 72.3115 -1.48791 -7.86041 73.653 1.12388 -7.92066 
74.274 -1.14968 -7.91696 76.4372 -1.46796 -7.86416 75.6425 1.46907 -7.86396 
77.5627 1.52594 -7.85312 78.3842 -1.52864 -7.8526 79.4864 1.4869 -7.86061 
80.3002 -1.50461 -7.85723 81.6473 1.12293 -7.9208 82.27 -1.15929 -7.91556 
84.4271 -1.47988 -7.86193 83.6298 1.46915 -7.86394 85.5045 1.48623 -7.86073 
86.313 -1.49194 -7.85965 87.653 1.12385 -7.92067 88.2746 -1.15088 -7.91678 
90.4374 -1.46832 -7.8641 89.6425 1.46907 -7.86396 91.5627 1.52593 -7.85312 
92.3843 -1.52871 -7.85258 93.4864 1.4869 -7.86061 94.3002 -1.50463 -7.85723 
95.6481 1.12293 -7.9208 96.271 -1.15925 -7.91556 98.4383 -1.47946 -7.86201 
97.6409 1.46915 -7.86394 99.5722 1.52611 -7.85309 100.396 -1.53277 -7.85179 
101.554 1.52682 -7.85295 102.385 -1.54824 -7.84876 103.548 1.52564 -7.85318 
104.384 -1.55125 -7.84816 105.536 1.52577 -7.85315 106.374 -1.55205 -7.848 
107.478 1.48617 -7.86074 108.301 -1.51091 -7.85603 109.645 1.12337 -7.92073 
110.271 -1.15403 -7.91633 112.426 -1.4692 -7.86393 111.629 1.4695 -7.86388 
113.574 1.48642 -7.8607 114.382 -1.48786 -7.86042 115.556 1.51678 -7.8549 
116.385 -1.52332 -7.85363 118.38 -1.48639 -7.8607 117.566 1.49466 -7.85914 
119.561 1.52702 -7.85291 120.386 -1.522 -7.85389 122.38 -1.49517 -7.85904 
121.57 1.49789 -7.85852 123.551 1.52748 -7.85282 124.376 -1.5259 -7.85313 
126.298 -1.49652 -7.85878 125.488 1.49786 -7.85853 127.655 1.1323 -7.91946 
128.274 -1.15102 -7.91676 130.426 -1.47832 -7.86222 129.634 1.47188 -7.86343 
131.506 1.48643 -7.86069 132.312 -1.49196 -7.85965 133.653 1.12378 -7.92068 
134.273 -1.15099 -7.91677 136.426 -1.46875 -7.86402 135.632 1.46902 -7.86397 
137.505 1.48604 -7.86077 138.311 -1.48788 -7.86042 139.653 1.12378 -7.92068 
140.274 -1.14969 -7.91696 142.437 -1.46797 -7.86416 141.643 1.46904 -7.86396 
143.563 1.52593 -7.85312 144.384 -1.52864 -7.8526 145.486 1.4869 -7.86061 
146.3 -1.50461 -7.85723 147.647 1.12293 -7.9208 148.27 -1.15929 -7.91556 
150.427 -1.47988 -7.86193 149.63 1.46915 -7.86394 151.575 1.48628 -7.86072 
152.383 -1.4919 -7.85966 153.544 1.51673 -7.85491 154.375 -1.52471 -7.85336 
156.297 -1.48681 -7.86062 155.484 1.49461 -7.85914 157.654 1.13191 -7.91952 
158.272 -1.14753 -7.91727 160.426 -1.47708 -7.86246 159.633 1.47188 -7.86343 
161.506 1.48645 -7.86069 162.312 -1.49168 -7.8597 163.653 1.12379 -7.92068 
164.273 -1.15093 -7.91678 166.426 -1.46874 -7.86402 165.631 1.46902 -7.86397 
167.505 1.48604 -7.86077 168.311 -1.48788 -7.86042 169.652 1.12378 -7.92068 
170.273 -1.14974 -7.91695 172.426 -1.46839 -7.86409 171.631 1.46904 -7.86396 
173.505 1.48605 -7.86077 174.311 -1.48781 -7.86043 175.652 1.12379 -7.92068 
176.273 -1.14973 -7.91695 178.426 -1.46838 -7.86409 177.631 1.46904 -7.86396 
179.505 1.48605 -7.86077 180.311 -1.48781 -7.86043 181.653 1.12381 -7.92067 
182.275 -1.14954 -7.91698 184.445 -1.466 -7.86453 183.654 1.46945 -7.86389 
185.589 1.54642 -7.84911 186.424 -1.51214 -7.85579 187.469 1.64169 -7.82974 
188.674 -1.29174 -7.89502 10.6661 -1.67088 -7.82356 189.202 1.72107 -7.81268 
193.462 4.67203 6.494 6.53815 -4.67204 6.494 9.96044 3.99447 6.9314 
190.074 -4.01646 6.91867 12.0861 4.08922 6.87592 14.0832 4.10476 6.86665 
16.0757 4.10644 6.86565 18.0727 4.10642 6.86566 20.0718 4.10634 6.86571 
22.0715 4.1063 6.86573 24.0715 4.10629 6.86574 26.0714 4.10629 6.86574 
28.0714 4.10629 6.86574 30.0714 4.10629 6.86574 32.0714 4.10629 6.86574 
34.0714 4.10629 6.86574 36.0714 4.10629 6.86574 38.0714 4.10629 6.86574 
40.0714 4.10629 6.86574 42.0714 4.10629 6.86574 44.0714 4.10629 6.86574 
46.0714 4.10629 6.86574 48.0714 4.10629 6.86574 50.0714 4.10629 6.86574 
52.0714 4.10629 6.86574 54.0714 4.10629 6.86574 56.0714 4.10629 6.86574 
58.0714 4.10629 6.86574 60.0714 4.10629 6.86574 62.0714 4.10629 6.86574 
64.0714 4.10629 6.86574 66.0714 4.10629 6.86574 68.0714 4.10629 6.86574 
70.0714 4.10629 6.86574 72.0714 4.10629 6.86574 74.0714 4.10629 6.86574 
76.0714 4.10629 6.86574 78.0714 4.10629 6.86574 80.0714 4.10629 6.86574 
82.0714 4.10629 6.86574 84.0714 4.10629 6.86574 86.0714 4.10629 6.86574 
88.0714 4.10629 6.86574 90.0714 4.10629 6.86574 92.0714 4.10629 6.86574 
94.0714 4.10629 6.86574 96.0714 4.10629 6.86574 98.0714 4.10629 6.86574 
100.071 4.10629 6.86574 102.071 4.10629 6.86574 104.071 4.10629 6.86574 
106.071 4.10629 6.86574 108.071 4.10629 6.86574 110.071 4.10629 6.86574 
112.071 4.10629 6.86574 114.071 4.10629 6.86574 116.071 4.10629 6.86574 
118.071 4.10629 6.86574 120.071 4.10629 6.86574 122.071 4.10629 6.86574 
124.071 4.10629 6.86574 126.071 4.10629 6.86574 128.071 4.10629 6.86574 
130.071 4.10629 6.86574 132.071 4.10629 6.86574 134.071 4.10629 6.86574 
136.071 4.10629 6.86574 138.071 4.10629 6.86574 140.071 4.10629 6.86574 
142.071 4.10629 6.86574 144.071 4.10629 6.86574 146.071 4.10629 6.86574 
148.071 4.10629 6.86574 150.071 4.10629 6.86574 152.071 4.10629 6.86574 
154.071 4.10629 6.86574 156.071 4.10629 6.86574 158.071 4.10629 6.86574 
160.071 4.10629 6.86574 162.071 4.10629 6.86574 164.071 4.10629 6.86574 
166.071 4.10629 6.86574 168.071 4.10629 6.86574 170.071 4.10629 6.86574 
172.071 4.10629 6.86574 174.071 4.10629 6.86574 176.071 4.10629 6.86574 
178.071 4.10629 6.86574 180.071 4.10629 6.86574 182.071 4.10629 6.86574 
184.071 4.10588 6.86598 186.06 4.0743 6.88477 188.111 4.0061 6.92468 
187.936 -4.08979 6.87558 185.925 -4.1039 6.86717 183.927 -4.10605 6.86588 
181.928 -4.1063 6.86574 179.928 -4.1063 6.86573 177.929 -4.10629 6.86574 
175.929 -4.10629 6.86574 173.929 -4.10629 6.86574 171.929 -4.10629 6.86574 
169.929 -4.10629 6.86574 167.929 -4.10629 6.86574 165.929 -4.10629 6.86574 
163.929 -4.10629 6.86574 161.929 -4.10629 6.86574 159.929 -4.10629 6.86574 
157.929 -4.10629 6.86574 155.929 -4.10629 6.86574 153.929 -4.10629 6.86574 
151.929 -4.10629 6.86574 149.929 -4.10629 6.86574 147.929 -4.10629 6.86574 
145.929 -4.10629 6.86574 143.929 -4.10629 6.86574 141.929 -4.10629 6.86574 
139.929 -4.10629 6.86574 137.929 -4.10629 6.86574 135.929 -4.10629 6.86574 
133.929 -4.10629 6.86574 131.929 -4.10629 6.86574 129.929 -4.10629 6.86574 
127.929 -4.10629 6.86574 125.929 -4.10629 6.86574 123.929 -4.10629 6.86574 
121.929 -4.10629 6.86574 119.929 -4.10629 6.86574 117.929 -4.10629 6.86574 
115.929 -4.10629 6.86574 113.929 -4.10629 6.86574 111.929 -4.10629 6.86574 
109.929 -4.10629 6.86574 107.929 -4.10629 6.86574 105.929 -4.10629 6.86574 
103.929 -4.10629 6.86574 101.929 -4.10629 6.86574 99.9286 -4.10629 6.86574 
97.9286 -4.10629 6.86574 95.9286 -4.10629 6.86574 93.9286 -4.10629 6.86574 
91.9286 -4.10629 6.86574 89.9286 -4.10629 6.86574 87.9286 -4.10629 6.86574 
85.9286 -4.10629 6.86574 83.9286 -4.10629 6.86574 81.9286 -4.10629 6.86574 
79.9286 -4.10629 6.86574 77.9286 -4.10629 6.86574 75.9286 -4.10629 6.86574 
73.9286 -4.10629 6.86574 71.9286 -4.10629 6.86574 69.9286 -4.10629 6.86574 
67.9286 -4.10629 6.86574 65.9286 -4.10629 6.86574 63.9286 -4.10629 6.86574 
61.9286 -4.10629 6.86574 59.9286 -4.10629 6.86574 57.9286 -4.10629 6.86574 
55.9286 -4.10629 6.86574 53.9286 -4.10629 6.86574 51.9286 -4.10629 6.86574 
49.9286 -4.10629 6.86574 47.9286 -4.10629 6.86574 45.9286 -4.10629 6.86574 
43.9286 -4.10629 6.86574 41.9286 -4.10629 6.86574 39.9286 -4.10629 6.86574 
37.9286 -4.10629 6.86574 35.9286 -4.10629 6.86574 33.9286 -4.10629 6.86574 
31.9286 -4.10629 6.86574 29.9286 -4.10629 6.86574 27.9286 -4.10629 6.86574 
25.9286 -4.10629 6.86574 23.9286 -4.10629 6.86574 21.9286 -4.10629 6.86574 
19.9286 -4.10629 6.86574 17.9286 -4.10629 6.86574 15.929 -4.10588 6.86598 
13.9399 -4.0743 6.88477 11.8886 -4.0061 6.92468 7.86592 4.2244 6.7937 
192.029 -4.74035 6.44431 9.00131 -1.65278 -7.82741 191.005 1.65094 -7.8278 
191.705 7.78716 -1.83308 8.29514 -7.7869 -1.83416 192.487 -7.97159 0.673611 
6.94107 7.95412 0.855555 190.381 -7.97389 0.645834 7.68521 -7.18085 -3.52639 
192.314 7.18169 -3.52467 11.6307 7.96907 0.70279 189.116 7.98324 0.517588 
10.8319 -7.98338 0.515418 13.6124 7.97438 0.639784 15.4415 7.99242 0.348051 
17.2984 7.99892 0.131424 19.3128 7.99998 0.0174391 21.3037 8 0.00728022 
23.2663 7.99925 0.109683 25.2602 7.99914 0.117371 27.224 7.99965 0.075168 
29.2023 7.99978 0.0592727 31.2045 7.99913 0.117922 33.2519 7.99988 0.0437582 
35.2176 7.99961 0.0790573 37.2024 7.99979 0.057891 39.204 7.99913 0.118041 
41.2618 7.99993 0.032544 43.2613 7.99924 0.110074 45.2744 7.99994 0.0320573 
47.2479 7.99979 0.0579018 49.22 7.99915 0.11674 51.2678 7.99992 0.036398 
53.262 7.99924 0.110108 55.265 7.99925 0.109791 57.2659 7.99925 0.109766 
59.2601 7.99914 0.117391 61.2229 7.99966 0.0736313 63.1982 7.99987 0.0450262 
65.1897 7.99983 0.0515096 67.2003 7.99913 0.118239 69.2517 7.99989 0.0425735 
71.2373 7.99978 0.0596381 73.2191 7.99915 0.116702 75.2498 7.99984 0.0505115 
77.2206 7.99975 0.0637712 79.2022 7.99981 0.0554861 81.2043 7.99913 0.117933 
83.2529 7.99989 0.0424827 85.2376 7.99978 0.0596103 87.2192 7.99915 0.116698 
89.2498 7.99984 0.0505106 91.2206 7.99975 0.063771 93.2006 7.9998 0.0564776 
95.2043 7.99913 0.117933 97.2519 7.99988 0.0437534 99.2162 7.99959 0.0808594 
101.189 7.99986 0.047448 103.184 7.99994 0.0307352 105.184 7.99994 0.0299794 
107.185 7.99987 0.0464325 109.199 7.99912 0.118346 111.246 7.99985 0.0496365 
113.236 7.99975 0.062861 115.219 7.99915 0.116809 117.267 7.99992 0.0364342 
119.262 7.99924 0.110111 121.265 7.99925 0.1098 123.266 7.99925 0.109871 
125.266 7.99925 0.109743 127.266 7.99925 0.109757 129.26 7.99914 0.117442 
131.225 7.99952 0.0879713 133.22 7.99915 0.116632 135.251 7.99985 0.0492139 
137.238 7.99975 0.0637581 139.219 7.99915 0.116682 141.25 7.99984 0.050507 
143.221 7.99975 0.0637702 145.201 7.9998 0.0568333 147.204 7.99913 0.117933 
149.253 7.99989 0.0424841 151.238 7.99978 0.0596285 153.219 7.99915 0.116803 
155.267 7.99992 0.0355853 157.262 7.99924 0.110006 159.259 7.99914 0.117492 
161.224 7.99952 0.0879817 163.22 7.99915 0.116634 165.251 7.99985 0.0492143 
167.238 7.99975 0.0634654 169.219 7.99915 0.116682 171.251 7.99985 0.0492241 
173.238 7.99975 0.0634511 175.219 7.99915 0.116682 177.251 7.99985 0.0492242 
179.238 7.99975 0.0633535 181.219 7.99915 0.116682 183.255 7.9999 0.0406784 
185.223 7.9998 0.0561406 187.151 7.99896 0.129126 186.714 -7.99888 0.133618 
184.749 -7.99968 0.0714671 182.781 -7.99913 0.118 180.75 -7.99985 0.0497016 
178.762 -7.99975 0.0626446 176.781 -7.99915 0.116717 174.749 -7.99985 0.0492323 
172.762 -7.99975 0.0633235 170.781 -7.99915 0.116683 168.749 -7.99985 0.0492256 
166.762 -7.99975 0.0634375 164.781 -7.99915 0.116787 162.732 -7.99992 0.0366157 
160.738 -7.99924 0.110005 158.741 -7.99914 0.117492 156.776 -7.99952 0.0880008 
154.78 -7.99915 0.116739 152.732 -7.99992 0.036765 150.738 -7.99924 0.110108 
148.735 -7.99925 0.109791 146.734 -7.99925 0.109766 144.74 -7.99914 0.117443 
142.775 -7.99952 0.0879717 140.78 -7.99915 0.116632 138.749 -7.99985 0.0492152 
136.762 -7.99975 0.0637767 134.781 -7.99915 0.116787 132.732 -7.99992 0.0366596 
130.738 -7.99924 0.11011 128.735 -7.99925 0.109799 126.734 -7.99925 0.109871 
124.734 -7.99925 0.109743 122.734 -7.99925 0.109757 120.74 -7.99914 0.117442 
118.775 -7.99952 0.0879713 116.78 -7.99915 0.116632 114.749 -7.99985 0.0492152 
112.778 -7.99963 0.0766598 110.781 -7.99915 0.116787 108.749 -7.99923 0.11103 
106.738 -7.99924 0.11011 104.735 -7.99925 0.109799 102.734 -7.99925 0.109871 
100.734 -7.99925 0.109751 98.7341 -7.99925 0.109862 96.7341 -7.99925 0.109741 
94.7339 -7.99925 0.109756 92.74 -7.99914 0.117441 90.7755 -7.99952 0.0879904 
88.78 -7.99915 0.116737 86.7489 -7.99923 0.111019 84.738 -7.99924 0.110108 
82.735 -7.99925 0.109791 80.7341 -7.99925 0.109766 78.74 -7.99914 0.117443 
76.7754 -7.99952 0.0879717 74.7797 -7.99915 0.116632 72.749 -7.99985 0.0492152 
70.7784 -7.99963 0.0766598 68.7809 -7.99915 0.116787 66.7491 -7.99923 0.11103 
64.738 -7.99924 0.11011 62.735 -7.99925 0.109799 60.7343 -7.99925 0.109871 
58.7342 -7.99925 0.109743 56.7339 -7.99925 0.109757 54.74 -7.99914 0.117442 
52.7755 -7.99952 0.0879904 50.78 -7.99915 0.116737 48.7489 -7.99923 0.111019 
46.738 -7.99924 0.110108 44.735 -7.99925 0.109799 42.7343 -7.99925 0.109871 
40.7342 -7.99925 0.109751 38.7341 -7.99925 0.109862 36.7341 -7.99925 0.109749 
34.7341 -7.99925 0.109861 32.7341 -7.99925 0.109749 30.7341 -7.99925 0.109861 
28.7341 -7.99925 0.109749 26.7341 -7.99925 0.109861 24.7341 -7.99925 0.109749 
22.7341 -7.99925 0.109861 20.7341 -7.99925 0.109749 18.7341 -7.99925 0.109861 
16.7317 -7.99928 0.107396 14.7338 -7.99943 0.0955059 12.753 -7.99963 0.0766693 
188.585 -7.9937 0.317362 4.32911 1.29574 7.89437 195.602 -1.28153 7.89669 
8.88046 4.24141 -6.7831 190.984 -4.40164 -6.68024 6.73264 6.32965 -4.8924 
193.225 -6.35067 -4.86508 191.07 7.99953 0.0871883 8.92636 -7.99953 0.0869552 
9.42006 -6.05071 -5.23344 190.575 6.06688 -5.21469 7.22136 -1.57565 -7.8433 
192.78 1.57434 -7.84356 8.68017 6.70728 4.36032 7.61024 7.11835 3.65091 
192.683 -6.95222 3.95811 10.4754 -6.72101 -4.33912 189.443 6.68686 -4.39157 
191.445 -6.65061 4.44627 191.775 7.85819 1.49961 8.22372 -7.85821 1.49951 
189.894 -6.76189 4.27514 187.91 -6.78846 4.23282 14.0611 6.7769 4.25131 
16.0767 6.79054 4.22949 18.0962 6.77745 4.25042 20.1017 6.7731 4.25736 
22.1028 6.77207 4.25899 24.1031 6.77186 4.25934 26.1031 6.77182 4.25939 
28.1032 6.77166 4.25965 30.1032 6.77153 4.25986 32.1032 6.77163 4.2597 
34.1032 6.77175 4.25951 36.1032 6.77164 4.25968 38.1032 6.77152 4.25987 
40.1032 6.77163 4.25971 42.1031 6.77174 4.25952 44.1031 6.77179 4.25945 
46.1032 6.77181 4.25942 48.1032 6.77165 4.25966 50.1032 6.77168 4.25962 
52.1031 6.77176 4.2595 54.1031 6.77179 4.25944 56.1031 6.7718 4.25942 
58.1031 6.77181 4.25942 60.1032 6.77181 4.25941 62.1032 6.77166 4.25965 
64.1032 6.77153 4.25986 66.1032 6.77147 4.25995 68.1032 6.77161 4.25973 
70.1032 6.77174 4.25952 72.1032 6.77163 4.25969 74.1032 6.77167 4.25963 
76.1032 6.77176 4.25949 78.1032 6.77164 4.25968 80.1032 6.77152 4.25987 
82.1032 6.77163 4.2597 84.1032 6.77175 4.25951 86.1032 6.77163 4.25969 
88.1032 6.77167 4.25963 90.1032 6.77176 4.25949 92.1032 6.77164 4.25968 
94.1032 6.77152 4.25987 96.1032 6.77163 4.2597 98.1032 6.77175 4.25951 
100.103 6.77164 4.25968 102.103 6.77152 4.25986 104.103 6.77148 4.25994 
106.103 6.77146 4.25996 108.103 6.77145 4.25998 110.103 6.77161 4.25973 
112.103 6.77174 4.25952 114.103 6.77163 4.25969 116.103 6.77167 4.25963 
118.103 6.77175 4.2595 120.103 6.77179 4.25944 122.103 6.7718 4.25942 
124.103 6.77181 4.25942 126.103 6.77181 4.25942 128.103 6.77181 4.25942 
130.103 6.77181 4.25941 132.103 6.77165 4.25966 134.103 6.77168 4.25962 
136.103 6.77176 4.25949 138.103 6.77164 4.25968 140.103 6.77167 4.25963 
142.103 6.77176 4.25949 144.103 6.77164 4.25968 146.103 6.77152 4.25987 
148.103 6.77163 4.2597 150.103 6.77175 4.25951 152.103 6.77163 4.25969 
154.103 6.77167 4.25963 156.103 6.77175 4.2595 158.103 6.77179 4.25944 
160.103 6.77181 4.25941 162.103 6.77165 4.25966 164.103 6.77168 4.25962 
166.103 6.77176 4.25949 168.103 6.77164 4.25968 170.103 6.77167 4.25963 
172.103 6.77176 4.25949 174.103 6.77164 4.25968 176.103 6.77167 4.25963 
178.103 6.77176 4.25949 180.103 6.77164 4.25968 182.103 6.77167 4.25963 
184.103 6.77176 4.25949 186.114 6.77709 4.25101 188.146 6.80696 4.203 
185.901 -6.7773 4.25067 183.899 -6.77264 4.25809 181.897 -6.77181 4.25941 
179.897 -6.77177 4.25947 177.897 -6.77164 4.25968 175.897 -6.77167 4.25963 
173.897 -6.77176 4.25949 171.897 -6.77164 4.25968 169.897 -6.77167 4.25963 
167.897 -6.77176 4.25949 165.897 -6.77164 4.25968 163.897 -6.77167 4.25963 
161.897 -6.77175 4.2595 159.897 -6.77179 4.25944 157.897 -6.77181 4.25941 
155.897 -6.77165 4.25966 153.897 -6.77168 4.25962 151.897 -6.77176 4.2595 
149.897 -6.77179 4.25944 147.897 -6.7718 4.25942 145.897 -6.77181 4.25942 
143.897 -6.77181 4.25941 141.897 -6.77165 4.25966 139.897 -6.77168 4.25962 
137.897 -6.77176 4.25949 135.897 -6.77164 4.25968 133.897 -6.77167 4.25963 
131.897 -6.77175 4.2595 129.897 -6.77179 4.25944 127.897 -6.7718 4.25942 
125.897 -6.77181 4.25942 123.897 -6.77181 4.25942 121.897 -6.77181 4.25942 
119.897 -6.77181 4.25941 117.897 -6.77165 4.25966 115.897 -6.77168 4.25962 
113.897 -6.77176 4.25949 111.897 -6.77164 4.25968 109.897 -6.77167 4.25963 
107.897 -6.77175 4.2595 105.897 -6.77179 4.25944 103.897 -6.7718 4.25942 
101.897 -6.77181 4.25942 99.8969 -6.77181 4.25942 97.8969 -6.77181 4.25942 
95.8969 -6.77181 4.25942 93.8969 -6.77181 4.25942 91.8968 -6.77181 4.25941 
89.8968 -6.77165 4.25966 87.8968 -6.77168 4.25962 85.8969 -6.77176 4.2595 
83.8969 -6.77179 4.25944 81.8969 -6.7718 4.25942 79.8969 -6.77181 4.25942 
77.8968 -6.77181 4.25941 75.8968 -6.77165 4.25966 73.8968 -6.77168 4.25962 
71.8968 -6.77176 4.25949 69.8968 -6.77164 4.25968 67.8968 -6.77167 4.25963 
65.8969 -6.77175 4.2595 63.8969 -6.77179 4.25944 61.8969 -6.7718 4.25942 
59.8969 -6.77181 4.25942 57.8969 -6.77181 4.25942 55.8969 -6.77181 4.25942 
53.8968 -6.77181 4.25941 51.8968 -6.77165 4.25966 49.8968 -6.77168 4.25962 
47.8969 -6.77176 4.2595 45.8969 -6.77179 4.25944 43.8969 -6.7718 4.25942 
41.8969 -6.77181 4.25942 39.8969 -6.77181 4.25942 37.8969 -6.77181 4.25942 
35.8969 -6.77181 4.25942 33.8969 -6.77181 4.25942 31.8969 -6.77181 4.25942 
29.8969 -6.77181 4.25942 27.8969 -6.77181 4.25942 25.8969 -6.77181 4.25942 
23.8969 -6.77181 4.25942 21.8969 -6.77181 4.25942 19.8969 -6.77181 4.25942 
17.8969 -6.77181 4.25942 15.8969 -6.77181 4.25942 13.8865 -6.77725 4.25075 
11.8542 -6.80723 4.20257 12.0848 6.7756 4.25338 190.12 6.95969 3.94497 
9.8802 -6.95984 3.9447 10.2618 6.7733 4.25704 4.98699 3.8074 -7.03589 
194.973 -3.82419 -7.02678 9.57723 6.80437 -4.2072 12.2581 6.73687 -4.31446 
11.7165 -6.80111 -4.21246 13.5916 6.71313 -4.3513 15.9981 -6.81681 -4.18702 
18.0017 6.81706 -4.1866 19.9981 -6.81681 -4.18702 22.0019 6.81681 -4.18702 
23.9981 -6.81681 -4.18702 26.5071 6.79298 -4.22557 28.2317 6.71216 -4.3528 
27.9981 -6.81681 -4.18702 29.7146 6.6546 -4.4403 31.9981 -6.81681 -4.18702 
34.498 6.79094 -4.22884 36.2285 6.71183 -4.35332 35.9981 -6.81681 -4.18702 
37.7124 6.65482 -4.43998 39.9981 -6.81681 -4.18702 42.0018 6.81703 -4.18665 
43.9981 -6.81681 -4.18702 46.3879 6.78244 -4.24246 47.7841 6.68091 -4.40062 
47.9982 -6.81701 -4.1867 52.0018 6.81701 -4.1867 52.2077 -6.68283 -4.3977 
53.6178 -6.78384 -4.24023 56.0019 6.81681 -4.18702 57.9981 -6.81681 -4.18702 
60.5115 6.79455 -4.22304 62.3667 6.72935 -4.32618 61.9981 -6.81681 -4.18702 
64.1575 6.68922 -4.38798 65.6861 6.64774 -4.45057 65.9982 -6.81701 -4.1867 
70.3795 6.78045 -4.24565 70.21 -6.68185 -4.39919 71.7828 6.68031 -4.40153 
71.6247 -6.78187 -4.24338 76.4997 6.79087 -4.22895 76.2062 -6.68223 -4.39862 
78.2294 6.71169 -4.35353 77.6173 -6.78367 -4.24049 79.7138 6.6545 -4.44046 
81.9981 -6.81681 -4.18702 84.3798 6.78042 -4.2457 85.7829 6.6803 -4.40155 
85.9982 -6.81701 -4.1867 90.4997 6.79087 -4.22895 90.2077 -6.68282 -4.39771 
92.2294 6.71169 -4.35353 91.6177 -6.78385 -4.24021 93.7138 6.6545 -4.44046 
95.9981 -6.81681 -4.18702 98.5027 6.79245 -4.22641 100.393 6.73361 -4.31954 
99.9981 -6.81681 -4.18702 102.327 6.71054 -4.3553 104.278 6.69857 -4.37368 
103.998 -6.81681 -4.18702 106.129 6.67983 -4.40226 107.674 6.64516 -4.45442 
107.998 -6.81701 -4.1867 112.379 6.78054 -4.2455 112.21 -6.68183 -4.39922 
113.782 6.6806 -4.40109 113.625 -6.78186 -4.24339 118.002 6.81701 -4.1867 
118.206 -6.68223 -4.39862 119.617 -6.78366 -4.24052 122.002 6.81681 -4.18702 
123.998 -6.81681 -4.18702 126.002 6.81681 -4.18702 127.998 -6.81681 -4.18702 
130.388 6.78235 -4.2426 131.785 6.68062 -4.40106 131.998 -6.81701 -4.1867 
136.381 6.78036 -4.24579 136.209 -6.68211 -4.3988 137.783 6.68026 -4.4016 
137.624 -6.78196 -4.24324 142.5 6.79087 -4.22895 142.206 -6.68223 -4.39861 
144.229 6.71169 -4.35353 143.617 -6.78367 -4.24049 145.714 6.6545 -4.44046 
147.998 -6.81681 -4.18702 150.379 6.7805 -4.24557 151.782 6.68059 -4.40111 
151.998 -6.81701 -4.1867 156.002 6.81701 -4.1867 156.208 -6.68282 -4.39772 
157.618 -6.78384 -4.24023 160.388 6.78236 -4.2426 161.785 6.68062 -4.40106 
161.998 -6.81701 -4.1867 166.381 6.78036 -4.24579 166.209 -6.6821 -4.39881 
167.783 6.68026 -4.4016 167.624 -6.78196 -4.24324 172.381 6.78036 -4.24579 
172.208 -6.68148 -4.39975 173.783 6.68026 -4.4016 173.624 -6.78178 -4.24352 
178.381 6.78036 -4.24579 178.208 -6.6815 -4.39972 179.783 6.68026 -4.4016 
179.624 -6.78182 -4.24346 184.498 6.79469 -4.22282 184.231 -6.68755 -4.39051 
186.279 6.73435 -4.3184 185.692 -6.79781 -4.21779 187.961 6.70186 -4.36865 
7.79126 7.72831 2.06719 2.95102 3.80617 -7.03655 197.042 -3.8091 -7.03497 
187.413 -7.86585 1.45889 31.8805 -7.84011 1.59141 27.8805 -7.84011 1.59141 
23.8805 -7.84011 1.59141 19.8805 -7.84011 1.59141 15.8776 -7.84068 1.58865 
95.8805 -7.84012 1.59141 35.8805 -7.84011 1.59141 39.8805 -7.84011 1.59141 
126.175 7.84388 1.57277 123.881 -7.84012 1.59141 99.8805 -7.84011 1.59141 
57.8805 -7.84012 1.59141 91.8883 -7.83821 1.60077 130.163 7.84366 1.57385 
119.888 -7.83821 1.60077 53.8883 -7.83821 1.60077 60.1682 7.8453 1.56564 
143.837 -7.84366 1.57385 77.8883 -7.83821 1.60077 26.1686 7.84596 1.56236 
81.8806 -7.84012 1.59141 43.8806 -7.84011 1.59142 56.1744 7.84398 1.57226 
147.826 -7.84393 1.57251 127.881 -7.84011 1.59142 103.881 -7.84011 1.59142 
61.8806 -7.84011 1.59142 122.174 7.84398 1.57225 157.838 -7.84373 1.5735 
160.164 7.84396 1.57236 46.1668 7.84765 1.55381 22.2022 7.85283 1.52746 
85.8831 -7.84007 1.59164 47.8832 -7.84007 1.59164 151.829 -7.84615 1.56137 
52.1733 7.84648 1.55972 131.829 -7.84618 1.56124 107.883 -7.84007 1.59164 
65.8832 -7.84007 1.59164 161.827 -7.84636 1.56031 156.172 7.84685 1.55789 
118.173 7.84647 1.55976 136.157 7.84654 1.55944 113.891 -7.83816 1.601 
137.843 -7.84654 1.55945 71.8909 -7.83816 1.601 166.16 7.8468 1.55814 
142.163 7.84827 1.55069 172.159 7.84682 1.55803 178.159 7.84683 1.55796 
184.168 7.8523 1.53016 167.841 -7.84684 1.55794 90.1625 7.84874 1.54833 
76.1632 7.84876 1.54823 173.841 -7.84691 1.55756 42.1867 7.8495 1.54445 
34.1729 7.85088 1.53742 84.1555 7.84864 1.5488 98.1713 7.85056 1.53906 
150.156 7.84864 1.54881 70.1793 7.85118 1.53587 112.156 7.84732 1.55548 
179.842 -7.84754 1.5544 18.2448 7.85764 1.50252 29.8805 -7.84011 1.59141 
25.8805 -7.84011 1.59141 21.8805 -7.84011 1.59141 17.8805 -7.84011 1.59141 
13.9121 -7.852 1.5317 93.8803 -7.84013 1.59133 33.8805 -7.84011 1.59141 
128.172 7.84322 1.57602 121.88 -7.84013 1.59133 97.8805 -7.84011 1.59141 
55.8803 -7.84013 1.59133 37.8805 -7.84011 1.59141 58.1831 7.84455 1.56939 
145.828 -7.84323 1.57598 79.8804 -7.84013 1.59133 41.8806 -7.84011 1.59142 
125.881 -7.84011 1.59142 101.881 -7.84011 1.59142 59.8806 -7.84011 1.59142 
124.175 7.8439 1.57266 24.1855 7.84672 1.55851 89.8964 -7.83798 1.6019 
132.163 7.84491 1.56763 117.896 -7.83798 1.60189 51.8964 -7.83798 1.6019 
62.1608 7.84964 1.54373 141.837 -7.84491 1.56763 75.8964 -7.83798 1.60189 
28.1632 7.84901 1.54696 155.837 -7.84466 1.56886 162.155 7.84415 1.5714 
48.1741 7.8473 1.55558 83.8811 -7.84011 1.59146 45.8811 -7.84011 1.59146 
149.827 -7.84424 1.57096 54.1738 7.84436 1.57035 129.827 -7.84424 1.57094 
105.881 -7.84011 1.59146 63.8811 -7.84011 1.59146 159.829 -7.84364 1.57394 
158.171 7.84394 1.57246 120.174 7.84436 1.57035 44.1689 7.84505 1.56693 
138.164 7.8462 1.56115 135.836 -7.84593 1.5625 111.897 -7.83797 1.60194 
69.897 -7.83797 1.60194 168.171 7.84717 1.55623 144.163 7.84979 1.54297 
174.171 7.84718 1.55622 180.172 7.84773 1.55343 186.126 7.85159 1.53382 
165.829 -7.84688 1.5577 92.1623 7.85006 1.5416 171.829 -7.84722 1.55598 
78.1669 7.85071 1.53831 36.1674 7.85072 1.53825 86.1621 7.84793 1.55243 
100.16 7.85111 1.53628 152.162 7.84767 1.55373 72.1767 7.84891 1.54743 
114.17 7.84712 1.5565 177.83 -7.84746 1.5548 20.2091 7.85865 1.49721 
134.158 7.84512 1.56653 115.89 -7.83989 1.59254 87.8906 -7.83987 1.59263 
49.8906 -7.83987 1.59263 139.842 -7.84512 1.56653 73.8904 -7.83989 1.59254 
164.158 7.84519 1.56622 153.841 -7.8435 1.57462 50.1594 7.84394 1.57246 
140.157 7.84527 1.56579 133.841 -7.84364 1.57395 109.891 -7.83987 1.59264 
67.8908 -7.83987 1.59264 170.157 7.84529 1.5657 176.157 7.84528 1.56574 
182.165 7.84758 1.55419 163.841 -7.84367 1.57381 169.843 -7.84533 1.56549 
88.1557 7.84646 1.55982 154.157 7.84489 1.56772 74.1557 7.84646 1.55983 
116.158 7.84391 1.5726 175.843 -7.84554 1.56443 64.1573 7.85149 1.53433 
30.1671 7.84903 1.54683 146.164 7.84888 1.54758 94.1623 7.84902 1.54692 
80.1668 7.84952 1.54437 38.1711 7.84969 1.54347 102.155 7.85373 1.52278 
32.1692 7.84934 1.54525 148.168 7.84918 1.54608 82.1678 7.8494 1.54498 
96.1688 7.84934 1.54527 40.1829 7.85016 1.5411 66.1603 7.84964 1.54373 
104.156 7.85506 1.5159 68.1662 7.84933 1.54532 110.147 7.84675 1.55837 
106.157 7.85406 1.52108 108.157 7.8501 1.54139 181.846 -7.84734 1.55538 
183.824 -7.85264 1.52843 12.2978 -7.85313 1.52587 16.5934 7.86545 1.46109 
187.678 7.85067 1.53848 185.758 -7.85877 1.49659 194.912 7.90921 1.20185 
5.08769 -7.90921 1.20182 190.504 -6.89163 -4.06269 7.13499 1.13925 7.91847 
174.456 4.34616 -10.1061 186.502 -2.70921 -10.6622 181.938 0.203721 -10.9991 
180.121 -0.0149325 -11.001 178.239 -0.888328 -10.9651 175.981 -0.453316 -10.9917 
172.859 -1.70771 -10.8676 187.862 10.5521 -3.11052 171.393 10.4515 -3.43328 
188.957 -9.1899 6.04712 171.082 -9.08618 6.20189 188.757 -6.38137 8.96103 
171.139 4.55514 10.0136 188.69 -2.01946 10.8141 188.782 2.76357 10.6482 
171.199 2.92685 10.6045 171.301 -2.03717 10.8107 189.312 -1.00138 10.9553 
188.757 1.29316 10.9247 171.186 1.38348 10.9137 170.688 -1.00138 10.9553 
186.308 10.7627 -2.27746 172.883 10.6986 -2.56159 183.181 10.9734 0.778391 
184.624 10.9566 -0.987164 182.476 10.9309 -1.2396 180.718 10.925 -1.29092 
179.137 10.9021 -1.4717 174.537 10.9759 0.743316 173.951 -10.979 -0.694917 
176.43 -10.9973 0.286001 175.195 -10.9762 0.738114 177.808 -10.9686 0.844319 
180.541 -10.9249 -1.29207 183.871 -10.7633 2.27431 186.228 -10.9934 0.408463 
181.498 10.9989 0.215615 177.735 11.0009 0.0446738 178.837 -10.9425 -1.13271 
182.813 -10.9404 1.15291 172.727 -10.7752 -2.21748 187.526 -10.654 -2.74133 
172.83 -10.5294 3.18655 188.437 9.24296 5.96571 171.691 9.3256 5.83568 
171.174 -9.96606 -4.65829 189.004 7.5 -8.04811 171.467 7.52479 -8.02493 
172.362 6.80455 8.64408 188.56 10.0911 -4.38079 171.078 9.83907 -4.92083 
188.555 6.30114 9.01763 171.103 6.23977 9.0602 188.797 2.467 -10.7208 
171.333 2.00364 -10.817 171.66 -6.31687 -9.00662 189.113 -10.7563 2.30719 
188.992 10.7667 2.25821 171.226 10.7646 2.26846 170.797 -10.7331 2.41294 
188.79 4.33201 -10.1122 171.545 4.05858 -10.225 171.755 10.9018 -1.47391 
171.306 7.8162 7.74138 171.352 -8.24751 7.28016 172.639 9.93965 -4.71439 
188.22 -1.94822 -10.8271 171.45 -2.20115 -10.7785 174.769 -6.55313 -8.8362 
185.105 -6.51921 -8.86126 173.863 -5.26627 -9.65859 173.391 -9.60946 5.35539 
173.02 5.17725 -9.7066 184.914 -8.54683 6.9263 184.036 -8.83634 -6.55294 
176.266 -6.17219 -9.10637 175.018 -8.24402 7.2841 186.672 8.70897 6.7213 
173.646 8.85489 6.52785 175.328 8.83391 -6.55622 176.243 -8.96823 6.37125 
185.043 7.95647 7.59714 180.534 8.39403 7.11072 179.354 8.82874 6.56318 
176.267 8.85574 6.5267 183.612 -8.75688 6.65876 182.095 7.84791 7.70923 
179.972 -8.48943 6.99654 181.84 7.18271 -8.33251 182.542 -7.9504 -7.6035 
179.036 7.85518 -7.70183 180.907 -7.29286 -8.23628 177.425 7.61657 -7.93787 
180.45 7.86725 -7.6895 175.673 7.64067 -7.91468 179.436 -8.07604 -7.46991 
179.978 8.89756 -6.46958 180.121 -9.03466 -6.27669 178.397 9.19064 -6.046 
177.942 -8.5159 -6.96429 182.434 6.66543 8.7518 177.921 9.01885 6.29939 
178.013 -8.45025 7.04381 181.961 -8.59279 6.86921 174.823 6.1824 9.09945 
186.732 -9.32105 -5.84294 172.987 -8.45609 -7.03679 174.029 10.2943 -3.87927 
188.158 10.5793 3.01666 172.045 10.365 3.68638 188.809 -7.21868 -8.30136 
170.832 -6.92387 -8.5488 187.649 -10.9641 -0.900619 172.221 -10.9834 -0.62195 
187.534 -9.95883 4.67373 171.66 -9.87378 4.85082 187.492 5.65297 -9.43748 
171.492 5.87909 -9.29829 172.261 5.17385 9.70841 171.389 -4.63385 9.97745 
188.545 -4.96772 9.81549 188.74 4.54709 10.0173 188.869 -7.91758 7.63767 
188.953 10.6824 -2.62837 188.795 -10.8586 -1.76414 171.226 -10.731 -2.42221 
171.323 -4.07109 -10.22 188.58 8.50121 -6.98222 171.33 8.93246 -6.42131 
188.947 10.964 -0.902065 170.879 10.9795 -0.687785 188.704 -10.9943 -0.385082 
171.202 -10.9966 -0.31172 188.419 -10.5446 3.13573 171.376 -10.5008 3.27947 
187.627 3.85438 -10.3037 189.215 10.9964 0.318982 170.823 10.9854 0.586419 
189.175 -10.9916 0.454657 170.751 -10.988 0.53568 188.826 6.08915 -9.16211 
188.982 -10.029 4.52124 170.796 -10.1499 4.24277 188.702 10.0508 4.47258 
170.887 10.2139 4.08633 188.646 0.606399 -10.9843 171.885 -0.000915661 -11.001 
170.655 0.839029 -10.969 173.145 -6.53948 8.84631 174.92 -1.97875 -10.8216 
186.535 10.7122 2.50403 173.457 5.77462 9.36353 185.971 -10.2734 -3.93429 
185.365 -10.8455 1.84296 182.771 2.74246 -10.6537 175.059 -10.057 -4.45861 
185.353 -1.38654 -10.9133 176.316 -4.47462 -10.0499 183.827 5.50563 9.52418 
181.72 10.1679 4.19946 179.711 10.4416 3.46343 179.058 -10.0953 4.3711 
180.167 -10.4985 3.28701 183.506 -10.2124 4.09 183.109 -10.4589 -3.41078 
181.312 -10.7808 2.19016 176.699 10.5354 3.16652 173.815 -5.40277 9.58291 
185.142 -8.00826 -7.54253 183.977 -4.94909 -9.82489 186.407 -5.85225 9.31521 
176.176 -9.52509 -5.50406 185.447 -4.40757 10.0795 176.417 5.88071 9.29727 
174.174 8.00735 -7.5435 173.024 10.7962 2.11274 173.765 -0.500353 -10.9896 
178.084 10.215 4.08362 177.602 -9.8809 4.8363 186.092 5.34204 9.61689 
183.626 -4.07094 10.2201 177.064 10.0893 -4.38498 181.928 5.61165 -9.4621 
179.995 5.23314 9.67658 177.943 4.81545 9.89108 180.439 -5.2316 9.67742 
182.592 -5.62841 9.45214 176.669 -4.85808 9.87021 178.382 -5.36463 9.60431 
178.638 10.3872 -3.62316 177.236 -10.2994 -3.86583 177.876 -5.30552 -9.63709 
175.155 -4.30269 10.1247 185.184 4.24922 10.1472 182.236 4.03187 10.2355 
182.558 9.94581 -4.70137 177.61 4.74614 -9.92452 178.064 -10.6611 -2.71338 
180.348 5.70933 -9.40349 179.526 -6.15749 -9.11632 172.737 8.55248 -6.91933 
184.254 -9.96296 -4.66492 179.906 10.6539 -2.74169 181.465 -10.0497 -4.4751 
180.742 -4.28223 -10.1333 182.341 -5.34761 -9.6138 186.899 9.0407 -6.26799 
179.091 -4.21431 -10.1618 179.604 3.79939 -10.3241 178.722 4.23382 -10.1537 
174.942 9.4923 5.56041 174.796 4.67701 9.95729 172.811 1.43924 -10.9064 
187.418 1.94462 -10.8278 175.699 10.5884 -2.98472 187.385 -6.13128 -9.13397 
173.172 -10.9607 0.941034 181.761 8.81334 -6.58385 176.175 5.85266 -9.31495 
178.751 -9.1902 -6.04667 176.624 8.9214 -6.43666 181.087 -9.40215 -5.71152 
184.984 9.24645 5.9603 172.575 -4.58597 9.99955 172.363 -5.24455 -9.6704 
187.035 -4.61019 9.9884 188.165 -9.31281 -5.85607 171.942 -9.42227 -5.67827 
173.366 3.75515 10.3403 183.278 -6.5619 -8.82969 187.721 -3.87001 -10.2978 
185.821 3.49895 -10.4297 185.26 9.65053 -5.28103 187.494 -8.71458 6.71403 
172.146 -9.06089 6.23878 173.566 -9.67419 -5.23755 186.058 6.95445 -8.52395 
174.044 9.32773 -5.83228 186.891 -10.6963 2.57112 174.333 10.8559 -1.78111 
185.14 10.5066 -3.26093 188.733 -4.77021 -9.91298 171.206 -5.27051 -9.65628 
187.809 10.9456 1.10261 171.818 10.9933 0.412737 172.527 8.11717 7.4252 
185.87 -4.59557 -9.99514 187.995 -10.9338 1.21438 171.811 -10.9038 1.45922 
187.709 10.9328 -1.22304 188.901 -8.40601 -7.09655 171.323 -8.55664 -6.91419 
187.533 -8.10257 -7.44112 171.688 -7.54245 -8.00834 184.313 5.31035 -9.63443 
187.751 -10.0233 -4.53377 172.485 -10.2256 -4.05694 172.094 -5.65698 9.43507 
187.635 -5.72952 9.3912 188.985 -5.90413 -9.28242 170.747 -5.94909 -9.25366 
175.486 -10.9411 -1.14651 172.725 2.01541 10.8148 187.002 1.70548 10.868 
173.001 -1.91919 10.8323 187.107 -1.74559 10.8616 173.387 10.0452 4.48517 
187.64 3.37797 10.4695 172.141 3.66835 10.3714 171.986 -3.45631 10.4439 
187.843 -3.40303 10.4614 188.951 -9.86304 -4.87262 184.579 2.06488 -10.8055 
188.99 -2.92963 -10.6037 171.64 -6.97983 8.50317 187.283 -7.20934 8.30948 
172.917 6.95732 -8.5216 187.417 7.56173 -7.99014 188.082 7.80437 7.75331 
173.591 -3.69074 10.3634 186.334 -3.15139 10.54 184.419 -10.9877 0.539976 
174.768 -3.71193 -10.3558 177.587 -7.27572 -8.25142 185.38 -10.3268 3.79212 
184.03 3.80609 10.3216 176.191 -2.65959 -10.6747 176.392 4.01998 10.2402 
179.765 10.9771 0.724334 179.808 -10.9626 0.91833 177.912 -6.99811 8.48814 
186.145 -10.8677 -1.70712 186.366 3.63242 10.384 184.832 -2.80585 10.6372 
177.006 7.62075 7.93386 184.099 3.73291 -10.3483 181.611 10.7997 2.09507 
176.385 10.901 1.47997 177.813 2.995 -10.5855 186.208 -8.51613 -6.96402 
180.732 6.87195 8.5906 179.327 -7.08795 8.41326 179.078 7.655 7.90083 
181.29 -7.20791 8.31072 181.917 -10.8509 -1.81115 184.64 -3.09286 -10.5573 
183.349 -10.9555 -0.99983 183.318 10.6059 2.92183 186.914 9.97804 4.63257 
183.266 8.03383 -7.51528 181.798 9.15965 6.09285 177.354 10.7855 -2.16672 
183.262 2.7545 10.6506 179.016 -9.37025 5.76371 175.953 -10.0628 4.44548 
184.942 -10.9714 -0.805954 180.662 -9.65379 5.27507 173.112 -6.79099 -8.65474 
183.372 0.985617 -10.9568 185.431 -9.26036 -5.93867 183.953 10.0454 -4.48471 
174.261 -10.8191 1.99246 173.246 -8.21398 7.31796 186.231 1.31603 -10.922 
176.189 -10.6575 -2.72763 183.981 -7.66307 -7.893 184.525 -5.76782 9.36773 
176.184 3.68973 -10.3638 183.445 10.5966 -2.95551 186.331 11.0002 0.132648 
182.662 -9.57794 5.41156 176.587 -8.61323 -6.84356 185.005 10.874 1.66695 
186.255 -8.23984 7.28883 176.423 9.89469 4.80803 173.929 7.36708 8.16995 
184.432 -9.54143 5.47569 177.136 -10.9452 -1.10649 180.372 9.55461 5.45266 
176.646 -2.37292 10.742 183.378 9.76613 5.06406 183.492 8.61008 6.84751 
173.197 10.9953 -0.353848 174.403 6.39912 -8.94837 181.074 9.7478 -5.09925 
177.678 -3.57535 -10.4038 176.963 -6.14717 9.12328 179.248 -10.0089 -4.56551 
182.032 2.475 10.719 179.931 10.0262 -4.52732 181.444 10.5087 -3.25416 
180.546 -10.327 -3.79135 185.774 -1.82264 10.849 177.172 -9.44249 -5.64458 
179.088 9.68772 5.2125 181.798 -10.2989 3.86713 173.872 -2.34855 -10.7474 
184.399 7.0009 -8.48583 177.367 2.26675 10.7649 174.457 -10.2727 3.9362 
181.122 -1.84267 -10.8456 184.981 6.68986 8.73314 178.787 3.47232 10.4386 
180.601 2.99457 10.5856 176.318 -7.45187 8.09269 176.422 -10.9034 1.46234 
179.695 -3.58114 10.4018 183.143 -1.92349 10.8315 183.489 -7.50224 8.04602 
185.099 10.312 3.83201 175.529 -5.89677 9.28709 175.211 8.28122 7.24178 
184.629 -10.6861 -2.61322 183.114 6.20373 -9.08492 181.832 -3.57782 10.4029 
178.591 -10.6171 2.88076 174.152 -10.5948 -2.96176 185.784 5.55745 -9.49404 
183.652 7.22338 8.29727 181.185 -5.97328 -9.23807 181.615 -11.001 0.0287854 
174.976 10.5249 3.2014 182.935 4.64954 -9.97014 178.156 6.36814 -8.97044 
179.042 5.30367 -9.63811 186.843 10.0807 -4.40474 174.733 -9.31758 5.84848 
174.634 1.93783 -10.829 182.481 -10.6424 2.78594 176.007 10.9729 -0.78592 
178.063 10.7826 2.18097 186.291 7.19098 8.32537 181.328 -10.602 -2.93585 
177.103 -10.6253 2.85043 177.447 -2.04861 -10.8086 179.144 -2.6077 -10.6875 
187.107 -0.472807 -10.9908 179.058 1.44211 -10.9061 175.012 -2.3237 10.7528 
185.151 2.279 10.7624 174.895 -8.90505 -6.45926 175.493 9.79127 -5.01528 
179.74 -10.6485 -2.76263 182.517 -9.42605 -5.672 175.477 7.10733 8.39689 
172.967 3.1904 -10.5282 176.429 1.85309 -10.8438 178.062 -9.76489 -5.06644 
180.919 2.03442 -10.8113 187.311 6.47759 8.89173 172.928 -3.53775 -10.4166 
179.642 -1.30684 -10.9231 175.75 -7.62915 -7.92578 174.547 -6.96083 8.51874 
182.819 -3.40381 -10.4612 175.185 2.25016 10.7684 181.939 -6.73746 -8.69647 
185.564 -7.17523 8.33895 186.001 -9.30754 5.86445 182.926 1.14053 10.9417 
187.451 4.98425 9.8071 186.681 4.66312 -9.9638 179.812 6.75874 -8.67994 
185.192 8.29936 -7.22099 175.577 -10.6998 2.55664 184.668 -1.35406 10.9173 
178.55 -1.77467 10.8569 174.235 -10.9801 0.677769 184.987 0.218217 -10.9988 
182.187 1.56879 -10.8886 174.384 -7.72945 -7.828 177.263 -1.05153 10.9506 
183.461 -1.20166 -10.9352 181.135 1.3905 10.9128 186.29 -7.49155 -8.05597 
175.238 -5.49628 -9.52958 179.251 1.68689 10.8709 176.59 1.1854 10.9369 
180.87 -1.82611 10.8484 188.495 -0.820974 -10.9703 181.405 4.12078 -10.2001 
183.161 7.23455 -8.28754 177.584 3.74566 10.3437 177.742 -3.70894 10.3569 
181.863 5.70284 9.40742 188.161 9.43876 -5.65082 180.203 -9.71192 -5.16726 
188.837 -10.4397 -3.469 177.536 1.01788 -10.9538 181.126 -8.60439 -6.85467 
178.335 6.34219 8.98881 179.571 6.56113 8.83027 176.264 -3.56125 10.4086 
183.665 9.21009 -6.01633 190 -9.21303 -4.94189 190 9.21303 -4.94189 
190 0.978851 10.4088 190 -0.978851 10.4088 190 8.12998 -6.57271 
190 -8.12998 -6.57271 190 9.97237 -3.13748 190 -9.97237 -3.13748 
190 2.90202 10.0431 190 -2.90202 10.0431 190 6.94791 -7.93224 
190 -6.94791 -7.93224 190 10.4393 -1.41615 190 -10.4393 -1.41615 
190 -4.57393 9.47787 190 4.57393 9.47787 190 5.377 -8.98582 
190 -5.377 -8.98582 190 4.88341 -9.11316 190 -4.88341 -9.11316 
190 -10.4759 0.492288 190 10.4759 0.492288 190 -10.2968 0.980022 
190 10.2968 0.980022 190 4.89995 9.11923 190 -4.89995 9.11923 
190 10.3098 -0.965202 190 -10.3098 -0.965202 190 -6.51054 -8.05489 
190 6.51054 -8.05489 170 -9.21303 -4.94189 170 9.21303 -4.94189 
170 0.978851 10.4088 170 -0.978851 10.4088 170 8.12998 -6.57271 
170 -8.12998 -6.57271 170 9.97237 -3.13748 170 -9.97237 -3.13748 
170 2.90202 10.0431 170 -2.90202 10.0431 170 6.94791 -7.93224 
170 -6.94791 -7.93224 170 10.4393 -1.41615 170 -10.4393 -1.41615 
170 -4.57393 9.47787 170 4.57393 9.47787 170 5.377 -8.98582 
170 -5.377 -8.98582 170 4.88341 -9.11316 170 -4.88341 -9.11316 
170 -10.4759 0.492288 170 10.4759 0.492288 170 -10.2968 0.980022 
170 10.2968 0.980022 170 4.89995 9.11923 170 -4.89995 9.11923 
170 10.3098 -0.965202 170 -10.3098 -0.965202 170 -6.51054 -8.05489 
170 6.51054 -8.05489 176.995 -1.87709 -9.82327 173.86 0.331041 -9.99552 
178.84 0.870529 -9.96304 181.161 -0.870149 -9.96307 186.14 -0.330991 -9.99552 
183.006 1.87716 -9.82325 172.014 0.0306218 -10.001 175.685 -0.721704 -9.97493 
180 -1.22477e-15 -10.001 184.316 0.721774 -9.97492 187.986 -0.0306218 -10.001 
172.006 9.84649 -1.7512 188.824 9.60338 -2.79199 187.994 -9.84649 -1.7512 
171.176 -9.60337 -2.79201 188.924 9.62135 2.72939 171.076 -9.62135 2.72939 
171.008 9.52026 3.06344 188.794 9.2009 3.91962 188.992 -9.52026 3.06344 
171.206 -9.2009 3.91962 171.206 6.77522 7.35639 188.921 6.4228 7.666 
188.794 -6.77522 7.35639 171.079 -6.4228 7.666 173.141 9.7776 -2.10205 
186.919 9.78472 -2.06863 186.859 -9.7776 -2.10205 173.081 -9.78472 -2.06863 
174.586 9.97878 -0.666343 176.665 9.66553 -2.56855 176.966 9.99822 0.235788 
179.189 9.9692 -0.796933 180.625 9.99878 0.210839 183.151 9.98705 -0.528055 
185.715 9.98518 -0.562338 185.414 -9.97878 -0.666353 183.339 -9.66535 -2.56923 
180.813 -9.96924 -0.796434 183.035 -9.99822 0.235637 179.376 -9.99878 0.210901 
176.849 -9.98705 -0.528055 174.285 -9.98516 -0.562565 178.117 9.9875 0.519493 
182.066 9.99788 0.249766 184.371 9.968 0.811737 181.883 -9.9875 0.519493 
177.935 -9.99788 0.249615 175.629 -9.96801 0.811703 189.194 -9.73103 -2.30805 
170.806 9.73103 -2.30805 171.252 4.44942 8.95671 188.768 4.60858 8.87587 
188.748 -4.44942 8.95671 171.232 -4.60858 8.87587 189.106 9.90192 1.40428 
188.83 -9.932 1.1728 170.894 -9.90192 1.40427 171.17 9.932 1.1728 
172.468 5.33912 -8.45658 172.543 -5.32334 -8.46652 187.457 5.32334 -8.46652 
187.532 -5.33912 -8.45658 173.148 7.96348 -6.05004 173.327 -8.01177 -5.98595 
186.673 8.01177 -5.98595 186.853 -7.96346 -6.05007 174.334 6.92046 7.21992 
185.666 -6.92046 7.21992 176.745 7.82318 6.2304 183.255 -7.82318 6.2304 
180.795 7.43075 6.69357 183.003 7.68081 6.40509 179.205 -7.43075 6.69357 
176.997 -7.68081 6.40509 175.461 6.65514 -7.46519 184.539 -6.65514 -7.46519 
185.674 7.42737 6.69733 174.326 -7.42737 6.69733 176.928 -5.94653 -8.04107 
183.08 5.94793 -8.04003 177.853 6.51955 7.58389 179.595 6.76141 7.36908 
182.057 6.98183 7.16059 183.479 6.42246 7.66629 182.147 -6.51955 7.58389 
180.405 -6.76141 7.36908 177.943 -6.98183 7.16059 176.521 -6.42246 7.66629 
177.199 6.02052 -7.98582 176.744 -8.09099 -5.87843 178.114 -6.86539 -7.27231 
181.87 6.87835 -7.26004 183.32 8.10296 -5.86191 183.119 -6.10825 -7.91892 
178.166 8.52751 -5.2251 178.535 -8.33979 -5.51977 179.732 8.57106 -5.15335 
180.305 -8.54158 -5.20205 181.44 8.32926 -5.53565 181.9 -8.52611 -5.22737 
175.821 -6.94887 -7.19258 184.194 6.95476 -7.18688 184.328 7.51128 6.60308 
175.672 -7.51128 6.60308 175.264 7.69735 6.3852 184.736 -7.69735 6.3852 
178.713 6.6696 -7.45228 180.763 -6.68213 -7.44104 181.98 -6.81006 -7.32415 
187.398 5.57419 8.30352 172.602 -5.57419 8.30352 171.867 5.73351 8.19432 
188.133 -5.73351 8.19432 171.514 3.60732 -9.32777 171.645 -3.55698 -9.34708 
188.355 3.55698 -9.34708 188.486 -3.60732 -9.32777 172.671 7.19379 6.94762 
187.335 7.28997 6.84663 187.329 -7.19379 6.94762 172.665 -7.28997 6.84663 
188.927 8.90607 -4.54993 189.081 -9.28059 -3.727 171.073 -8.90606 -4.54996 
170.919 9.28059 -3.727 171.25 8.14327 5.80578 188.856 7.80552 6.2525 
188.75 -8.14327 5.80578 171.144 -7.80552 6.2525 171.143 9.97179 -0.763842 
188.584 9.98811 0.507554 188.857 -9.97179 -0.763842 171.416 -9.98811 0.507537 
188.808 5.50146 -8.35188 188.98 -5.1468 -8.57499 171.192 -5.50146 -8.35188 
171.02 5.1468 -8.57499 188.589 9.95036 -1.00516 171.411 -9.95036 -1.00517 
171.4 1.67086 -9.86044 171.662 -1.57447 -9.87629 188.338 1.57447 -9.87629 
188.6 -1.67086 -9.86044 172.048 9.71925 2.35717 188.022 9.83788 1.79891 
187.952 -9.71925 2.35717 171.978 -9.83788 1.7989 189.088 8.68838 4.95298 
189.076 -8.9188 4.52493 170.912 -8.68838 4.95298 170.924 8.9188 4.52493 
188.96 8.34222 -5.5161 188.942 -8.34261 -5.51551 171.04 -8.34221 -5.51612 
171.058 8.34261 -5.51551 171.658 2.8828 9.5765 188.53 3.06282 9.52046 
188.342 -2.8828 9.5765 171.47 -3.06282 9.52046 186.641 9.72867 2.31798 
173.359 -9.72867 2.31796 173.174 9.67122 2.54705 186.826 -9.67122 2.54705 
175.9 4.76165 -8.7947 184.1 -4.76165 -8.7947 175.52 -5.35345 -8.44752 
184.481 5.35436 -8.44694 180.791 9.26111 3.77516 182.553 9.36948 3.49756 
179.209 -9.26111 3.77516 177.447 -9.36948 3.49756 175.691 9.52865 3.03725 
184.309 -9.52865 3.03725 177.114 9.80779 1.95634 182.886 -9.80779 1.95634 
176.66 2.76021 -9.61256 183.341 -2.7598 -9.61267 177.293 4.7508 8.80056 
182.707 -4.7508 8.80056 178.969 5.04253 8.63672 181.031 -5.04253 8.63672 
174.252 9.22321 3.86683 185.748 -9.22321 3.86683 179.157 9.15958 4.01522 
180.843 -9.15958 4.01523 173.956 -4.48767 -8.93761 186.045 4.48783 -8.93753 
174.239 4.79023 -8.77916 185.761 -4.79023 -8.77916 185.151 3.75807 9.26806 
174.849 -3.75807 9.26806 174.26 4.3325 9.01385 185.74 -4.3325 9.01385 
178.579 5.07104 -8.62001 181.441 -5.69866 -8.21859 186.202 4.67674 8.84014 
173.798 -4.67674 8.84014 175.479 8.71253 4.91038 184.521 -8.71253 4.91038 
180.8 5.09285 8.60714 182.245 5.51774 8.34113 179.2 -5.09285 8.60714 
177.755 -5.51774 8.34113 175.213 9.34966 -3.55018 184.787 -9.34966 -3.55018 
175.719 4.47383 8.94454 184.281 -4.47383 8.94454 183.592 8.5954 5.11264 
176.408 -8.5954 5.11264 185.153 8.46348 5.32819 174.847 -8.46348 5.32819 
183.814 4.56561 8.89804 176.186 -4.56561 8.89804 180.366 5.66013 -8.24518 
179.647 -5.65598 -8.24802 178.16 -4.92039 -8.70688 181.846 4.91946 -8.7074 
179.148 -3.56159 -9.34532 180.855 3.56236 -9.34503 187.853 8.33356 -5.52918 
172.147 -8.33356 -5.52918 172.217 8.43855 -5.36758 187.783 -8.43854 -5.36759 
177.175 7.64949 -6.44246 183.313 -7.63277 -6.46226 184.56 9.11679 -4.11146 
175.443 -9.11456 -4.1164 178.791 7.81474 -6.24098 181.263 -7.72054 -6.35714 
180.17 7.40094 -6.72652 179.484 -7.3137 -6.82127 176.805 -4.03928 -9.149 
183.196 4.03928 -9.149 172.507 2.76662 -9.61071 187.493 -2.76662 -9.61071 
182.56 9.182 -3.96369 177.451 -9.18152 -3.96481 173.634 9.06158 -4.23175 
186.366 -9.06158 -4.23175 186.4 9.04006 -4.27753 173.601 -9.03973 -4.27823 
172.875 9.9968 0.289957 187.125 -9.9968 0.289957 187.204 9.99562 0.32797 
172.796 -9.99562 0.327923 172.25 -6.93532 -7.20564 187.75 6.93532 -7.20564 
172.118 9.23075 -3.84879 187.882 -9.23075 -3.84879 187.785 9.21826 -3.87862 
172.215 -9.21819 -3.87878 172.594 4.26443 9.04625 187.406 -4.26443 9.04625 
187.516 3.99837 9.16695 172.484 -3.99837 9.16695 188.901 7.0954 -7.04807 
188.287 -6.93627 -7.20474 171.099 -7.0954 -7.04807 171.713 6.93627 -7.20473 
187.792 8.61775 5.07488 172.208 -8.61775 5.07488 175.302 3.29158 -9.44381 
184.698 -3.2915 -9.44384 178.309 2.86686 -9.58129 181.759 -2.47338 -9.69032 
172.36 9.06915 4.21551 187.64 -9.06915 4.21551 186.388 9.08673 4.17748 
173.612 -9.08673 4.17748 182.186 3.57388 9.34063 177.814 -3.57388 9.34063 
178.242 3.28414 9.4464 181.758 -3.28414 9.4464 180.071 3.49759 9.36946 
179.929 -3.49759 9.36946 179.819 2.12054 -9.7736 180.184 -2.11956 -9.77382 
173.4 -2.46712 -9.69192 186.6 2.46715 -9.69191 175.273 -2.96886 -9.55017 
184.728 2.96907 -9.55011 177.976 -3.16381 -9.48738 182.026 3.16381 -9.48738 
175.735 9.97811 0.676278 184.265 -9.97811 0.676278 176.08 6.33873 7.73566 
183.92 -6.33873 7.73566 178.655 9.46406 -3.2329 181.36 -9.46287 -3.23636 
180.716 9.29241 -3.69745 179.287 -9.29292 -3.69617 174.767 -8.1014 -5.86406 
185.238 8.10582 -5.85796 175.007 8.17811 -5.75661 184.996 -8.178 -5.75676 
181.098 6.39903 7.68586 178.902 -6.39903 7.68586 183.885 2.52575 9.67681 
176.115 -2.52575 9.67681 180.211 9.81435 -1.92317 179.794 -9.81425 -1.92367 
177.636 9.93709 -1.1288 182.367 -9.93702 -1.12947 173.922 2.53655 -9.67398 
186.078 -2.53654 -9.67399 183.103 9.87833 1.56158 176.897 -9.87834 1.56155 
186.848 2.37127 9.71582 173.152 -2.37127 9.71582 173.566 2.83676 9.59025 
186.434 -2.83676 9.59025 177.306 0.590286 -9.98356 182.696 -0.589921 -9.98359 
175.454 9.80892 -1.95065 184.546 -9.80892 -1.95065 185.418 9.69618 -2.45032 
174.582 -9.69593 -2.45132 184.472 9.95674 -0.939847 175.528 -9.95672 -0.940053 
178.403 8.08551 5.88596 181.597 -8.08551 5.88596 174.327 9.71915 -2.35758 
185.673 -9.71915 -2.35758 174.821 5.70742 8.21251 185.179 -5.70742 8.21251 
174.34 9.85994 1.67378 185.66 -9.85994 1.67378 176.748 8.89324 -4.57496 
183.257 -8.89326 -4.57492 181.784 8.33547 5.52629 178.216 -8.33547 5.52629 
180.076 8.3168 5.55435 179.924 -8.3168 5.55435 184.906 5.92551 8.05657 
175.094 -5.92551 8.05657 177.24 9.11963 4.10516 182.76 -9.11963 4.10516 
177.262 4.40049 -8.98085 182.365 -4.34063 -9.00994 176.496 3.16862 9.48577 
183.504 -3.16862 9.48577 179.148 1.7161 9.85266 180.852 -1.7161 9.85266 
181.096 1.82298 9.83345 178.904 -1.82298 9.83345 185.137 1.76125 9.84469 
174.863 -1.76125 9.84469 183.638 9.74044 -2.26799 176.364 -9.7399 -2.2703 
175.144 1.64431 9.8649 184.856 -1.64431 9.8649 178.635 -1.342 -9.91055 
181.366 1.34237 -9.9105 173.993 -6.55346 -7.55461 186.008 6.55511 -7.55318 
178.518 9.71387 2.37921 181.482 -9.71387 2.37923 185.733 9.92877 1.19976 
174.267 -9.92878 1.1997 175.453 1.42155 -9.89946 184.548 -1.42138 -9.89948 
181.548 9.81884 1.90008 178.452 -9.81885 1.90006 180.239 9.75851 2.18896 
179.761 -9.7585 2.18897 173.673 6.73827 -7.39024 186.328 -6.73824 -7.39027 
181.852 9.85067 -1.72753 178.151 -9.8506 -1.72792 174.187 -1.38722 -9.90432 
185.813 1.38729 -9.90431 173.684 8.33363 5.52907 186.316 -8.33363 5.52907 
184.66 9.51131 3.09113 175.34 -9.51131 3.09112 173.481 5.85485 8.10806 
186.519 -5.85485 8.10806 172.886 -3.98537 -9.17261 187.114 3.98542 -9.17259 
172.953 3.85818 -9.22683 187.047 -3.85818 -9.22683 186.461 8.25831 5.64096 
173.539 -8.25831 5.64095 186.246 6.33565 7.73819 173.754 -6.33565 7.73819 
179.338 9.95977 0.907126 180.663 -9.95976 0.907243 173.025 -1.01901 -9.94895 
186.975 1.01903 -9.94895 172.733 1.42608 -9.8988 187.267 -1.42608 -9.8988 
187.623 9.41168 3.38236 172.377 -9.41168 3.38236 176.227 9.96445 -0.854257 
183.774 -9.96444 -0.85433 179.581 3.93981 -9.19227 180.757 -4.02298 -9.15618 
182.762 1.64276 9.86516 177.238 -1.64276 9.86516 172.946 1.44691 9.89578 
187.054 -1.44691 9.89578 183.116 7.01365 -7.12943 176.902 -7.00505 -7.13787 
175.097 3.1105 9.50499 184.903 -3.1105 9.50499 172.545 8.24483 5.66063 
187.455 -8.24483 5.66063 177.172 1.65023 9.86391 182.828 -1.65023 9.86391 
188.675 1.48857 9.8896 171.325 -1.48857 9.8896 171.321 1.2646 9.92072 
188.679 -1.2646 9.92072 95.541 -4.34318 -10.1074 54.4546 4.34555 -10.1063 
97.1407 1.70782 -10.8676 93.9574 0.0797274 -11.0007 91.922 0.885811 -10.9653 
89.9567 0.588387 -10.9853 87.8006 0.11321 -11.0004 85.4802 -0.341243 -10.9957 
83.5059 -0.407626 -10.9934 81.5336 -0.410582 -10.9933 79.5424 -0.417841 -10.9931 
77.5462 -0.414684 -10.9932 75.5494 -0.419928 -10.993 73.5526 -0.418578 -10.993 
71.5535 -0.414745 -10.9932 69.5675 -0.419809 -10.993 67.5986 -0.412587 -10.9933 
65.6652 -0.385811 -10.9942 63.7791 -0.364677 -10.995 61.563 -0.101224 -11.0005 
59.8133 0.0199545 -11.001 58.2434 -0.966055 -10.9585 56.1275 -0.179503 -10.9995 
52.8594 -1.70773 -10.8676 98.6075 -10.4515 -3.43328 51.3925 10.4515 -3.43328 
98.9176 9.08618 6.20189 51.0826 -9.08618 6.20189 98.8612 -4.55514 10.0136 
51.1388 4.55514 10.0136 98.8009 -2.92639 10.6046 98.6928 2.0307 10.8119 
51.1991 2.92639 10.6046 51.3072 -2.0307 10.8119 98.8135 -1.38297 10.9137 
99.3125 1.00138 10.9553 51.1865 1.38297 10.9137 50.6875 -1.00138 10.9553 
52.8832 10.6986 -2.56159 97.1168 -10.6986 -2.56159 96.0487 10.979 -0.694917 
93.1835 11.0008 0.0661423 94.7223 10.9783 0.706335 92.1648 10.9143 1.37878 
89.46 10.9305 -1.24385 87.7819 10.9729 -0.785779 86.867 10.876 -1.65337 
86.0431 10.9714 -0.806473 84.9191 10.8744 -1.66395 84.1793 10.9795 -0.687163 
82.956 10.8773 -1.64522 80.9583 10.8773 -1.64526 82.1812 10.9766 -0.73264 
80.1858 10.9796 -0.68538 78.9585 10.8772 -1.64553 76.9579 10.8772 -1.64584 
78.1817 10.9765 -0.733113 76.1845 10.9796 -0.686124 74.9558 10.8788 -1.63541 
74.1799 10.9795 -0.68772 72.9562 10.8772 -1.64554 70.9577 10.8772 -1.64558 
72.1812 10.9766 -0.732708 70.1845 10.9796 -0.686092 68.9558 10.8788 -1.6354 
68.1799 10.9795 -0.687719 66.9524 10.8782 -1.63924 64.9718 10.9525 -1.03226 
66.1662 10.9782 -0.707442 64.0362 10.9936 -0.403436 61.2713 10.901 -1.48 
62.7243 10.9724 -0.792982 60.2031 10.991 -0.469606 59.1396 10.9714 -0.806006 
56.3137 10.9932 -0.413696 54.6065 10.9723 0.793501 53.9543 -10.9786 -0.701439 
55.2753 -10.9793 0.690383 56.8165 -11.0009 0.0384381 57.832 -10.916 1.36518 
60.54 -10.9305 -1.24333 62.2157 -10.9723 -0.793653 63.1293 -10.8741 -1.66588 
65.0419 -10.8774 -1.6446 63.9574 -10.97 -0.825723 65.8142 -10.9796 -0.685285 
67.0408 -10.8773 -1.64512 68.9698 -10.9374 -1.18143 67.8167 -10.9766 -0.732108 
71.0392 -10.8772 -1.64554 69.8124 -10.9767 -0.730731 71.8138 -10.9796 -0.685981 
73.0406 -10.8772 -1.64545 74.9696 -10.9374 -1.18143 73.8167 -10.9766 -0.732151 
77.0392 -10.8772 -1.64554 75.8124 -10.9767 -0.730731 77.8138 -10.9796 -0.685981 
79.0413 -10.8772 -1.64582 81.0414 -10.8772 -1.64555 79.8182 -10.9765 -0.733135 
81.8142 -10.9796 -0.685412 83.0447 -10.8782 -1.63906 85.0221 -10.9525 -1.03176 
83.8322 -10.9782 -0.707652 85.9542 -10.9936 -0.402457 88.9078 -10.9424 -1.13408 
87.2576 -10.9749 -0.757263 90.5372 -10.9872 -0.551385 93.6761 -10.9938 -0.398648 
95.3908 -10.972 0.797583 91.4045 10.995 -0.363542 58.1206 10.9993 0.195973 
58.5916 -10.9945 -0.378821 91.856 -10.9985 0.232664 97.2725 10.7752 -2.21748 
52.7286 -10.7749 -2.21896 97.1701 10.5294 3.18655 52.8313 -10.5294 3.18654 
51.6908 9.3256 5.83568 98.3092 -9.3256 5.83568 98.8265 9.96606 -4.65829 
51.1737 -9.96598 -4.65847 98.5328 -7.52474 -8.02498 51.4671 7.52479 -8.02493 
52.3618 6.80455 8.64408 97.6382 -6.80455 8.64408 98.9223 -9.83907 -4.92083 
51.0777 9.83907 -4.92083 51.1032 6.23977 9.0602 98.8968 -6.23977 9.0602 
98.6668 -2.00398 -10.8169 51.3332 2.00354 -10.817 98.2366 6.35534 -8.97951 
51.7619 -6.35472 -8.97995 98.7738 -10.7646 2.26846 99.2033 10.7331 2.41294 
51.2262 10.7646 2.26846 50.797 -10.7332 2.41271 98.4548 -4.05876 -10.2249 
51.5453 4.0585 -10.225 98.2446 -10.9018 -1.47391 51.7554 10.9018 -1.47391 
98.6942 -7.8162 7.74138 98.6474 8.24726 7.28043 51.3058 7.8162 7.74138 
51.3529 -8.24731 7.28038 97.3611 -9.93965 -4.71439 52.6389 9.93965 -4.71439 
98.55 2.20117 -10.7785 51.45 -2.20115 -10.7785 95.0286 6.64085 -8.77047 
54.9577 -6.63484 -8.77502 95.9507 5.3644 -9.60444 54.0445 -5.36342 -9.60498 
96.6092 9.60946 5.35539 53.3919 -9.60947 5.35539 96.9787 -5.17653 -9.70699 
53.02 5.17707 -9.7067 93.5792 6.23802 -9.06141 56.3743 -6.2206 -9.07338 
94.9911 8.25067 7.27657 55.0099 -8.251 7.2762 53.6464 8.85489 6.52785 
96.3536 -8.85489 6.52785 94.6844 -8.82718 -6.56528 55.3155 8.82722 -6.56523 
93.7609 8.96766 6.37206 56.2405 -8.96806 6.37149 88.8856 8.8687 6.50909 
87.4053 8.79415 6.60946 85.4579 8.78508 6.62151 83.4739 8.77662 6.63271 
81.4769 8.77498 6.63489 79.4774 8.77466 6.63531 77.4775 8.77461 6.63537 
75.4774 8.77463 6.63536 73.4775 8.77459 6.63541 71.4775 8.7746 6.63539 
69.4774 8.77462 6.63536 67.4775 8.77459 6.63541 65.4775 8.7746 6.63539 
63.5049 8.68698 6.74969 61.498 8.76568 6.64717 59.908 8.35015 7.1622 
56.5441 9.05168 6.25213 61.1143 -8.86861 6.50921 62.5945 -8.79413 6.60948 
64.5419 -8.78507 6.62153 66.5261 -8.77663 6.6327 68.523 -8.77495 6.63493 
70.5225 -8.77468 6.63529 72.5225 -8.77461 6.63538 74.5223 -8.77457 6.63542 
76.5224 -8.77461 6.63538 78.5225 -8.7746 6.63539 80.5224 -8.7746 6.63539 
82.5225 -8.7746 6.6354 84.5223 -8.77457 6.63543 86.4949 -8.68695 6.74973 
88.5019 -8.76563 6.64723 90.0919 -8.35009 7.16226 93.4559 -9.05168 6.25212 
92.6329 -7.61701 -7.93745 87.5938 7.86138 -7.6955 88.4669 -7.82539 -7.73209 
85.5472 7.6045 -7.94944 86.2924 -7.65583 -7.90002 83.5895 7.72944 -7.82801 
84.2638 -7.55474 -7.99675 81.5896 7.7278 -7.82963 82.2651 -7.55762 -7.99402 
79.59 7.73154 -7.82594 80.265 -7.5577 -7.99394 77.5899 7.72829 -7.82914 
78.2649 -7.55767 -7.99397 75.59 7.7316 -7.82588 76.2636 -7.55785 -7.99381 
73.5899 7.72832 -7.82912 74.2662 -7.55751 -7.99412 71.59 7.73165 -7.82583 
72.2652 -7.5576 -7.99404 69.5897 7.72839 -7.82905 70.2637 -7.55783 -7.99383 
67.5758 7.7298 -7.82765 68.2674 -7.55724 -7.99438 65.5182 7.73645 -7.82109 
66.2696 -7.55538 -7.99613 63.4866 7.69079 -7.86599 64.1935 -7.51108 -8.03777 
61.3079 7.49348 -8.05418 62.0514 -8.12269 -7.41916 57.3671 7.61701 -7.93745 
90.6579 8.35121 7.16096 59.3421 -8.35118 7.16099 93.7791 7.80791 -7.74974 
94.343 -7.63253 -7.92253 90.3781 7.49817 -8.04981 90.9506 -8.02507 -7.52465 
88.7547 7.20293 -8.31504 89.8853 -7.10132 -8.40198 87.3128 -7.29088 -8.23802 
84.5976 7.38305 -8.15553 85.2817 -7.31584 -8.21587 80.5973 7.38502 -8.15374 
81.284 -7.31917 -8.2129 83.2839 -7.31908 -8.21298 76.5973 7.38504 -8.15372 
77.284 -7.31916 -8.21291 79.284 -7.31918 -8.21289 75.284 -7.31918 -8.21289 
71.284 -7.31916 -8.21291 72.5973 7.38507 -8.1537 73.284 -7.31918 -8.21289 
68.5971 7.38509 -8.15368 69.284 -7.31918 -8.21289 65.2737 -7.3162 -8.21555 
67.284 -7.31918 -8.21289 62.9119 -7.23327 -8.28866 58.9865 8.02598 -7.52368 
59.6188 -7.44974 -8.09465 55.6537 7.63442 -7.92071 56.2012 -7.79703 -7.76069 
91.9635 8.53101 -6.94578 91.7511 -9.08401 -6.20505 58.2493 9.08346 -6.20587 
58.0365 -8.531 -6.94579 90.8992 5.90181 -9.28389 58.8566 -5.62341 -9.45512 
92.3134 8.57636 6.88971 58.4115 8.66315 6.78025 57.687 -8.57651 6.88952 
91.5884 -8.66311 6.7803 54.9613 6.57127 8.82272 95.0387 -6.57127 8.82272 
96.6566 8.585 -6.87893 53.3405 -8.58343 -6.8809 95.971 -10.2943 -3.87927 
54.029 10.2943 -3.87927 97.9554 -10.365 3.68638 52.0446 10.365 3.68638 
99.1177 6.90475 -8.56425 50.8821 -6.90463 -8.56435 97.7786 10.9834 -0.62195 
52.2225 -10.9833 -0.623336 98.3398 9.87379 4.85081 51.6607 -9.87379 4.85079 
98.5081 -5.87894 -9.29839 51.4916 5.87905 -9.29832 98.6134 4.63449 9.97715 
52.2612 5.17385 9.70841 51.3866 -4.63449 9.97715 97.7388 -5.17385 9.70841 
98.7739 10.731 -2.42221 51.2266 -10.7309 -2.42274 98.5578 4.0598 -10.2245 
51.4419 -4.05994 -10.2244 98.67 -8.93246 -6.42131 51.33 8.93246 -6.42131 
99.1208 -10.9795 -0.687785 50.8792 10.9795 -0.687785 98.7981 10.9966 -0.31172 
51.2025 -10.9966 -0.312366 98.6244 10.5008 3.27947 51.376 -10.5008 3.27946 
99.1768 -10.9854 0.586419 50.8232 10.9854 0.586419 99.249 10.988 0.53568 
50.7513 -10.988 0.535291 99.2036 10.1499 4.24277 50.7966 -10.1499 4.24277 
99.1133 -10.2139 4.08633 50.8867 10.2139 4.08633 98.1151 0.000966784 -11.001 
51.8849 -0.000924865 -11.001 99.3448 -0.839029 -10.969 50.6552 0.839029 -10.969 
96.8554 6.53948 8.84631 53.1446 -6.53948 8.84631 94.639 1.99438 -10.8187 
55.3653 -2.01009 -10.8158 53.4567 5.77462 9.36353 96.5433 -5.77462 9.36353 
94.593 10.0837 -4.39792 55.4058 -10.0827 -4.40003 94.0724 4.70589 -9.94367 
55.9277 -4.70781 -9.94277 90.7747 10.0955 4.37071 90.1696 10.5924 2.97048 
87.7191 10.4207 3.52591 63.7799 10.3305 3.78198 62.1564 10.5459 3.13157 
59.6126 10.4365 3.47871 56.7881 10.5905 2.97698 59.2258 -10.0955 4.37076 
59.8306 -10.5923 2.97066 62.2799 -10.4208 3.52536 86.2004 -10.3312 3.78 
87.7727 -10.5596 3.08494 90.3601 -10.4222 3.52136 93.2044 -10.5873 2.98844 
88.9438 10.7569 2.30443 86.1013 10.5726 3.04026 84.4329 10.5421 3.14428 
82.4482 10.5413 3.14696 80.4514 10.541 3.14795 78.4521 10.5409 3.14819 
76.4514 10.5407 3.14894 74.4512 10.5407 3.14899 72.4518 10.5408 3.14845 
70.4513 10.5407 3.14901 68.451 10.5405 3.14944 66.442 10.5346 3.16911 
64.9403 10.6517 2.75006 60.7209 10.6621 2.70953 61.056 -10.7567 2.30569 
63.8966 -10.5731 3.0383 65.5655 -10.5423 3.1434 67.5503 -10.5416 3.14603 
69.5474 -10.5412 3.14717 71.5474 -10.541 3.14799 73.5468 -10.5411 3.14753 
75.5467 -10.5411 3.14753 77.5473 -10.541 3.14804 79.5476 -10.5409 3.14821 
81.5479 -10.5408 3.1487 83.5567 -10.5347 3.16906 85.0572 -10.6514 2.75136 
89.3079 -10.7408 2.37827 96.1084 5.34441 9.61558 53.8917 -5.34443 9.61557 
56.1746 5.6776 9.42268 93.8254 -5.6776 9.42268 95.8305 -8.00445 -7.54658 
54.1684 8.00506 -7.54593 53.0237 10.7962 2.11274 96.9763 -10.7962 2.11274 
96.2346 0.49225 -10.99 53.7658 -0.501864 -10.9895 58.1646 9.96971 4.65048 
91.8349 -9.9696 4.6507 92.4759 9.91206 4.77211 57.5256 -9.91233 4.77155 
57.0979 10.0565 -4.45973 92.9013 -10.0566 -4.45955 89.4572 5.13223 9.73048 
87.3094 5.23458 9.6758 85.5872 4.39958 10.0829 83.7397 5.37143 9.6005 
81.6611 4.42154 10.0733 79.7565 5.37304 9.5996 77.664 4.42172 10.0733 
75.757 5.37301 9.59962 73.6641 4.42171 10.0733 71.757 5.37301 9.59962 
69.6641 4.42171 10.0733 67.757 5.37301 9.59962 65.6641 4.42171 10.0733 
63.7562 5.37327 9.59948 61.6866 4.41309 10.077 59.97 5.37228 9.60003 
57.7183 5.45697 9.55214 60.5428 -5.13223 9.73048 62.6906 -5.23458 9.6758 
64.4128 -4.39958 10.0829 66.2603 -5.37143 9.6005 68.3389 -4.42154 10.0733 
70.2435 -5.37304 9.5996 72.336 -4.42172 10.0733 74.243 -5.37301 9.59962 
76.3359 -4.42171 10.0733 78.243 -5.37301 9.59962 80.3359 -4.42171 10.0733 
82.243 -5.37301 9.59962 84.3359 -4.42171 10.0733 86.2438 -5.37327 9.59948 
88.3134 -4.41309 10.077 90.03 -5.37228 9.60003 92.2817 -5.45697 9.55214 
93.2349 4.70165 9.94568 56.7651 -4.70166 9.94567 91.6859 5.33817 9.61904 
58.3142 -5.33817 9.61904 88.6999 10.3834 -3.63418 86.539 10.3614 -3.69651 
84.4938 10.3539 -3.71736 82.4799 10.3587 -3.70401 80.4778 10.3578 -3.70654 
78.4779 10.358 -3.70593 76.4772 10.3519 -3.72289 74.4756 10.3549 -3.71459 
72.4768 10.3581 -3.70574 70.4763 10.3552 -3.71364 68.4893 10.3486 -3.73209 
66.5275 10.3602 -3.69982 64.753 10.4025 -3.57898 62.278 10.6993 -2.55891 
60.9109 10.4783 -3.3507 61.2998 -10.3832 -3.63475 63.462 -10.3649 -3.68661 
65.5028 -10.3383 -3.76051 67.5031 -10.3289 -3.78622 69.5008 -10.3254 -3.79587 
71.501 -10.3237 -3.80055 73.5009 -10.3233 -3.80153 75.4999 -10.3236 -3.80057 
77.5008 -10.3243 -3.79881 79.501 -10.327 -3.79147 81.4969 -10.3341 -3.77212 
83.4648 -10.3527 -3.72079 85.231 -10.4015 -3.58199 87.6853 -10.711 -2.50944 
89.0033 -10.5002 -3.28135 59.17 10.1456 -4.25313 90.7868 -10.1659 -4.20441 
93.0011 10.3066 -3.84659 56.9995 -10.3055 -3.8496 94.7769 4.12849 10.1969 
55.2231 -4.12849 10.1969 92.2241 -4.63987 -9.97465 57.6575 4.76179 -9.91702 
91.4194 10.4497 -3.43882 58.5832 -10.4482 -3.44347 52.7371 8.55248 -6.91933 
97.2629 -8.55248 -6.91933 92.4246 4.85943 -9.86955 57.3611 -4.80362 -9.89683 
87.782 10.7017 -2.54863 85.7259 10.6969 -2.56867 83.7283 10.6966 -2.57007 
81.7351 10.6973 -2.56692 79.7312 10.6961 -2.57197 77.7355 10.6972 -2.56754 
75.7299 10.696 -2.57248 73.7287 10.6964 -2.57073 71.7351 10.6973 -2.56694 
69.7299 10.696 -2.57247 67.7287 10.6964 -2.57073 65.7349 10.6974 -2.56678 
63.8952 10.7735 -2.2256 59.7255 10.7899 -2.14457 62.2171 -10.7014 -2.55004 
64.2658 -10.6978 -2.56514 66.2689 -10.6961 -2.57193 68.2633 -10.6973 -2.56703 
70.2621 -10.6969 -2.56876 72.2685 -10.696 -2.57252 74.2633 -10.6973 -2.56703 
76.2621 -10.6969 -2.56876 78.2685 -10.696 -2.57252 80.2645 -10.6972 -2.56754 
82.2688 -10.6961 -2.57198 84.2635 -10.6973 -2.56687 86.0854 -10.776 -2.21367 
90.2454 -10.7645 -2.26859 58.6661 -4.1076 -10.2054 90.7541 -3.71025 -10.3565 
64.0327 -3.74511 -10.3439 59.3741 3.3249 -10.4865 58.6584 4.17614 -10.1775 
88.2851 4.19578 -10.1694 89.1109 -4.14028 -10.1922 87.3397 -4.16882 -10.1805 
84.4561 4.32077 -10.117 85.4457 -4.16695 -10.1813 80.4652 4.34332 -10.1073 
81.4229 -4.16674 -10.1814 83.5114 -4.15294 -10.187 76.4654 4.34357 -10.1072 
77.4228 -4.16643 -10.1815 79.5075 -4.15124 -10.1877 75.4639 -4.15869 -10.1847 
71.4204 -4.16624 -10.1816 72.4654 4.34358 -10.1072 73.5139 -4.14981 -10.1883 
68.4613 4.34499 -10.1066 69.4647 -4.15874 -10.1846 64.5115 4.19673 -10.169 
65.56 -4.08616 -10.214 67.5373 -4.13648 -10.1937 60.8581 3.91233 -10.2818 
61.4919 -4.55858 -10.0121 62.5782 4.11788 -10.2012 62.7671 -4.06876 -10.2209 
54.9589 9.5698 5.42595 95.041 -9.56965 5.42621 54.7958 4.67732 9.95714 
95.2042 -4.67732 9.95714 97.1886 -1.44076 -10.9062 52.8116 1.43892 -10.9065 
55.8711 10.5876 -2.98734 94.1191 -10.5914 -2.97387 96.8281 10.9607 0.941034 
53.1744 -10.961 0.937203 93.8067 -5.8311 -9.32847 56.1698 5.85237 -9.31514 
89.1639 8.24276 -7.28552 86.4908 8.41311 -7.08813 84.696 8.4092 -7.09277 
82.7206 8.41202 -7.08943 80.7187 8.62755 -6.82549 78.7242 8.44411 -7.05118 
76.7292 8.41586 -7.08487 74.7257 8.4134 -7.08778 72.7187 8.62755 -6.82549 
70.7241 8.44417 -7.05109 68.7245 8.41547 -7.08533 66.6974 8.4196 -7.08042 
64.699 8.3874 -7.11854 62.569 8.44401 -7.05129 60.8453 -8.24375 -7.2844 
63.3325 -8.44226 -7.05339 65.2197 -8.37988 -7.12739 67.2084 -8.37607 -7.13186 
69.2064 -8.37594 -7.13201 71.2058 -8.37588 -7.13209 73.2062 -8.37591 -7.13204 
75.206 -8.37596 -7.13199 77.2057 -8.37589 -7.13207 79.2059 -8.37595 -7.13201 
81.206 -8.37597 -7.13198 83.206 -8.37581 -7.13216 85.2018 -8.36821 -7.14108 
87.0094 -8.34392 -7.16945 90.2916 8.93933 -6.41173 59.7154 -8.93166 -6.42241 
56.5837 8.89738 -6.46983 93.4162 -8.89736 -6.46985 97.3801 4.54033 10.0203 
52.62 -4.54034 10.0203 97.5206 5.2937 -9.64358 52.4771 -5.29318 -9.64387 
98.0162 9.42425 -5.67498 51.9837 -9.424 -5.67541 53.3655 3.75515 10.3403 
96.6345 -3.75515 10.3403 97.8539 9.06095 6.23868 52.1467 -9.06099 6.23863 
96.3028 9.7931 -5.01171 53.6963 -9.79227 -5.01333 54.0439 9.32773 -5.83228 
95.9561 -9.32773 -5.83228 54.49 10.8895 -1.56258 95.5064 -10.8902 -1.55744 
98.687 5.2956 -9.64254 51.313 -5.29562 -9.64253 98.1825 -10.9933 0.412737 
51.8175 10.9933 0.412737 52.5268 8.11717 7.4252 97.4732 -8.11717 7.4252 
98.1889 10.9038 1.45922 51.812 -10.9039 1.4583 98.5668 8.60277 -6.8567 
51.4327 -8.6024 -6.85717 98.1924 7.60043 -7.95333 51.8064 -7.59978 -7.95395 
97.5154 10.2256 -4.05694 52.4852 -10.2254 -4.05743 97.8858 5.63988 9.4453 
52.1143 -5.63989 9.44529 99.1969 5.9835 -9.23145 50.803 -5.98341 -9.23151 
94.4409 10.928 -1.26494 55.5585 -10.9266 -1.27705 52.7278 2.01311 10.8152 
97.2722 -2.01311 10.8152 96.9183 1.83884 10.8462 53.0817 -1.83884 10.8462 
53.3873 10.0452 4.48517 96.6127 -10.0452 4.48517 97.9853 3.43023 10.4525 
52.1414 3.66835 10.3714 52.0147 -3.43023 10.4525 97.8586 -3.66835 10.3714 
98.3574 6.97733 8.50522 51.6428 -6.97738 8.50519 97.0824 -6.95701 -8.52186 
52.9171 6.95731 -8.52161 96.3074 3.56122 10.4086 53.6926 -3.56122 10.4086 
95.1438 3.88452 -10.2924 54.8457 -3.88604 -10.2918 92.0868 6.97637 -8.50601 
57.8481 -6.9247 -8.54813 89.6673 -2.61612 -10.6854 93.5505 3.37638 -10.4701 
56.3304 -3.38237 -10.4681 56.5716 4.02312 10.239 93.4284 -4.02312 10.239 
90.3353 10.948 1.07894 59.665 -10.948 1.07858 87.2331 10.9261 1.28148 
85.2141 10.9339 1.21329 83.2948 10.9317 1.23327 81.313 10.9312 1.23736 
79.3168 10.9313 1.23683 77.317 10.9319 1.23127 75.3157 10.9339 1.21326 
73.3132 10.9419 1.13884 71.314 10.942 1.13824 69.3143 10.942 1.13829 
67.3155 10.9468 1.09116 65.3536 10.9716 0.804095 63.5552 10.8987 1.49708 
61.5001 10.9667 0.868225 62.7657 -10.9267 1.27672 64.7838 -10.9362 1.19236 
66.7037 -10.9425 1.13269 68.6944 -10.9769 0.728437 70.6939 -10.9765 0.733607 
72.6958 -10.9766 0.732231 74.6934 -10.9769 0.728491 76.6829 -10.9421 1.13709 
78.6842 -10.9421 1.13659 80.6843 -10.9428 1.13012 82.6815 -10.9468 1.09075 
84.6425 -10.9715 0.805106 86.3807 -10.8963 1.5141 88.1304 -10.964 0.901445 
59.6741 10.9321 1.22938 90.5862 -10.9112 1.40296 91.9406 7.22463 8.29619 
58.0595 -7.22467 8.29615 56.8302 7.3395 8.19474 93.1698 -7.33949 8.19474 
55.8895 10.8849 1.59425 94.1037 -10.8833 1.60463 92.3805 -2.69818 -10.665 
57.782 3.20159 -10.5248 90.1142 6.69311 8.73065 59.8858 -6.69311 8.73065 
88.6744 7.82067 7.73687 86.8382 7.28682 8.24162 84.7211 7.37087 8.16654 
82.7246 7.35932 8.17694 80.7177 7.38029 8.15802 78.7277 7.3606 8.17579 
76.7185 7.38038 8.15794 74.7279 7.36059 8.1758 72.7186 7.38036 8.15796 
70.728 7.36059 8.1758 68.7186 7.38037 8.15795 66.728 7.36058 8.17581 
64.7183 7.38045 8.15787 62.7372 7.35654 8.17945 60.8432 7.26533 8.26057 
58.8553 7.17179 8.34191 61.3256 -7.82064 7.7369 63.1617 -7.28681 8.24163 
65.2789 -7.37087 8.16654 67.2754 -7.35932 8.17694 69.2823 -7.38029 8.15802 
71.2723 -7.3606 8.17579 73.2814 -7.38037 8.15795 75.272 -7.36058 8.17581 
77.2814 -7.38037 8.15795 79.272 -7.36059 8.1758 81.2814 -7.38037 8.15795 
83.272 -7.36058 8.17581 85.2817 -7.38044 8.15788 87.2627 -7.35652 8.17946 
89.1567 -7.26531 8.26059 91.1447 -7.17179 8.34191 57.9607 10.7897 -2.14584 
91.9917 -10.8029 -2.07846 91.3332 9.389 5.73312 58.6671 -9.3888 5.73345 
94.0731 10.0633 4.44439 55.9265 -10.0655 4.43933 96.7079 6.8726 -8.59008 
53.2873 -6.87052 -8.59173 95.7289 10.8199 1.98785 54.2679 -10.8221 1.97601 
96.7555 8.2146 7.31727 53.2452 -8.21476 7.31708 94.1067 10.6098 -2.90773 
55.8931 -10.6081 -2.91369 93.8216 -3.60565 -10.3933 56.2372 3.71433 -10.355 
57.148 10.9173 1.35411 92.8385 -10.9147 1.37536 56.2094 10.0215 4.53772 
93.789 -10.0205 4.53999 53.6293 7.45982 8.08536 96.3707 -7.45982 8.08536 
92.6503 10.821 -1.98202 57.3496 -10.819 -1.99268 88.2822 9.66023 5.26327 
86.6613 9.79886 5.00044 84.3562 9.75022 5.09463 82.3648 9.74771 5.09943 
80.3665 9.74719 5.10042 78.3668 9.74709 5.10061 76.3665 9.74703 5.10073 
74.3665 9.74699 5.10079 72.3668 9.74704 5.10071 70.3665 9.74702 5.10075 
68.3664 9.74695 5.10088 66.3648 9.74503 5.10454 64.0596 9.57574 5.41546 
62.6799 9.75493 5.0856 61.7174 -9.66021 5.2633 63.3379 -9.79908 5.00001 
65.6432 -9.75031 5.09445 67.6347 -9.74779 5.09928 69.633 -9.74727 5.10027 
71.633 -9.74712 5.10056 73.6327 -9.74712 5.10056 75.6327 -9.74714 5.10053 
77.633 -9.7471 5.1006 79.6331 -9.74707 5.10065 81.6331 -9.74702 5.10074 
83.6347 -9.74502 5.10456 85.9361 -9.57589 5.41519 87.3041 -9.75882 5.07813 
59.831 9.46645 5.60431 90.1685 -9.4663 5.60457 89.8673 9.48698 5.56949 
60.1327 -9.48683 5.56975 93.3487 2.99544 10.5853 56.6513 -2.99544 10.5853 
53.1974 10.9953 -0.353848 96.8026 -10.9953 -0.353848 95.5971 -6.39295 -8.95278 
54.3973 6.39732 -8.94965 92.0487 2.90486 -10.6106 57.7242 -2.86496 -10.6214 
93.062 6.191 9.0936 56.9381 -6.19103 9.09357 90.0786 10.0166 -4.54854 
87.2737 9.91017 -4.77605 85.2589 9.87607 -4.84615 83.2306 9.88449 -4.82897 
81.2211 9.89811 -4.80099 79.2215 9.8971 -4.80306 77.2235 9.87139 -4.85568 
75.221 9.88356 -4.83086 73.2198 9.89793 -4.80135 71.2208 9.89704 -4.80318 
69.2305 9.86328 -4.87213 67.243 9.86391 -4.87086 65.2162 9.90342 -4.79001 
62.8711 10.0959 -4.36977 59.9272 -10.0147 -4.55287 63.043 -9.86943 -4.85966 
64.773 -9.84692 -4.90512 66.7439 -9.82418 -4.95051 68.7384 -9.81366 -4.97133 
70.7367 -9.80931 -4.97991 72.7363 -9.80768 -4.98311 74.736 -9.80749 -4.98348 
76.736 -9.80839 -4.98171 78.7367 -9.81131 -4.97595 80.7382 -9.8191 -4.96057 
82.7438 -9.83883 -4.92133 84.7848 -9.89008 -4.81751 87.1837 -10.0379 -4.5014 
93.5512 9.29141 -5.88996 56.4462 -9.28926 -5.89335 85.3845 9.96524 4.66005 
83.4152 9.96195 4.66707 81.4216 9.96084 4.66944 79.4229 9.96058 4.67001 
77.4229 9.96045 4.67027 75.4226 9.96036 4.67046 73.4228 9.9604 4.67037 
71.4228 9.96041 4.67037 69.4225 9.96031 4.67058 67.4203 9.95816 4.67516 
65.234 10.0552 4.46254 61.0805 10.0459 4.48351 64.6145 -9.96545 4.6596 
66.584 -9.96214 4.66666 68.5777 -9.96102 4.66906 70.5767 -9.96068 4.66978 
72.5765 -9.96061 4.66992 74.5762 -9.96065 4.66984 76.5764 -9.96061 4.66994 
78.5767 -9.96053 4.67009 80.5768 -9.96046 4.67025 82.579 -9.95824 4.67499 
84.7648 -10.0551 4.46292 88.9188 -10.0457 4.48386 89.2928 10.2372 4.02769 
60.7071 -10.2371 4.02789 96.0199 2.35404 -10.7462 53.9785 -2.35952 -10.745 
57.3314 2.14222 10.7904 92.6686 -2.14222 10.7904 95.5435 10.2722 3.93746 
54.4552 -10.2743 3.93192 88.3007 3.09749 10.5559 86.8103 3.51254 10.4252 
84.1304 3.09769 10.5559 82.7751 3.50593 10.4274 80.1302 3.09698 10.5561 
78.7751 3.50567 10.4275 76.1302 3.09697 10.5561 74.7751 3.50567 10.4275 
72.1302 3.09697 10.5561 70.7751 3.50567 10.4275 68.1302 3.09697 10.5561 
66.7751 3.50567 10.4275 64.1302 3.09697 10.5561 62.7751 3.50567 10.4275 
60.1079 3.11034 10.5521 58.4485 3.65768 10.3751 61.6993 -3.09749 10.5559 
63.1897 -3.51254 10.4252 65.8696 -3.09769 10.5559 67.2249 -3.50593 10.4274 
69.8698 -3.09698 10.5561 71.2249 -3.50567 10.4275 73.8698 -3.09697 10.5561 
75.2249 -3.50567 10.4275 77.8698 -3.09697 10.5561 79.2249 -3.50567 10.4275 
81.8698 -3.09697 10.5561 83.2249 -3.50567 10.4275 85.8698 -3.09697 10.5561 
87.2249 -3.50567 10.4275 89.8921 -3.11034 10.5521 91.5516 -3.65768 10.3751 
90.3394 3.16665 10.5354 59.6606 -3.16665 10.5354 93.7093 7.48811 8.05917 
56.2911 -7.48827 8.05902 93.4753 10.8887 1.56817 56.5121 -10.8925 1.541 
89.0122 2.39796 -10.7365 61.499 -2.79868 -10.639 85.494 2.8679 10.6206 
81.4868 2.86566 10.6212 77.4868 2.86559 10.6212 73.4868 2.86559 10.6212 
69.4868 2.86559 10.6212 65.4868 2.86559 10.6212 61.4823 2.86828 10.6205 
64.506 -2.8679 10.6206 68.5132 -2.86566 10.6212 72.5132 -2.86559 10.6212 
76.5132 -2.86559 10.6212 80.5132 -2.86559 10.6212 84.5132 -2.86559 10.6212 
88.5177 -2.86828 10.6205 94.4752 5.83719 9.32465 55.5249 -5.83723 9.32463 
55.1061 8.26313 7.26241 94.8939 -8.26313 7.26241 91.5626 10.611 2.90307 
58.4381 -10.6112 2.90245 95.848 10.5948 -2.96182 54.1523 -10.5942 -2.96411 
88.8261 10.991 0.469367 61.1732 -10.991 0.468805 89.4953 -10.9845 0.60283 
54.9805 10.5345 3.16956 95.0168 -10.5333 3.17357 91.6401 -6.50182 -8.87403 
58.2976 6.53631 -8.84865 90.3412 -5.42622 -9.56965 59.4847 5.16692 -9.7121 
95.2667 9.31758 5.84848 54.7352 -9.31822 5.84746 95.3718 -1.92843 -10.8307 
54.633 1.93205 -10.83 87.2329 2.44838 -10.7251 88.3357 -2.40277 -10.7354 
85.3385 2.75433 -10.6506 86.5625 -2.13471 -10.7919 83.427 2.80514 -10.6373 
84.5875 -2.06684 -10.8051 81.4662 2.81722 -10.6342 82.5832 -2.05244 -10.8078 
79.4809 2.81969 -10.6335 80.5804 -2.04924 -10.8085 77.4865 2.8197 -10.6335 
78.5804 -2.04864 -10.8086 75.4892 2.81922 -10.6336 76.5725 -2.04979 -10.8083 
73.4913 2.81935 -10.6336 74.587 -2.04709 -10.8089 71.4951 2.81859 -10.6338 
72.5816 -2.04793 -10.8087 69.5037 2.81488 -10.6348 70.5731 -2.0497 -10.8084 
67.5237 2.8002 -10.6386 68.5905 -2.04468 -10.8093 65.5747 2.75749 -10.6498 
66.6105 -2.03089 -10.8119 63.7059 2.62816 -10.6825 64.7332 -1.94562 -10.8276 
61.9008 2.19682 -10.7794 63.043 -2.14002 -10.7908 58.3243 10.752 2.32748 
91.6491 -10.7426 2.37018 87.415 6.12208 -9.14014 88.3495 -6.11142 -9.14727 
85.4132 6.21297 -9.0786 86.3272 -6.19296 -9.09227 83.4152 6.26104 -9.04552 
84.3456 -6.20904 -9.08129 81.4163 6.24939 -9.05357 82.3453 -6.21184 -9.07938 
79.4171 6.26954 -9.03963 80.3448 -6.21205 -9.07923 77.4167 6.25074 -9.05264 
78.3446 -6.21202 -9.07925 75.4172 6.26977 -9.03947 76.3384 -6.21297 -9.0786 
73.4167 6.25079 -9.05261 74.3505 -6.21101 -9.07995 71.4171 6.2698 -9.03944 
72.346 -6.21166 -9.0795 69.4161 6.25096 -9.05249 70.3384 -6.2129 -9.07865 
67.41 6.27198 -9.03794 68.354 -6.20931 -9.08111 65.318 6.21063 -9.0802 
66.362 -6.19703 -9.08949 63.3638 6.15795 -9.11601 64.2335 -5.94098 -9.25887 
61.3149 5.97016 -9.24008 62.2596 -5.86548 -9.30689 89.3058 5.94283 -9.25769 
60.752 -5.88775 -9.29281 93.0275 10.5945 2.96283 56.9687 -10.5974 2.95243 
93.2235 1.85972 -10.8427 56.7581 -1.89149 -10.8372 90.6036 2.21383 -10.7759 
59.0048 -2.77232 -10.6459 90.9188 -1.31274 -10.9224 58.5342 1.34106 -10.919 
94.837 1.94848 10.8271 55.163 -1.94848 10.8271 88.5426 9.25699 -5.94391 
88.2305 -9.04002 -6.26898 86.0334 9.24947 -5.9556 86.0855 -9.22606 -5.99181 
83.9831 9.23742 -5.97429 83.9999 -9.19189 -6.0441 81.9593 9.31553 -5.85174 
81.9778 -9.17098 -6.07578 79.9599 9.31496 -5.85266 79.9727 -9.16119 -6.09053 
77.9717 9.24219 -5.9669 77.9714 -9.15711 -6.09666 75.9717 9.23616 -5.97623 
75.9711 -9.15561 -6.09892 73.9592 9.31545 -5.85187 73.9712 -9.15533 -6.09933 
71.9593 9.31553 -5.85174 71.9714 -9.15604 -6.09828 69.9733 9.23713 -5.97473 
69.9721 -9.15842 -6.0947 67.9804 9.21544 -6.00814 67.9736 -9.16473 -6.08521 
66.0139 9.22659 -5.991 65.9721 -9.1818 -6.05941 64.007 9.29636 -5.88214 
63.9141 -9.23338 -5.98053 61.5288 9.27547 -5.91504 61.7661 -9.24763 -5.95847 
90.2136 -9.17554 -6.06889 59.7171 9.19317 -6.04216 94.909 8.60658 -6.85192 
55.0843 -8.60288 -6.85656 94.5077 -9.77965 -5.0379 55.4921 9.77964 -5.03792 
90.0448 10.6009 -2.94006 59.9585 -10.6005 -2.94141 97.0336 -3.18855 -10.5288 
52.9663 3.18924 -10.5286 93.6313 -1.75185 -10.8606 56.7561 1.71415 -10.8666 
91.746 9.71088 -5.16922 58.26 -9.70956 -5.1717 60.0347 -1.77491 -10.8569 
96.9834 3.58447 -10.4007 53.0139 -3.58522 -10.4004 95.4629 6.96151 8.51818 
54.5373 -6.9616 8.51811 89.2992 -1.19845 -10.9355 86.0461 1.24717 -10.9301 
82.4723 1.22248 -10.9329 78.5126 1.21753 -10.9334 74.5206 1.21427 -10.9338 
70.5332 1.21298 -10.9339 66.6079 1.20273 -10.9351 63.1388 1.11165 -10.9447 
55.2025 2.23509 10.7716 94.7975 -2.23509 10.7716 59.9504 7.02197 -8.46841 
86.5384 7.41355 -8.12781 82.5322 7.45197 -8.0926 78.5327 7.45365 -8.09105 
74.5327 7.45371 -8.091 70.5326 7.45377 -8.09094 66.4874 7.444 -8.09993 
64.4621 7.42208 -8.12002 62.4037 7.33558 -8.19825 61.401 -7.21458 -8.30493 
94.4133 10.6965 2.57019 55.5782 -10.7005 2.55387 91.9122 2.05932 10.8065 
58.0878 -2.05932 10.8065 54.2398 -10.9807 0.668605 95.7653 10.9801 0.677769 
95.3701 7.81511 -7.74249 54.623 -7.8115 -7.74613 60.3406 1.8006 -10.8526 
84.3783 1.22185 -10.9329 80.5014 1.21723 -10.9335 76.5174 1.21494 -10.9337 
72.5239 1.21704 -10.9335 68.5558 1.20854 -10.9344 64.7453 1.16599 -10.939 
93.2196 1.40894 10.9104 56.7804 -1.40894 10.9104 94.7845 5.48746 -9.53466 
55.2157 -5.48767 -9.53454 59.0543 1.72724 10.8646 90.9457 -1.72724 10.8646 
56.5894 1.18565 10.9369 93.4106 -1.18565 10.9369 90.3685 4.10291 -10.2073 
60.0845 -3.92678 -10.2763 86.3733 4.32656 -10.1145 82.4505 4.37199 -10.0949 
78.4536 4.37915 -10.0918 74.4537 4.37927 -10.0918 70.4529 4.37954 -10.0917 
66.4391 4.34944 -10.1047 88.8734 1.46908 10.9025 86.832 1.77348 10.8571 
84.8003 1.52865 10.8943 82.7912 1.78068 10.8559 80.7923 1.52934 10.8942 
78.79 1.78063 10.8559 76.7921 1.52932 10.8942 74.79 1.78062 10.8559 
72.7921 1.52932 10.8942 70.7899 1.78062 10.8559 68.7921 1.52932 10.8942 
66.7899 1.78062 10.8559 64.7921 1.52932 10.8942 62.7893 1.78101 10.8559 
60.9057 1.59081 10.8854 61.1266 -1.46908 10.9025 63.168 -1.77348 10.8571 
65.1997 -1.52865 10.8943 67.2088 -1.78068 10.8559 69.2077 -1.52934 10.8942 
71.21 -1.78063 10.8559 73.2079 -1.52932 10.8942 75.21 -1.78062 10.8559 
77.2079 -1.52932 10.8942 79.2101 -1.78062 10.8559 81.2079 -1.52932 10.8942 
83.2101 -1.78062 10.8559 85.2079 -1.52932 10.8942 87.2107 -1.78101 10.8559 
89.0944 -1.59081 10.8854 90.625 1.34803 10.9181 59.375 -1.34803 10.9181 
89.5447 -8.32496 -7.19145 60.6049 8.31833 -7.19912 92.5292 -0.918769 -10.9626 
92.1115 3.60154 10.3948 57.8885 -3.60154 10.3948 85.6391 5.98396 9.23116 
64.3609 -5.98395 9.23116 81.7199 6.03286 9.19927 68.2801 -6.03285 9.19928 
77.7247 6.0335 9.19885 72.2752 -6.03349 9.19886 73.7249 6.03348 9.19886 
76.2751 -6.03348 9.19886 61.7986 6.0051 9.21742 88.2013 -6.00509 9.21742 
69.7249 6.03348 9.19886 65.7247 6.03355 9.19882 80.2751 -6.03348 9.19886 
84.2753 -6.03355 9.19882 57.3708 0.471717 -10.9909 61.5213 -6.48133 8.889 
88.4787 6.48134 8.88899 89.1099 -9.85407 -4.89074 60.7376 9.87426 -4.84984 
59.0046 -10.8158 -2.01036 90.9958 10.8169 -2.00409 54.8103 -9.32523 -5.83627 
95.1877 9.32662 -5.83405 62.744 9.32639 -5.83441 100 -9.21303 -4.94189 
100 9.21303 -4.94189 100 0.978851 10.4088 100 -0.978851 10.4088 
100 8.12998 -6.57271 100 -8.12998 -6.57271 100 9.97237 -3.13748 
100 -9.97237 -3.13748 100 2.90202 10.0431 100 -2.90202 10.0431 
100 6.94791 -7.93224 100 -6.94791 -7.93224 100 10.4393 -1.41615 
100 -10.4393 -1.41615 100 -4.57393 9.47787 100 4.57393 9.47787 
100 5.377 -8.98582 100 -5.377 -8.98582 100 4.88341 -9.11316 
100 -4.88341 -9.11316 100 -10.4759 0.492288 100 10.4759 0.492288 
100 -10.2968 0.980022 100 10.2968 0.980022 100 4.89995 9.11923 
100 -4.89995 9.11923 100 10.3098 -0.965202 100 -10.3098 -0.965202 
100 -6.51054 -8.05489 100 6.51054 -8.05489 50 -9.21303 -4.94189 
50 9.21303 -4.94189 50 0.978851 10.4088 50 -0.978851 10.4088 
50 8.12998 -6.57271 50 -8.12998 -6.57271 50 9.97237 -3.13748 
50 -9.97237 -3.13748 50 2.90202 10.0431 50 -2.90202 10.0431 
50 6.94791 -7.93224 50 -6.94791 -7.93224 50 10.4393 -1.41615 
50 -10.4393 -1.41615 50 -4.57393 9.47787 50 4.57393 9.47787 
50 5.377 -8.98582 50 -5.377 -8.98582 50 4.88341 -9.11316 
50 -4.88341 -9.11316 50 -10.4759 0.492288 50 10.4759 0.492288 
50 -10.2968 0.980022 50 10.2968 0.980022 50 4.89995 9.11923 
50 -4.89995 9.11923 50 10.3098 -0.965202 50 -10.3098 -0.965202 
50 -6.51054 -8.05489 50 6.51054 -8.05489 53.7092 -0.0466022 -10.0009 
57.1332 -1.51679 -9.88531 92.8715 1.51728 -9.88523 96.2914 0.0465327 -10.0009 
52.0144 0.0306218 -10.001 55.4158 -0.666258 -9.97878 58.4174 0.728647 -9.97442 
60.3084 0.0734415 -10.0007 62.431 0.310126 -9.99619 64.3519 -0.199511 -9.99901 
66.3398 -0.388493 -9.99345 68.3081 -0.422192 -9.99208 70.2992 -0.406301 -9.99274 
72.2857 -0.423919 -9.99201 74.2948 -0.407318 -9.9927 76.288 -0.422735 -9.99206 
78.2911 -0.407446 -9.9927 80.3027 -0.366153 -9.9943 82.322 -0.256986 -9.9977 
84.3529 0.188669 -9.99922 86.2314 -0.10618 -10.0004 88.1447 -0.143434 -9.99997 
89.9598 -0.13925 -10 91.7005 -0.332077 -9.99549 94.5851 0.666353 -9.97878 
97.9856 -0.0306218 -10.001 52.0062 9.84649 -1.7512 98.8239 9.60338 -2.79199 
97.9938 -9.84649 -1.7512 51.1761 -9.60338 -2.79199 98.924 9.62132 2.7295 
51.076 -9.62132 2.7295 51.0081 9.52026 3.06345 98.7941 9.2009 3.91963 
98.9919 -9.52026 3.06345 51.2059 -9.2009 3.91963 51.206 6.77522 7.35639 
98.9212 6.4228 7.666 98.794 -6.77522 7.35639 51.0789 -6.4228 7.666 
53.1415 9.7776 -2.10205 96.9194 9.78472 -2.06863 96.8585 -9.7776 -2.10205 
53.0806 -9.78472 -2.06863 54.585 9.97882 -0.665731 56.6672 9.68578 -2.4911 
59.139 9.93652 -1.13386 56.9716 9.9979 0.249073 60.693 9.92733 -1.21166 
61.9381 9.99995 0.144897 62.9079 9.93021 -1.1878 63.9129 9.99915 0.192314 
64.8794 9.9328 -1.16594 65.8983 9.99894 0.20317 66.8681 9.9326 -1.16771 
68.8575 9.93248 -1.16869 67.8899 9.99902 0.198932 69.8874 9.99895 0.20265 
70.8641 9.93302 -1.16411 71.8913 9.99891 0.20457 72.8661 9.93257 -1.16796 
74.8572 9.93248 -1.1687 73.8887 9.99902 0.198973 75.8878 9.99894 0.202892 
76.8648 9.93305 -1.16384 77.8946 9.99888 0.20575 78.879 9.93193 -1.17335 
79.895 9.99891 0.204352 80.8671 9.9326 -1.16765 82.8578 9.93258 -1.16786 
81.8898 9.99901 0.199534 83.8895 9.99887 0.206497 84.8632 9.93297 -1.16454 
85.8772 9.99901 0.199544 86.9144 9.934 -1.15572 87.6807 9.99855 0.221468 
89.0603 9.97282 -0.750296 91.6619 10.0009 0.0459617 93.1096 9.99005 -0.467856 
95.7128 9.98531 -0.559993 95.4151 -9.97882 -0.665704 93.3392 -9.68643 -2.48857 
90.8052 -9.94659 -1.04181 93.029 -9.99789 0.249308 89.4161 -9.95158 -0.993012 
87.1672 -9.91443 -1.31304 88.1215 -10.0003 0.116723 85.1626 -9.92165 -1.25731 
86.1177 -10.0002 0.12251 83.1628 -9.91692 -1.29414 84.1285 -10 0.13916 
82.124 -9.9999 0.14815 81.1524 -9.92377 -1.24048 79.1343 -9.92677 -1.21627 
80.1205 -9.9998 0.15511 77.1644 -9.92233 -1.25198 78.1189 -10.0001 0.13193 
75.163 -9.91709 -1.29279 76.1296 -9.99999 0.141868 74.1242 -9.99989 0.149072 
73.1523 -9.92385 -1.23988 71.1336 -9.927 -1.21439 72.12 -9.99977 0.15675 
69.1578 -9.92303 -1.24639 70.1164 -10 0.140844 68.1219 -9.99989 0.148782 
67.1544 -9.91782 -1.28715 65.1533 -9.9233 -1.24426 66.1186 -9.99982 0.153301 
63.1183 -9.91908 -1.27743 64.1011 -9.99991 0.147547 61.0221 -9.96928 -0.795962 
62.351 -9.99947 0.174754 58.3381 -10.0009 0.0459617 56.8904 -9.99005 -0.467856 
54.2872 -9.98531 -0.559993 58.1162 9.98757 0.518099 60.1008 9.99605 0.314607 
90.3233 9.98308 0.598392 94.3638 9.96717 0.821884 91.8838 -9.98757 0.518099 
89.8992 -9.99605 0.314607 59.6904 -9.98354 0.590772 55.6362 -9.96717 0.821884 
99.1942 -9.73103 -2.30805 50.8058 9.73103 -2.30805 51.2521 4.44942 8.95671 
98.7682 4.60858 8.87587 98.7479 -4.44942 8.95671 51.2318 -4.60858 8.87587 
99.1057 9.90189 1.40448 98.8297 -9.932 1.1728 50.8943 -9.90189 1.40448 
51.1703 9.932 1.1728 52.4683 5.33912 -8.45658 52.5431 -5.32334 -8.46652 
97.4569 5.32334 -8.46652 97.5317 -5.33912 -8.45658 53.1475 7.96348 -6.05004 
53.3271 -8.01177 -5.98595 96.673 8.01177 -5.98595 96.8531 -7.96348 -6.05004 
54.3337 6.92038 7.21999 95.6663 -6.92038 7.21999 56.7441 7.82268 6.23102 
93.2559 -7.82268 6.23102 90.4522 7.26769 6.87028 92.9992 7.67781 6.40869 
59.5479 -7.26772 6.87025 57.0008 -7.67781 6.40869 55.4611 6.65514 -7.46519 
94.5389 -6.65514 -7.46519 95.6741 7.42722 6.69749 54.3259 -7.42722 6.69749 
56.9565 -5.93123 -8.05236 93.045 5.93077 -8.0527 58.1469 6.48362 7.61464 
60.291 7.17778 6.96415 61.9241 6.3187 7.75203 63.612 6.33344 7.74 
65.5445 6.34671 7.72912 67.5297 6.34352 7.73174 69.5296 6.33536 7.73842 
71.5282 6.32817 7.74431 73.5265 6.32505 7.74686 75.5268 6.32232 7.74909 
77.5263 6.31324 7.75648 79.5256 6.30615 7.76225 81.5159 6.29701 7.76966 
83.4798 6.26765 7.79337 85.4437 6.23073 7.82292 87.5098 6.06113 7.95504 
89.5169 5.93021 8.05311 92.0521 6.97646 7.16582 93.4785 6.42246 7.66629 
91.8531 -6.48362 7.61464 89.709 -7.17778 6.96415 88.0759 -6.31871 7.75203 
86.388 -6.33344 7.73999 84.4555 -6.34671 7.72912 82.4703 -6.34352 7.73173 
80.4704 -6.33537 7.73841 78.4719 -6.32823 7.74426 76.4734 -6.3252 7.74673 
74.4731 -6.32264 7.74882 72.4736 -6.31421 7.75569 70.4761 -6.31119 7.75815 
68.4907 -6.30069 7.76668 66.5232 -6.26814 7.79297 64.5566 -6.23083 7.82284 
62.4902 -6.06115 7.95503 60.4832 -5.93024 8.05309 57.9479 -6.97646 7.16582 
56.5215 -6.42246 7.66629 58.4867 -6.89148 -7.24759 56.8814 6.10829 -7.91889 
56.7118 -8.11084 -5.851 60.616 -6.60677 -7.50804 62.381 -6.5286 -7.5761 
65.9232 6.60304 -7.51132 64.8031 -7.15064 -6.99202 68.8045 -7.15043 -6.99224 
67.3413 6.57148 -7.53894 66.3073 -6.62821 -7.48911 71.9228 6.60328 -7.5111 
70.3075 -6.62818 -7.48914 74.2842 -6.60653 -7.50824 73.3411 6.57163 -7.53882 
72.7542 -7.12158 -7.02162 76.8045 -7.15043 -6.99224 79.9227 6.60331 -7.51107 
78.3075 -6.62818 -7.48914 82.2869 -6.60511 -7.50949 81.341 6.57164 -7.5388 
80.7546 -7.12136 -7.02184 85.9231 6.60301 -7.51135 84.8233 -7.14118 -7.00168 
87.5531 6.61417 -7.50152 86.1854 -6.65489 -7.46542 91.5201 6.88958 -7.24939 
89.3428 6.59523 -7.51817 88.487 -6.91082 -7.22915 93.2892 8.11062 -5.85131 
93.1186 -6.10829 -7.91889 58.1894 8.07772 -5.89665 58.6036 -8.36568 -5.48045 
59.8351 8.31766 -5.55307 60.4131 -8.61284 -5.0832 61.6398 8.73772 -4.86542 
62.1412 -8.60664 -5.0937 63.6923 8.64364 -5.03065 64.6303 -8.23926 -5.66874 
65.6959 8.63906 -5.03851 66.0011 -8.74182 -4.85805 67.6965 8.6383 -5.03982 
68.6053 -8.23993 -5.66777 69.6966 8.63817 -5.04004 70.0113 -8.76974 -4.80747 
71.6966 8.63815 -5.04008 72.8011 -8.3561 -5.49506 73.6966 8.63814 -5.04008 
74.1779 -8.63113 -5.05209 75.6966 8.63814 -5.04009 76.6049 -8.2392 -5.66883 
77.6966 8.63814 -5.04009 78.0121 -8.76931 -4.80825 79.6966 8.63814 -5.04009 
80.8015 -8.35592 -5.49533 81.6966 8.63814 -5.04009 82.1779 -8.63113 -5.0521 
83.6966 8.63814 -5.04009 84.6046 -8.23399 -5.67639 85.6966 8.63814 -5.04008 
85.9745 -8.73179 -4.87605 87.7116 8.61862 -5.0734 88.614 -8.1229 -5.83425 
89.5517 8.62011 -5.07086 90.1921 -8.38353 -5.45311 91.3837 8.3512 -5.5025 
91.8916 -8.10921 -5.85326 55.8178 -6.95373 -7.18788 94.1826 6.95362 -7.18799 
94.3267 7.50996 6.60459 55.6733 -7.50996 6.60459 55.2645 7.69719 6.3854 
94.7355 -7.69719 6.3854 57.9549 6.87308 -7.26504 59.4825 7.01861 -7.12454 
90.719 -7.13285 -7.01016 92.0778 -6.91256 -7.22749 97.3978 5.57419 8.30352 
52.6022 -5.57419 8.30352 51.8673 5.73351 8.19432 98.1327 -5.73351 8.19432 
51.5137 3.60732 -9.32777 51.6447 -3.55698 -9.34708 98.3553 3.55698 -9.34708 
98.4863 -3.60732 -9.32777 52.6709 7.19379 6.94762 97.335 7.28984 6.84677 
97.3291 -7.19379 6.94762 52.665 -7.28984 6.84677 98.927 8.90607 -4.54994 
99.0807 -9.28059 -3.727 51.073 -8.90607 -4.54994 50.9193 9.28059 -3.727 
51.2497 8.14327 5.80578 98.8558 7.80546 6.25258 98.7503 -8.14327 5.80578 
51.1442 -7.80546 6.25258 51.1429 9.97179 -0.763842 98.5835 9.98809 0.507949 
98.8571 -9.97179 -0.763842 51.4165 -9.98809 0.507949 98.8085 5.50146 -8.35188 
98.9802 -5.1468 -8.57499 51.1915 -5.50146 -8.35188 51.0198 5.1468 -8.57499 
98.5882 9.95038 -1.00492 51.4118 -9.95038 -1.00492 51.4004 1.67086 -9.86044 
51.6621 -1.57447 -9.87629 98.3379 1.57447 -9.87629 98.5996 -1.67086 -9.86044 
52.0479 9.71925 2.35717 98.0209 9.8378 1.79938 97.9521 -9.71925 2.35717 
51.9791 -9.8378 1.79938 99.0874 8.68835 4.95304 99.0764 -8.9188 4.52494 
50.9126 -8.68835 4.95304 50.9236 8.9188 4.52494 98.9604 8.34222 -5.5161 
98.9419 -8.34261 -5.51551 51.0396 -8.34222 -5.5161 51.0581 8.34261 -5.51551 
51.6578 2.8828 9.5765 98.5298 3.06282 9.52046 98.3422 -2.8828 9.5765 
51.4702 -3.06282 9.52046 96.6374 9.72838 2.31918 53.3626 -9.72838 2.31918 
53.1744 9.67122 2.54705 96.8256 -9.67122 2.54705 55.9001 4.76166 -8.79469 
94.0999 -4.76166 -8.79469 55.5193 -5.3543 -8.44698 94.4807 5.3543 -8.44698 
60.9471 9.28389 3.71878 62.8722 9.36239 3.51649 64.8615 9.35835 3.52723 
66.8594 9.35748 3.52954 68.859 9.35731 3.52997 70.8589 9.35729 3.53004 
72.8589 9.35728 3.53006 74.8589 9.35728 3.53006 76.8589 9.35728 3.53006 
78.8589 9.35728 3.53006 80.8589 9.35728 3.53006 82.8589 9.35728 3.53006 
84.9732 9.32309 3.61938 86.8259 9.5839 2.85812 88.88 9.36467 3.51041 
90.7328 9.24741 3.8086 92.5382 9.36471 3.51031 89.0547 -9.28423 3.71795 
87.1278 -9.36239 3.51649 85.1385 -9.35835 3.52723 83.1406 -9.35748 3.52954 
81.141 -9.35731 3.52997 79.1411 -9.35729 3.53004 77.1411 -9.35728 3.53006 
75.1411 -9.35728 3.53006 73.1411 -9.35728 3.53006 71.1411 -9.35728 3.53006 
69.1411 -9.35728 3.53006 67.1411 -9.35728 3.53006 65.032 -9.324 3.61704 
63.1833 -9.58496 2.85458 61.12 -9.36467 3.51041 59.2672 -9.24741 3.8086 
57.4618 -9.36471 3.51031 55.6912 9.52854 3.03758 94.3088 -9.52854 3.03758 
57.1143 9.80784 1.95611 92.8857 -9.80784 1.95611 56.2375 2.67471 -9.6367 
93.7631 -2.67466 -9.63671 57.316 4.76053 8.7953 92.6841 -4.76053 8.7953 
58.9192 4.90343 8.71644 61.3291 4.06408 9.13801 63.3092 4.03927 9.14901 
65.315 4.05528 9.14192 67.3129 3.96599 9.18101 69.3155 3.94744 9.189 
71.3164 3.94125 9.19166 73.3176 3.94154 9.19153 75.3182 3.94241 9.19116 
77.3162 3.93738 9.19332 79.3163 3.9374 9.19331 81.3113 3.93344 9.195 
83.2885 3.92018 9.20066 85.2396 3.94687 9.18924 87.3081 4.4337 8.9645 
89.5438 4.29253 9.03295 90.916 4.91154 8.71187 91.0808 -4.90343 8.71644 
88.6709 -4.06408 9.13801 86.6908 -4.03927 9.14901 84.685 -4.05528 9.14192 
82.6871 -3.96599 9.18101 80.6845 -3.94744 9.189 78.6836 -3.94125 9.19166 
76.6824 -3.94154 9.19153 74.6818 -3.94241 9.19116 72.6838 -3.93738 9.19332 
70.6837 -3.9374 9.19331 68.6887 -3.93344 9.195 66.7116 -3.9202 9.20065 
64.7604 -3.94688 9.18924 62.6919 -4.4337 8.9645 60.4562 -4.29253 9.03295 
59.084 -4.91154 8.71187 54.2517 9.22321 3.86683 95.7483 -9.22321 3.86683 
59.157 9.20223 3.91651 90.8433 -9.20228 3.91637 53.9554 -4.48782 -8.93753 
96.0446 4.48782 -8.93753 54.2324 5.18933 -8.54932 95.7678 -5.18934 -8.54931 
95.1508 3.75807 9.26806 54.8492 -3.75807 9.26806 54.2604 4.3325 9.01385 
95.7396 -4.3325 9.01385 58.7208 5.25714 -8.50779 91.3149 -5.30952 -8.4752 
96.2024 4.67674 8.84014 53.7976 -4.67674 8.84014 55.4804 8.71248 4.91047 
94.5196 -8.71248 4.91047 60.5819 5.35568 8.44611 62.4917 5.00987 8.6557 
64.4194 5.01761 8.65122 66.4187 5.00234 8.66006 68.4113 4.94572 8.69252 
70.4143 4.93159 8.70054 72.4126 4.91919 8.70756 74.4197 4.93344 8.69949 
76.4158 4.92337 8.7052 78.4097 4.90961 8.71296 80.4163 4.92347 8.70514 
82.3849 4.89083 8.72352 84.3115 4.87429 8.73277 86.0619 4.94609 8.69231 
88.4873 5.06139 8.62568 92.3682 5.48213 8.36458 89.4181 -5.35568 8.4461 
87.5083 -5.00988 8.6557 85.5806 -5.01761 8.65122 83.5813 -5.00234 8.66006 
81.5887 -4.94572 8.69252 79.5857 -4.93159 8.70054 77.5874 -4.91919 8.70756 
75.5803 -4.93344 8.69949 73.5842 -4.92337 8.7052 71.5903 -4.90962 8.71296 
69.5837 -4.92348 8.70514 67.6152 -4.89083 8.72352 65.689 -4.87439 8.73271 
63.9382 -4.9461 8.6923 61.5127 -5.06139 8.62568 57.6318 -5.48213 8.36458 
55.2135 9.34966 -3.55019 94.7865 -9.34966 -3.55019 55.7191 4.47382 8.94455 
94.2809 -4.47382 8.94455 93.5838 8.59153 5.11915 56.4162 -8.59153 5.11915 
95.1485 8.46237 5.32994 54.8515 -8.46237 5.32994 93.8143 4.56561 8.89804 
56.1857 -4.56561 8.89804 59.8803 -5.26268 -8.50436 61.5879 -5.22988 -8.52457 
63.7809 4.98433 -8.67043 65.5067 5.29013 -8.48732 68.0839 5.31755 -8.47016 
69.8051 5.25775 -8.50741 71.5024 5.34008 -8.45597 74.0827 5.31828 -8.4697 
75.8049 5.25787 -8.50734 77.7528 5.25215 -8.51087 79.4929 5.33979 -8.45616 
82.0826 5.31838 -8.46964 83.805 5.2579 -8.50732 85.4433 5.35047 -8.44941 
86.8824 -5.23892 -8.51902 88.2965 5.05286 -8.63068 88.3179 -5.4118 -8.41026 
90.1445 5.24132 -8.51755 58.32 -4.8647 -8.73812 91.6875 4.86216 -8.73953 
59.4056 -3.46785 -9.38051 60.1217 3.71028 -9.2873 86.0712 -3.63273 -9.3179 
87.8236 -3.75764 -9.26823 90.6054 3.4654 -9.38142 89.6391 -3.90797 -9.20586 
60.9464 -3.77042 -9.26304 63.5459 3.52469 -9.3593 62.5512 -3.80534 -9.24875 
65.069 3.71531 -9.28528 69.0667 3.8522 -9.22933 67.0045 4.00902 -9.1623 
66.2313 -3.88688 -9.21478 70.9735 3.83536 -9.23634 70.2235 -3.87606 -9.21934 
75.0648 3.85338 -9.22884 74.2236 -3.87576 -9.21946 72.9988 4.01282 -9.16064 
77.0203 3.81511 -9.24473 78.9544 3.82897 -9.23899 78.2236 -3.87575 -9.21947 
83.0648 3.85357 -9.22876 82.2343 -3.85768 -9.22704 80.9982 4.01331 -9.16043 
84.8956 3.86025 -9.22597 86.6417 4.08228 -9.12989 89.3218 3.86653 -9.22334 
97.8532 8.33356 -5.52918 52.1468 -8.33356 -5.52918 52.2166 8.43855 -5.36758 
97.7835 -8.43855 -5.36758 56.7071 7.63371 -6.46115 93.3129 -7.63375 -6.4611 
94.5602 9.11669 -4.11168 55.4398 -9.11669 -4.11168 61.1352 7.47541 -6.64367 
62.9127 7.55326 -6.55502 64.8579 7.66517 -6.4238 66.6715 7.70136 -6.38037 
68.6765 7.51966 -6.59353 70.819 7.65849 -6.43176 72.6651 7.70008 -6.38191 
74.6756 7.51946 -6.59377 76.8995 7.635 -6.45963 78.8561 7.67741 -6.40916 
80.6712 7.70322 -6.37812 82.6765 7.51992 -6.59323 84.819 7.65849 -6.43176 
86.7001 7.69809 -6.38431 88.486 7.70422 -6.37692 89.4385 -7.43157 -6.69267 
87.1225 -7.69562 -6.38729 85.7691 -7.77052 -6.29596 83.2134 -7.6947 -6.3884 
81.7899 -7.76053 -6.30826 79.2029 -7.69568 -6.38721 77.8036 -7.7707 -6.29573 
75.2076 -7.69728 -6.38528 73.7881 -7.76133 -6.30728 71.2029 -7.69571 -6.38717 
69.8035 -7.77071 -6.29572 67.211 -7.70001 -6.38199 65.8048 -7.77161 -6.29461 
63.2152 -7.67465 -6.41247 61.4466 -7.68586 -6.39903 90.0569 7.69117 -6.39265 
59.9132 -7.69133 -6.39245 56.8573 -3.994 -9.16886 93.1439 3.99356 -9.16905 
52.5072 2.76662 -9.61071 97.4928 -2.76662 -9.61071 92.5534 9.17347 -3.98339 
57.4446 -9.17525 -3.9793 53.6338 9.06158 -4.23175 96.3662 -9.06158 -4.23175 
96.3996 9.04005 -4.27756 53.6004 -9.04005 -4.27756 52.8749 9.9968 0.289955 
97.1251 -9.9968 0.289955 97.2026 9.99559 0.329029 52.7974 -9.99559 0.329029 
52.2497 -6.93532 -7.20564 97.7503 6.93532 -7.20564 52.1178 9.23075 -3.84879 
97.8822 -9.23075 -3.84879 97.7846 9.21826 -3.87863 52.2154 -9.21826 -3.87863 
52.5938 4.26443 9.04625 97.4062 -4.26443 9.04625 97.5155 3.99837 9.16695 
52.4845 -3.99837 9.16695 98.9013 7.0954 -7.04807 98.287 -6.93627 -7.20473 
51.0988 -7.0954 -7.04807 51.7131 6.93627 -7.20473 97.7912 8.61759 5.07514 
52.2088 -8.61759 5.07514 54.7175 3.44013 -9.39071 95.2829 -3.44019 -9.39069 
58.617 3.03059 -9.53077 91.3005 -3.51779 -9.3619 52.3601 9.06914 4.21552 
97.6399 -9.06914 4.21552 60.5047 -2.0735 -9.78369 89.1486 1.91114 -9.8167 
96.3836 9.08628 4.17847 53.6164 -9.08628 4.17847 92.2367 3.55883 9.34638 
57.7633 -3.55883 9.34638 58.2013 3.28854 9.44487 91.7987 -3.28854 9.44487 
59.8481 3.51378 9.36341 62.2665 3.69262 9.29433 64.259 3.70933 9.28767 
66.2754 3.70915 9.28774 68.2879 3.69603 9.29297 70.2897 3.69414 9.29373 
72.29 3.69387 9.29383 74.29 3.69383 9.29385 76.29 3.69382 9.29385 
78.29 3.69382 9.29385 80.29 3.69382 9.29385 82.29 3.69382 9.29385 
84.2819 3.6811 9.2989 86.2682 3.68803 9.29615 88.3746 3.65353 9.30976 
90.6229 3.3744 9.41453 90.1519 -3.51378 9.36341 87.7335 -3.69262 9.29433 
85.741 -3.70933 9.28767 83.7246 -3.70915 9.28774 81.7121 -3.69603 9.29297 
79.7103 -3.69414 9.29373 77.71 -3.69387 9.29383 75.71 -3.69383 9.29385 
73.71 -3.69382 9.29385 71.71 -3.69382 9.29385 69.71 -3.69382 9.29385 
67.71 -3.69382 9.29385 65.7181 -3.6811 9.2989 63.7318 -3.68803 9.29615 
61.6254 -3.65353 9.30976 59.3771 -3.3744 9.41453 61.7487 -2.58695 -9.66062 
87.7713 3.20237 -9.47443 53.4001 -2.46714 -9.69191 96.5999 2.46714 -9.69191 
55.263 -2.90244 -9.57057 94.738 2.90245 -9.57057 59.7094 1.94623 -9.8098 
90.6165 -2.04293 -9.79012 58.1556 -3.05225 -9.52385 91.8541 3.05186 -9.52398 
55.7354 9.97811 0.676243 94.2646 -9.97811 0.676243 56.08 6.33856 7.7358 
93.92 -6.33856 7.7358 58.4054 9.57156 -2.89918 91.6041 -9.57365 -2.89228 
61.1458 9.58357 -2.85922 88.8713 -9.16965 -3.99219 62.8417 9.52376 -3.05254 
64.8152 9.52603 -3.04544 66.8124 9.52588 -3.0459 68.8005 9.52381 -3.05238 
70.8101 9.52542 -3.04734 72.8117 9.5257 -3.04647 74.8004 9.52377 -3.0525 
76.81 9.52542 -3.04737 78.8117 9.5257 -3.04647 80.812 9.52575 -3.04634 
82.8004 9.52378 -3.05249 84.8101 9.52542 -3.04737 86.835 9.52494 -3.04887 
88.8203 9.506 -3.1074 87.0666 -9.48539 -3.16975 85.1829 -9.56616 -2.91696 
83.1969 -9.47686 -3.19517 81.2071 -9.49534 -3.13982 79.1055 -9.54677 -2.9798 
77.1948 -9.57898 -2.87458 75.1977 -9.47837 -3.19068 73.2071 -9.49539 -3.13966 
71.1055 -9.54678 -2.97975 69.19 -9.57991 -2.87147 67.195 -9.47904 -3.18868 
65.1896 -9.56925 -2.9068 63.1792 -9.47588 -3.19807 61.1774 -9.48675 -3.16569 
90.7163 9.31844 -3.63135 59.282 -9.31531 -3.63936 54.7623 -8.10562 -5.85823 
95.2377 8.10562 -5.85823 55.0066 8.17812 -5.7566 94.9963 -8.17812 -5.75659 
91.1696 6.24704 7.8099 58.8304 -6.24704 7.8099 93.8848 2.52575 9.67681 
56.1152 -2.52575 9.67681 59.8598 9.70552 -2.41308 89.9072 -9.6922 -2.46601 
61.9378 9.87618 -1.57512 63.8843 9.87867 -1.55947 65.8782 9.87872 -1.55915 
67.8541 9.87669 -1.57193 69.8554 9.87675 -1.57156 71.8765 9.87859 -1.55993 
73.854 9.87667 -1.57207 75.8554 9.87675 -1.57159 77.8765 9.87859 -1.55994 
79.8774 9.87867 -1.55944 81.854 9.87667 -1.57204 83.8554 9.87675 -1.57159 
85.8818 9.87853 -1.56032 87.922 9.88223 -1.5367 88.3582 -9.81791 -1.90487 
86.172 -9.85998 -1.67358 84.1771 -9.86067 -1.6695 82.1543 -9.86296 -1.65592 
80.1561 -9.86284 -1.6566 78.1769 -9.86096 -1.66777 76.1773 -9.86096 -1.66778 
74.1542 -9.863 -1.65566 72.1561 -9.86285 -1.65656 70.1769 -9.86096 -1.66777 
68.1547 -9.86301 -1.6556 66.1568 -9.86289 -1.65635 64.1717 -9.86087 -1.66831 
62.1204 -9.86696 -1.63188 90.408 9.88903 -1.49234 59.6074 -9.88594 -1.51268 
57.6701 9.94409 -1.06537 92.3328 -9.9442 -1.06438 53.6101 2.59795 -9.65767 
96.3903 -2.59805 -9.65765 93.0225 9.88086 1.54551 56.9775 -9.88086 1.54551 
96.8475 2.37127 9.71582 53.1525 -2.37127 9.71582 53.5658 2.83676 9.59025 
96.4342 -2.83676 9.59025 56.5765 0.77514 -9.97092 93.4326 -0.777954 -9.9707 
55.4539 9.80892 -1.95066 94.5461 -9.80892 -1.95066 95.4184 9.69617 -2.45036 
54.5816 -9.69617 -2.45036 94.4724 9.95674 -0.939862 55.5276 -9.95674 -0.939862 
58.4624 8.10026 5.86564 91.5376 -8.10026 5.86564 62.9297 9.87758 1.56633 
64.918 9.87691 1.57053 66.9115 9.8779 1.56431 68.9087 9.87814 1.56278 
70.9107 9.877 1.56999 72.9101 9.87791 1.56426 74.9084 9.87814 1.56279 
76.9116 9.87693 1.57044 78.9137 9.87664 1.57228 80.9107 9.87784 1.56468 
82.9085 9.87813 1.56285 84.9294 9.87105 1.60698 86.9302 9.89543 1.44929 
89.0605 9.9102 1.34457 87.0857 -9.88085 1.54558 85.0985 -9.8822 1.53689 
83.0976 -9.88066 1.54682 81.0961 -9.88032 1.54896 79.0998 -9.88173 1.53991 
77.1018 -9.882 1.53818 75.0982 -9.88058 1.54732 73.0962 -9.8803 1.54907 
71.0986 -9.88165 1.54049 69.0976 -9.88034 1.54886 67.0961 -9.88008 1.55047 
65.0843 -9.87414 1.58789 63.0837 -9.89656 1.44159 60.957 -9.91119 1.33727 
61.0303 9.93586 1.1396 88.9914 -9.93691 1.13045 54.3272 9.71915 -2.35758 
95.6728 -9.71915 -2.35758 54.8214 5.70738 8.21254 95.1786 -5.70738 8.21254 
54.3398 9.85993 1.67383 95.6602 -9.85993 1.67383 56.9879 8.89501 -4.57151 
93.0336 -8.89927 -4.56321 91.7675 8.32351 5.5443 58.2325 -8.32351 5.5443 
60.0042 8.51984 5.2376 89.9958 -8.51984 5.2376 61.7518 8.44171 5.36261 
63.7434 8.49018 5.28553 65.7254 8.49267 5.28153 67.7378 8.54258 5.20042 
69.7407 8.54522 5.19608 71.7427 8.54383 5.19836 73.7437 8.54296 5.19978 
75.7441 8.54259 5.20041 77.7442 8.54203 5.20132 79.7485 8.5565 5.17749 
81.7483 8.5575 5.17582 83.7335 8.51496 5.24551 85.616 8.34016 5.51921 
87.6795 8.39487 5.43564 88.2485 -8.44179 5.36248 86.2567 -8.49019 5.28551 
84.2746 -8.49267 5.28153 82.2622 -8.54258 5.20042 80.2593 -8.54522 5.19608 
78.2573 -8.54383 5.19836 76.2563 -8.54296 5.19978 74.2559 -8.54259 5.20041 
72.2558 -8.54203 5.20132 70.2512 -8.56092 5.17017 68.2517 -8.56278 5.16709 
66.2664 -8.51753 5.24135 64.3859 -8.34064 5.51849 62.3216 -8.39514 5.43523 
89.6801 8.42083 5.39533 60.3202 -8.42089 5.39523 94.9056 5.92551 8.05657 
55.0944 -5.92551 8.05657 57.2468 9.12001 4.10432 92.7532 -9.12001 4.10432 
57.3248 3.94456 -9.19024 92.6775 -3.94415 -9.19041 56.4869 3.1726 9.48444 
93.5131 -3.1726 9.48444 58.9367 1.74678 9.84727 91.0633 -1.74678 9.84727 
61.4571 2.62315 9.65086 63.172 2.35644 9.71942 65.1647 2.37304 9.71538 
67.171 2.36985 9.71616 69.1744 2.36664 9.71694 71.1753 2.36578 9.71715 
73.1755 2.3656 9.7172 75.1755 2.36557 9.71721 77.1755 2.36556 9.71721 
79.1755 2.36556 9.71721 81.1755 2.36556 9.71721 83.1743 2.36366 9.71767 
85.1686 2.35857 9.71891 87.2168 2.35911 9.71878 89.2754 2.24061 9.74678 
91.1698 1.80829 9.83616 88.5429 -2.62315 9.65086 86.828 -2.35644 9.71942 
84.8353 -2.37304 9.71538 82.829 -2.36985 9.71616 80.8256 -2.36664 9.71694 
78.8247 -2.36578 9.71715 76.8245 -2.3656 9.7172 74.8245 -2.36557 9.71721 
72.8245 -2.36556 9.71721 70.8245 -2.36556 9.71721 68.8245 -2.36556 9.71721 
66.8257 -2.36366 9.71767 64.8314 -2.35857 9.71891 62.7832 -2.35911 9.71878 
60.7246 -2.24061 9.74678 58.8302 -1.80829 9.83616 95.1372 1.76125 9.84469 
54.8628 -1.76125 9.84469 93.6379 9.74041 -2.26813 56.3621 -9.74041 -2.26813 
55.1439 1.64431 9.8649 94.8561 -1.64431 9.8649 53.9917 -6.55503 -7.55325 
96.0083 6.55503 -7.55325 57.4219 2.10662 -9.77661 92.2484 -2.23511 -9.74804 
58.9875 -1.56878 -9.87719 91.0734 1.52721 -9.88371 58.4734 9.72594 2.32939 
91.5266 -9.72595 2.32936 95.7279 9.92839 1.20298 54.2721 -9.92839 1.20298 
61.0826 2.09511 -9.77909 88.8507 -1.99579 -9.79984 91.392 9.80525 1.96901 
58.6102 -9.8055 1.96776 60.1244 9.77396 2.11892 89.8812 -9.77446 2.11661 
61.9582 9.80688 1.96088 63.9338 9.80426 1.97397 65.9286 9.80349 1.97777 
67.9191 9.80424 1.97405 69.9214 9.80401 1.9752 71.9272 9.80337 1.97839 
73.9189 9.80421 1.97421 75.9214 9.804 1.97523 77.928 9.80328 1.97879 
79.9278 9.8033 1.97873 81.919 9.80421 1.97422 83.9214 9.804 1.97523 
85.9287 9.80322 1.97913 87.9549 9.80045 1.99279 88.0526 -9.80794 1.95559 
86.0842 -9.8061 1.96478 84.0879 -9.80517 1.96941 82.0798 -9.80412 1.97467 
80.0825 -9.8043 1.97377 78.0891 -9.805 1.97027 76.0887 -9.80497 1.97043 
74.0799 -9.80408 1.97484 72.0826 -9.80429 1.97379 70.0882 -9.80492 1.97067 
68.0799 -9.80408 1.97484 66.0825 -9.80429 1.9738 64.0873 -9.80474 1.97156 
62.0546 -9.80073 1.99141 90.0777 9.74117 2.26486 59.929 -9.74191 2.26169 
53.6726 6.73827 -7.39024 96.328 -6.73828 -7.39024 92.0145 9.80098 -1.99018 
57.9874 -9.80016 -1.99422 62.665 2.2244 -9.75049 64.3651 2.33117 -9.72552 
63.1928 -1.97497 -9.80406 66.2162 2.48202 -9.68812 65.3194 -1.97193 -9.80467 
68.18 2.48917 -9.68628 67.3885 -1.89893 -9.81907 70.1337 2.48453 -9.68747 
69.3061 -1.9342 -9.81218 72.1084 2.51249 -9.68026 71.3889 -1.89383 -9.82005 
74.1206 2.51503 -9.6796 73.3063 -1.93298 -9.81242 76.1311 2.48316 -9.68782 
75.3889 -1.89366 -9.82008 78.1222 2.48434 -9.68752 77.3063 -1.93294 -9.81243 
80.1077 2.52171 -9.67786 79.3889 -1.89366 -9.82008 82.1714 2.49879 -9.6838 
81.3081 -1.92974 -9.81306 84.25 2.16098 -9.76474 83.3889 -1.89366 -9.82008 
86.0555 2.6884 -9.63289 85.3021 -1.8308 -9.832 87.0912 -1.83421 -9.83136 
54.1106 -1.43429 -9.89762 95.8898 1.4343 -9.89762 53.6843 8.33358 5.52914 
96.3157 -8.33358 5.52914 54.7528 1.47138 -9.89217 95.249 -1.47181 -9.89211 
94.6457 9.51061 3.09326 55.3543 -9.51061 3.09326 61.6112 -1.2483 -9.92279 
63.8051 1.18025 -9.93111 65.3921 1.11882 -9.93822 67.2787 1.06259 -9.94439 
69.2361 1.05154 -9.94557 71.2124 1.05422 -9.94528 73.2114 1.06154 -9.9445 
75.2089 1.05448 -9.94525 77.2074 1.05174 -9.94554 79.2008 1.073 -9.94327 
81.1735 1.10837 -9.93939 82.8539 1.14668 -9.93505 85.6106 1.27983 -9.91877 
87.1639 1.43671 -9.89727 53.4809 5.85485 8.10806 96.5191 -5.85485 8.10806 
63.0736 -5.22068 -8.53021 66.7719 5.59491 -8.28957 65.4196 -5.58622 -8.29543 
66.7956 -5.31192 -8.47369 69.4127 -5.57884 -8.30039 72.7695 5.60559 -8.28235 
70.7927 -5.30827 -8.47598 73.4004 -5.56899 -8.30701 74.7857 -5.3013 -8.48034 
77.4127 -5.57867 -8.30051 80.7675 5.60565 -8.28231 78.7928 -5.30818 -8.47604 
81.4028 -5.56596 -8.30903 82.8049 -5.27515 -8.49663 86.7715 5.57807 -8.30091 
85.3438 -5.53205 -8.33165 60.5163 5.55113 -8.31895 89.6527 -6.08892 -7.93379 
52.8858 -3.98541 -9.17259 97.1142 3.98541 -9.17259 62.126 6.18844 -7.85641 
64.233 6.42603 -7.6633 63.8417 -6.11217 -7.91589 68.8628 6.25953 -7.79989 
67.8496 -6.11075 -7.91699 70.2648 6.49043 -7.60883 71.8496 -6.11075 -7.91699 
74.8623 6.25967 -7.79978 76.4004 6.44487 -7.64746 75.8496 -6.11075 -7.91699 
78.2207 6.54596 -7.56111 79.8496 -6.11075 -7.91699 82.8624 6.25981 -7.79967 
84.2549 6.49206 -7.60744 83.8658 -6.10176 -7.92392 87.3991 -6.43074 -7.65934 
60.815 6.59032 -7.52248 53.1749 3.85145 -9.22965 96.8253 -3.85147 -9.22963 
96.4591 8.25792 5.64153 53.5409 -8.25792 5.64153 59.9157 9.21416 -3.88835 
90.3885 -9.2293 -3.85228 96.2457 6.33565 7.73819 53.7543 -6.33565 7.73819 
59.2037 9.91273 1.32585 90.7977 -9.9128 1.32526 52.9899 -1.10517 -9.93975 
97.0102 1.10516 -9.93975 52.999 1.42361 -9.89916 97.0015 -1.42371 -9.89914 
60.1267 1.97556 9.80394 89.8733 -1.97556 9.80394 97.6233 9.41167 3.38236 
52.3767 -9.41167 3.38236 56.2222 9.96482 -0.849976 93.7783 -9.96483 -0.849792 
83.5075 -8.73884 -4.86341 79.6767 -8.83424 -4.68788 75.5068 -8.74073 -4.86 
71.6766 -8.83429 -4.68778 67.5073 -8.74151 -4.8586 63.4973 -8.73142 -4.87671 
87.5724 -8.69845 -4.93528 92.7617 1.64268 9.86517 57.2383 -1.64268 9.86517 
62.0205 4.12152 -9.11225 64.3363 -4.14141 -9.10322 68.1725 -4.14556 -9.10133 
72.1693 -4.14106 -9.10339 76.1701 -4.14143 -9.10322 80.1714 -4.13752 -9.10499 
84.2346 -4.02519 -9.15521 52.9462 1.44691 9.89578 97.0538 -1.44691 9.89578 
56.9932 -7.01531 -7.12779 93.0092 7.01465 -7.12844 55.0972 3.11049 9.50499 
94.9028 -3.11049 9.50499 52.5452 8.24482 5.66065 97.4548 -8.24482 5.66065 
57.1281 1.6568 9.86281 92.8719 -1.6568 9.86281 58.6667 8.88244 -4.5959 
91.422 -8.90339 -4.55518 86.5712 7.36607 6.76469 63.4296 -7.3663 6.76443 
62.6438 7.4693 6.65053 87.3562 -7.46932 6.65051 64.6513 7.51135 6.603 
85.3487 -7.51136 6.60299 80.6451 7.51373 6.60029 69.3684 -7.53696 6.57375 
82.6259 7.51146 6.60288 67.3807 -7.51305 6.60107 78.6401 7.52298 6.58975 
71.3599 -7.52392 6.58867 76.6363 7.53651 6.57427 73.3636 -7.5369 6.57382 
74.6363 7.54081 6.56933 75.3633 -7.54113 6.56897 72.6355 7.54322 6.56657 
77.3644 -7.54333 6.56644 70.6353 7.5456 6.56384 79.3647 -7.54563 6.5638 
68.6353 7.54581 6.56359 81.3647 -7.54582 6.56358 66.6386 7.53329 6.57795 
83.3614 -7.5333 6.57795 88.5683 7.31721 6.81751 61.4321 -7.31733 6.81739 
59.3349 6.02467 7.98269 90.6651 -6.02467 7.98269 86.7604 9.04637 4.26417 
63.2431 -9.04701 4.26282 84.5788 7.43894 6.68447 65.4069 -7.44785 6.67454 
98.6755 1.48857 9.8896 51.3245 -1.48857 9.8896 68.5018 -9.0253 -4.30859 
76.5033 -9.02452 -4.31023 64.47 -9.01229 -4.33574 84.4933 -9.01245 -4.33541 
51.3208 1.2646 9.92072 98.6792 -1.2646 9.92072 
CELLS 39320 196600
4 2031 269 2661 270 
4 259 2659 258 2030 
4 2641 255 254 2029 
4 2028 244 2643 243 
4 2664 271 1893 270 
4 1892 255 256 2645 
4 1895 257 2666 258 
4 2646 243 242 1894 
4 982 115 114 2634 
4 129 984 130 2633 
4 132 983 131 2655 
4 985 146 147 2654 
4 266 2255 2667 265 
4 251 2644 2253 250 
4 248 2252 247 2647 
4 262 263 2665 2254 
4 2282 262 261 2657 
4 266 267 2663 2283 
4 2637 2280 247 246 
4 251 252 2281 2639 
4 141 2653 1654 140 
4 121 2632 120 1651 
4 138 2652 1653 137 
4 1652 124 123 2635 
4 271 5 2648 1897 
4 4 2629 1896 256 
4 2651 7 257 1899 
4 1898 242 2630 6 
4 125 124 1348 2638 
4 136 1349 2656 137 
4 141 2662 142 1350 
4 1347 2636 120 119 
4 2650 264 265 2240 
4 250 2631 2238 249 
4 2659 133 2658 2030 
4 145 2031 2661 2660 
4 2650 1734 264 2240 
4 2631 1732 2238 249 
4 2649 264 2241 263 
4 2239 248 249 2628 
4 259 2659 2030 1771 
4 269 2031 2661 1772 
4 128 2641 1770 1114 
4 1769 1113 2643 116 
4 133 132 2658 1111 
4 129 1110 2640 128 
4 2642 116 1109 115 
4 1112 145 146 2660 
4 121 122 2628 1731 
4 1733 139 2649 138 
4 1732 2631 123 122 
4 1734 2650 139 140 
4 138 2652 1325 1653 
4 2255 2653 2667 265 
4 2253 2644 2635 250 
4 114 982 2630 0 
4 2211 1971 2293 947 
4 1969 2209 2291 949 
4 2601 1988 1064 2273 
4 2275 2603 1989 1065 
4 1351 2601 1064 2273 
4 2275 2603 1065 1353 
4 249 2239 2628 1731 
4 264 1733 2649 2241 
4 2272 2600 1988 1064 
4 2602 1989 1065 2274 
4 2600 2272 1352 1064 
4 2602 1065 1354 2274 
4 248 2632 2252 2647 
4 263 2652 2665 2254 
4 3 147 2648 985 
4 2651 1 983 131 
4 2 130 984 2629 
4 2208 1968 2290 948 
4 1970 2210 2292 946 
4 1108 2027 1279 1697 
4 1108 2027 1698 1280 
4 20 2630 0 6 
4 2634 2646 242 1894 
4 256 1892 2645 2633 
4 2664 271 2654 1893 
4 257 1895 2666 2655 
4 237 236 2611 1738 
4 2031 2661 2660 270 
4 2659 2658 258 2030 
4 2643 2028 243 2642 
4 2640 255 2641 2029 
4 1892 255 2645 1110 
4 2666 1895 258 1111 
4 1109 243 2646 1894 
4 1112 2664 1893 270 
4 2651 1 7 241 
4 5 3 2648 194 
4 2 148 4 2629 
4 153 1739 2608 152 
4 133 2658 2030 1111 
4 145 1112 2031 2660 
4 20 195 2630 6 
4 2648 3 113 194 
4 2651 66 1 241 
4 2 148 2629 67 
4 2027 1108 1279 1825 
4 2027 1108 1825 1280 
4 2632 120 1651 2647 
4 2652 1653 137 2665 
4 2653 141 1654 2667 
4 1652 2644 124 2635 
4 2652 1325 1653 2254 
4 1674 1658 1283 2318 
4 1673 2319 1281 1657 
4 2462 1852 933 936 
4 1852 2463 933 936 
4 1717 1151 2069 990 
4 1018 2068 1718 1152 
4 2659 259 133 1771 
4 145 269 2661 1772 
4 244 1769 2643 116 
4 128 2641 254 1770 
4 2385 2333 1419 2177 
4 2359 2150 1420 2332 
4 2605 2216 1074 1303 
4 1732 1584 249 122 
4 2034 259 2030 1771 
4 269 2031 1772 2035 
4 1279 1719 2395 1825 
4 1720 1825 1280 2394 
4 2526 1823 2026 1403 
4 1823 2026 1403 2527 
4 1231 1555 1556 2175 
4 1580 2148 1579 1255 
4 1349 2656 137 2254 
4 124 2253 1348 2638 
4 2034 2030 1115 1771 
4 2031 1116 1772 2035 
4 237 1101 2013 1370 
4 236 237 61 1738 
4 1418 2118 2398 1472 
4 1417 2119 1471 2399 
4 2255 2653 1654 2667 
4 2644 1652 2253 2635 
4 2652 2241 1325 2254 
4 1277 1687 1403 2595 
4 2594 1278 1688 1403 
4 2250 1900 988 2056 
4 2057 986 2251 1902 
4 2117 2067 1649 2513 
4 1650 2066 2116 2512 
4 1279 2027 2391 1697 
4 1698 2027 2390 1280 
4 2069 1151 1587 990 
4 1018 1588 2068 1152 
4 1686 1136 1292 2518 
4 1290 1685 2519 1134 
4 1403 1277 2595 2527 
4 2526 1278 2594 1403 
4 2462 933 2512 1648 
4 1647 2513 2463 933 
4 1403 1277 2527 1711 
4 1712 1278 2526 1403 
4 1980 2018 1106 1757 
4 1281 2197 2523 1657 
4 1419 2385 2177 2176 
4 2150 2149 2359 1420 
4 2462 933 1648 936 
4 2463 1647 933 936 
4 2072 2070 1422 2466 
4 2467 2073 2071 1421 
4 2183 2319 1673 2057 
4 1674 2056 2318 2182 
4 1081 952 2230 1868 
4 2232 1870 950 1080 
4 2231 1083 1869 953 
4 1082 951 2233 1871 
4 153 72 1739 71 
4 189 108 109 1740 
4 2452 2066 2116 1200 
4 2117 1199 2067 2453 
4 2594 908 1688 1827 
4 1827 908 1687 2595 
4 1263 1351 1064 2273 
4 2275 1065 1265 1353 
4 1267 1655 2201 1088 
4 1089 1656 2200 1268 
4 1988 1263 1064 2273 
4 1989 2275 1065 1265 
4 122 249 1731 1583 
4 2252 2632 1651 2647 
4 2652 1653 2665 2254 
4 1855 2228 1702 1728 
4 2229 1701 1727 1855 
4 1720 1825 2394 1854 
4 1719 2395 1825 1854 
4 264 1733 2241 2451 
4 1140 1905 2056 2182 
4 2183 2057 1139 1937 
4 1089 1656 1345 2286 
4 1088 1655 2288 1343 
4 2241 2189 1325 1078 
4 982 20 2630 0 
4 2333 2123 1149 2177 
4 2122 2150 2332 1150 
4 1787 221 2375 1786 
4 1806 2349 1807 174 
4 1787 1788 2376 222 
4 1808 2350 175 1807 
4 2026 1403 2527 1711 
4 1712 2526 2026 1403 
4 1137 2061 2597 1709 
4 2060 1710 1138 2596 
4 1710 2330 1904 1416 
4 1415 2331 1936 1709 
4 223 1788 2377 1789 
4 1808 1809 176 2351 
4 2378 1790 224 1789 
4 1809 2352 1810 177 
4 266 2005 2283 1350 
4 247 2002 2280 1347 
4 225 1791 1790 2379 
4 1810 2353 1811 178 
4 2272 1264 1352 1064 
4 1354 1065 1266 2274 
4 2651 7 1899 241 
4 5 2648 1897 194 
4 148 4 2629 1896 
4 1556 2176 2175 2384 
4 1580 2358 2148 2149 
4 179 1811 1812 2354 
4 1792 2380 1791 226 
4 1734 2650 265 2240 
4 2631 1732 250 2238 
4 2066 2402 1642 2452 
4 2403 2067 1641 2453 
4 1101 237 62 1370 
4 203 204 1753 2515 
4 2594 908 1827 1403 
4 908 1827 1403 2595 
4 195 1898 2630 6 
4 71 2264 152 151 
4 205 1581 1671 2389 
4 1727 2229 1855 2237 
4 2228 1855 2236 1728 
4 1792 1793 2381 227 
4 1813 180 1812 2355 
4 1910 1909 1619 2406 
4 2429 1596 1942 1941 
4 2330 1710 1400 1416 
4 1415 1399 2331 1709 
4 1818 2606 1994 2242 
4 2244 1817 2607 1996 
4 1806 1805 2348 173 
4 2374 220 1785 1786 
4 933 1467 1851 932 
4 933 1851 1468 932 
4 2233 1082 1871 1992 
4 1083 1993 2231 1869 
4 2230 1081 1868 1991 
4 2232 1990 1870 1080 
4 1672 157 77 76 
4 204 30 29 1671 
4 2223 1314 953 1302 
4 2225 1312 1300 951 
4 2224 950 1299 1311 
4 1301 1313 952 2222 
4 2593 2027 1697 2199 
4 2027 2592 1698 2198 
4 2193 2237 2009 1715 
4 2008 1716 2236 2192 
4 985 2648 113 194 
4 66 2651 983 241 
4 148 984 2629 67 
4 20 195 982 2630 
4 912 913 1831 1427 
4 913 912 1831 1428 
4 2372 217 1783 218 
4 171 170 1803 2346 
4 169 170 2345 1802 
4 217 2371 1782 216 
4 2370 215 1781 216 
4 1801 169 168 2344 
4 1800 167 2343 168 
4 215 2369 1780 214 
4 1804 1805 172 2347 
4 219 2373 1785 1784 
4 166 167 2342 1799 
4 1779 214 2368 213 
4 2183 1717 2069 2393 
4 2512 933 1468 1648 
4 1647 1467 2513 933 
4 2606 1329 1818 1994 
4 2607 1817 1327 1996 
4 2514 2194 2314 1762 
4 1761 2315 2515 2195 
4 2367 1778 213 212 
4 165 1798 166 2341 
4 2190 1089 1268 1320 
4 2191 1319 1267 1088 
4 1881 957 1993 2231 
4 1883 955 2233 1992 
4 1880 956 2230 1991 
4 2246 2032 1339 1307 
4 2035 1342 2249 1310 
4 1656 1658 2522 1283 
4 1655 1281 2523 1657 
4 1806 2349 174 173 
4 221 220 2375 1786 
4 1768 2184 2064 2390 
4 2185 2391 1767 2065 
4 60 235 1668 59 
4 221 1787 2376 222 
4 2350 175 1807 174 
4 2122 2312 1410 2516 
4 2123 2313 2517 1409 
4 2234 1726 1826 2226 
4 1826 2235 2227 1725 
4 1773 1829 1819 2467 
4 1820 2466 1829 1774 
4 176 1808 2351 175 
4 1788 223 2377 222 
4 223 2378 224 1789 
4 1809 2352 177 176 
4 231 57 56 1593 
4 104 103 1594 184 
4 225 1790 224 2379 
4 1810 2353 178 177 
4 2380 225 1791 226 
4 1811 179 178 2354 
4 2466 1820 1829 1828 
4 1829 1828 1819 2467 
4 1793 2382 228 1794 
4 181 1813 1814 2356 
4 2150 1256 2149 1420 
4 2177 1419 2176 1232 
4 180 179 1812 2355 
4 2381 1792 227 226 
4 2392 1905 1140 2182 
4 2183 1139 2393 1937 
4 195 1898 982 2630 
4 983 2651 1899 241 
4 2648 985 1897 194 
4 984 148 2629 1896 
4 1419 2385 2176 1232 
4 2149 1256 2359 1420 
4 1018 1140 1718 2182 
4 1346 2287 1662 1091 
4 1344 1090 1661 2289 
4 164 1797 165 2340 
4 211 2366 212 1777 
4 1259 1665 2218 1387 
4 1290 2519 1469 1134 
4 1136 1292 2518 1470 
4 2374 220 219 1785 
4 1805 172 2348 173 
4 1977 2260 2015 1272 
4 2014 1271 2262 1976 
4 2263 1978 1273 2016 
4 2261 1979 2017 1274 
4 1813 181 180 2356 
4 1793 2382 227 228 
4 171 1804 172 2347 
4 2373 219 218 1784 
4 2027 1279 2391 1825 
4 2027 1825 2390 1280 
4 1708 1906 1907 2586 
4 1939 2587 1938 1707 
4 2361 2362 1821 2153 
4 2126 2335 2336 1822 
4 1048 1970 1749 1996 
4 1050 1994 1750 1968 
4 1940 991 1939 1683 
4 1908 1019 1684 1907 
4 1700 1826 2226 2284 
4 2284 1826 2227 1699 
4 2391 1767 2065 2395 
4 2064 1768 2390 2394 
4 1739 153 71 152 
4 2027 1698 2390 2198 
4 2027 2391 1697 2199 
4 1076 1323 1651 2014 
4 1658 2056 1283 2318 
4 64 1122 240 65 
4 1124 111 193 112 
4 1288 2287 1346 1091 
4 1090 1344 1286 2289 
4 1737 24 25 200 
4 237 61 1738 62 
4 1471 2119 2395 2399 
4 2118 2394 2398 1472 
4 2241 2652 263 2254 
4 2632 2239 248 2252 
4 106 188 1670 107 
4 2614 1985 1330 1260 
4 1987 1328 1258 2615 
4 1826 2227 1699 1725 
4 1826 1726 1700 2226 
4 231 2333 1765 2385 
4 2359 1766 184 2332 
4 2465 2467 2071 1421 
4 2070 2464 1422 2466 
4 1667 2258 1359 201 
4 1361 1669 154 2256 
4 1204 2149 1476 2328 
4 2329 2176 1475 1203 
4 2229 2285 1701 1855 
4 2228 2285 1855 1702 
4 231 57 1593 232 
4 185 104 1594 184 
4 217 1783 1782 1543 
4 170 1803 1567 1802 
4 1782 1542 1781 216 
4 169 1801 1802 1566 
4 1800 1565 1801 168 
4 215 1541 1781 1780 
4 167 1800 1564 1799 
4 1540 1780 214 1779 
4 205 31 30 1581 
4 78 77 1582 158 
4 2372 217 2371 1783 
4 1803 170 2345 2346 
4 2371 2370 1782 216 
4 2345 169 1802 2344 
4 2343 1801 168 2344 
4 2369 2370 215 1781 
4 2369 1780 214 2368 
4 167 2342 1800 2343 
4 2357 2148 1254 1579 
4 1555 1230 2383 2175 
4 2026 1389 1403 1711 
4 1712 2026 1389 1403 
4 2367 1779 2368 213 
4 2342 166 1799 2341 
4 1820 2464 910 1828 
4 1828 910 1819 2465 
4 1273 1978 2004 2016 
4 2015 1977 1272 2003 
4 1979 2017 1274 2005 
4 2002 1271 2014 1976 
4 1346 1901 989 1662 
4 987 1903 1344 1661 
4 1902 2251 2323 1363 
4 1365 2322 1900 2250 
4 1539 1778 1779 213 
4 166 1798 1799 1563 
4 72 73 153 1361 
4 2648 3 985 113 
4 66 2651 1 983 
4 984 2 2629 67 
4 2300 1358 2203 1055 
4 1527 1305 2214 1259 
4 2216 1257 1303 1525 
4 2366 1778 2367 212 
4 1798 165 2340 2341 
4 2405 2406 2074 1158 
4 266 2005 1350 2255 
4 182 2357 181 1814 
4 228 2383 229 1794 
4 237 2013 2267 1370 
4 1357 943 1054 1975 
4 1053 1356 2202 2298 
4 2204 2299 1355 1052 
4 220 2374 2375 1786 
4 1806 2348 2349 173 
4 2335 159 1557 1582 
4 1581 1533 2361 206 
4 247 2002 1347 2252 
4 1787 221 2376 2375 
4 2349 2350 1807 174 
4 1330 2614 1260 1063 
4 1328 1061 1258 2615 
4 956 1081 2230 1991 
4 957 1083 1993 2231 
4 955 1082 2233 1992 
4 2462 1852 936 1853 
4 1852 2463 936 1853 
4 1088 2288 1285 1343 
4 1089 1345 1287 2286 
4 1613 1958 2446 2445 
4 1614 1959 2447 2446 
4 2423 1927 2424 1637 
4 2422 2423 1636 1926 
4 1612 1957 2445 2444 
4 2422 1635 2421 1925 
4 1611 1956 2444 2443 
4 2420 1924 2421 1634 
4 1610 1955 2443 2442 
4 2419 1923 2420 1633 
4 1954 1609 2441 2442 
4 2419 2418 1922 1632 
4 1608 1953 2441 2440 
4 2418 2417 1921 1631 
4 1920 2417 2416 1630 
4 1952 1607 2439 2440 
4 2416 2415 1919 1629 
4 1951 1606 2438 2439 
4 2415 2414 1918 1628 
4 1605 1950 2438 2437 
4 2414 1627 2413 1917 
4 1949 1604 2436 2437 
4 1948 1603 2435 2436 
4 2412 2413 1626 1916 
4 2412 1625 2411 1915 
4 2434 1947 1602 2435 
4 2411 1914 1624 2410 
4 2434 1946 2433 1601 
4 1623 1913 2409 2410 
4 2432 2433 1945 1600 
4 2376 1788 2377 222 
4 1808 2350 2351 175 
4 1599 2432 2431 1944 
4 1622 1912 2408 2409 
4 2378 223 2377 1789 
4 1809 2352 176 2351 
4 1790 2378 224 2379 
4 2352 2353 1810 177 
4 2353 1811 178 2354 
4 225 2380 1791 2379 
4 2514 157 1754 156 
4 1159 2077 2429 1597 
4 2406 1620 2076 1160 
4 1642 2066 2452 1200 
4 2067 1199 1641 2453 
4 1812 179 2354 2355 
4 2380 1792 2381 226 
4 1621 1911 2407 2408 
4 2430 2431 1943 1598 
4 2184 1284 1768 1660 
4 1282 2185 1767 1659 
4 201 27 26 1667 
4 1908 1618 1020 1909 
4 1940 1941 992 1595 
4 1618 1908 2405 1909 
4 2428 1941 1940 1595 
4 1993 2035 2249 1310 
4 1990 2032 2246 1307 
4 1749 1970 2304 1996 
4 1994 2302 1750 1968 
4 2381 1793 2382 227 
4 1813 180 2355 2356 
4 2118 1418 1146 1472 
4 2119 1145 1417 1471 
4 2269 1346 1901 2277 
4 1903 2279 1344 2271 
4 164 1797 2340 2339 
4 211 2366 1777 2365 
4 2664 1112 146 270 
4 132 2666 258 1111 
4 243 1109 2646 115 
4 255 129 2645 1110 
4 2053 1686 1292 2518 
4 1290 1685 2055 2519 
4 2189 2241 2016 1078 
4 2205 943 1357 1975 
4 187 1528 1670 2215 
4 1668 2217 1526 234 
4 1536 2364 1211 1535 
4 1559 1235 1560 2338 
4 230 1531 55 1815 
4 183 1816 102 1532 
4 2079 2430 1597 1598 
4 1620 1621 2407 2078 
4 1415 2599 1289 1705 
4 1706 1291 1416 2598 
4 1614 1613 1959 2446 
4 1927 2423 1636 1637 
4 1613 1612 1958 2445 
4 1635 2422 1636 1926 
4 2421 1635 1634 1925 
4 1957 1612 1611 2444 
4 2420 1633 1924 1634 
4 1956 1611 1610 2443 
4 1955 1610 1609 2442 
4 2419 1923 1633 1632 
4 1922 2418 1631 1632 
4 1609 1608 1954 2441 
4 2417 1630 1921 1631 
4 1953 1608 1607 2440 
4 1920 2416 1629 1630 
4 1952 1607 1606 2439 
4 1606 1605 1951 2438 
4 2415 1919 1629 1628 
4 1605 1604 1950 2437 
4 2414 1627 1918 1628 
4 1604 1603 1949 2436 
4 1627 2413 1917 1626 
4 1625 2412 1626 1916 
4 1948 1603 1602 2435 
4 1947 2434 1602 1601 
4 1625 2411 1915 1624 
4 1914 1623 1624 2410 
4 1946 2433 1601 1600 
4 1599 2432 1945 1600 
4 1622 1623 1913 2409 
4 233 58 1691 2621 
4 1692 2620 105 186 
4 2429 2430 1942 1597 
4 1620 1910 2406 2407 
4 1148 2335 2126 1822 
4 1821 2361 2153 1147 
4 1994 1050 2242 1968 
4 1048 2244 1970 1996 
4 1474 1933 1045 1047 
4 1473 1046 1017 1965 
4 2256 2010 2608 1102 
4 2012 2258 2610 1100 
4 1621 1622 1912 2408 
4 2431 1599 1944 1598 
4 935 1735 2589 1319 
4 2588 1320 1736 935 
4 2072 1424 2074 2468 
4 2469 2075 2073 1423 
4 57 233 58 1691 
4 104 186 1692 105 
4 171 1804 1568 1803 
4 1783 1544 218 1784 
4 1468 2510 1466 932 
4 1465 2511 1467 932 
4 1805 172 2347 2348 
4 2374 219 2373 1785 
4 155 74 1669 154 
4 1655 986 1902 1343 
4 1656 1345 1900 988 
4 1928 2425 2424 1638 
4 2447 1615 2448 1960 
4 1804 171 2346 2347 
4 2372 2373 218 1784 
4 1133 2054 2195 1936 
4 1904 2194 1135 2052 
4 1829 2468 1830 1774 
4 1830 1829 1773 2469 
4 2406 1620 2407 2076 
4 2429 2077 2430 1597 
4 1681 2275 1353 1975 
4 2273 1351 1973 1679 
4 1211 1210 2154 1479 
4 1562 1797 165 1798 
4 1538 1778 212 1777 
4 2610 1737 1100 1359 
4 1102 1361 1739 2608 
4 1578 2357 2147 1254 
4 2383 1230 1554 2174 
4 1424 2074 2468 1426 
4 2469 1425 2075 1423 
4 210 1776 1775 2364 
4 163 1795 1796 2338 
4 142 1099 1350 2283 
4 2280 1347 1096 119 
4 910 909 1643 2465 
4 2464 909 1644 910 
4 2069 1717 990 2393 
4 2258 1667 2456 201 
4 1669 2454 154 2256 
4 1614 1615 2447 1960 
4 2424 1928 1638 1637 
4 2430 1943 1597 1598 
4 1620 1621 1911 2407 
4 2191 1267 2201 1088 
4 2190 1089 2200 1268 
4 1658 1674 2056 2318 
4 2319 1673 2057 1657 
4 2300 2203 1974 1055 
4 912 1831 1428 2470 
4 1831 912 1427 2471 
4 1673 2183 2057 1139 
4 1674 1140 2056 2182 
4 2402 1642 2452 1932 
4 1964 2403 1641 2453 
4 2360 205 1581 206 
4 159 1582 2334 158 
4 1727 1855 2591 2237 
4 1855 2590 2236 1728 
4 2382 2383 228 1794 
4 2357 181 1814 2356 
4 1093 1258 1668 2221 
4 2219 1670 1095 1260 
4 1317 2229 2301 1054 
4 2228 1318 2300 1055 
4 1401 1966 2525 1965 
4 1933 2524 1402 1934 
4 2299 2204 1973 1052 
4 1972 1053 2202 2298 
4 1828 1819 2467 2465 
4 2464 1820 2466 1828 
4 1467 2513 933 1851 
4 933 1851 2512 1468 
4 1642 2402 1678 1932 
4 2403 1964 1641 1677 
4 58 1691 2621 1296 
4 2620 1298 1692 105 
4 1765 231 2385 230 
4 183 2359 1766 184 
4 2287 2269 1346 1901 
4 1344 1903 2271 2289 
4 1092 2180 2258 2456 
4 2454 2256 1094 2178 
4 1639 1930 1929 2426 
4 1961 2449 1962 1616 
4 1969 1995 1752 2243 
4 1997 1971 1751 2245 
4 1353 2229 1317 1054 
4 2228 1318 1055 1354 
4 1554 2174 1229 2382 
4 1253 1578 2356 2147 
4 1887 1879 1883 959 
4 1881 961 1877 1885 
4 958 1878 1882 1886 
4 1880 1884 1876 960 
4 1330 2053 1686 1292 
4 1685 1328 1290 2055 
4 28 1525 2585 1295 
4 1297 1527 2584 75 
4 1229 2173 1553 2382 
4 1577 1253 2356 2146 
4 2387 1017 1703 1141 
4 2386 1142 1704 1045 
4 2299 2227 1315 1052 
4 2298 1053 1316 2226 
4 2227 1351 1315 1052 
4 1053 1316 2226 1352 
4 1910 1909 1021 1619 
4 1596 1942 1941 993 
4 1883 1887 959 963 
4 965 961 1881 1885 
4 958 1882 962 1886 
4 964 1884 1880 960 
4 240 66 65 979 
4 113 112 981 193 
4 2145 1252 1576 2355 
4 2172 1228 2381 1552 
4 2171 1227 2380 1551 
4 1575 2144 1251 2354 
4 23 199 2266 198 
4 190 110 191 2265 
4 237 63 2267 238 
4 2170 1550 1226 2379 
4 1574 1250 2353 2143 
4 2585 203 1295 2515 
4 2169 2378 1549 1225 
4 2352 1249 2142 1573 
4 1572 2141 1248 2351 
4 1548 2377 1224 2168 
4 1571 2140 1247 2350 
4 2376 1223 1547 2167 
4 79 161 1558 80 
4 1534 32 33 208 
4 1018 2392 1905 1140 
4 1139 990 2393 1937 
4 2452 1640 2116 2426 
4 2449 2117 2453 1617 
4 1593 232 1691 2517 
4 185 1594 1692 2516 
4 1135 1904 2052 1706 
4 1705 2054 1133 1936 
4 201 27 1667 202 
4 74 73 1669 154 
4 107 189 1362 108 
4 2072 1424 2468 2466 
4 2467 2469 2073 1423 
4 2505 1459 1193 2109 
4 1460 2504 1194 2108 
4 2502 1458 2106 1192 
4 2503 1457 1191 2107 
4 1455 2501 2105 1189 
4 1456 2104 2500 1190 
4 2498 1454 2102 1188 
4 1187 2103 2499 1453 
4 1185 2101 2497 1451 
4 1452 2496 1186 2100 
4 1184 2494 2098 1450 
4 1183 1449 2099 2495 
4 2096 1182 2492 1448 
4 1447 2493 2097 1181 
4 2094 1180 2490 1446 
4 1445 2491 2095 1179 
4 2092 1178 2488 1444 
4 1177 2489 1443 2093 
4 2487 2091 1441 1175 
4 1176 1442 2486 2090 
4 1440 2088 2484 1174 
4 2089 1173 1439 2485 
4 1578 2357 2356 2147 
4 1554 2383 2174 2382 
4 1172 2482 2086 1438 
4 1171 2087 2483 1437 
4 1435 2481 2085 1169 
4 2084 1170 2480 1436 
4 2082 1168 2478 1434 
4 1433 2479 2083 1167 
4 2080 1166 2476 1432 
4 1431 2477 2081 1165 
4 1851 2510 1468 932 
4 1467 2511 1851 932 
4 26 1667 1359 201 
4 1137 2061 1709 1675 
4 1676 2060 1710 1138 
4 2081 1599 2431 1598 
4 1621 1622 2408 2080 
4 1725 935 2589 1319 
4 1726 1320 2588 935 
4 2355 1252 1577 2146 
4 1228 2173 2381 1553 
4 1429 1163 2475 2079 
4 2078 1164 2474 1430 
4 2507 1461 1195 2111 
4 1196 1462 2506 2110 
4 1861 1059 1979 2309 
4 1058 1863 1978 2311 
4 1621 2407 2078 2408 
4 2079 2431 2430 1598 
4 1977 1057 1860 2308 
4 2310 1056 1862 1976 
4 57 232 233 1691 
4 104 186 185 1692 
4 2074 1424 1158 1426 
4 1425 1157 2075 1423 
4 182 1816 101 102 
4 1716 2236 2192 1322 
4 2237 2193 1321 1715 
4 1620 1910 1619 2406 
4 1596 2429 1942 1597 
4 1733 1585 2241 2451 
4 230 1531 1815 2384 
4 2358 1816 183 1532 
4 1227 2172 2380 1552 
4 2145 1251 2354 1576 
4 1682 1974 1354 2274 
4 2464 1644 1820 910 
4 1819 910 1643 2465 
4 1019 1908 1684 1020 
4 991 1940 992 1683 
4 1594 185 184 2332 
4 231 1593 2333 232 
4 1680 1972 2272 1352 
4 1250 1575 2353 2144 
4 1226 2171 2379 1551 
4 1574 2352 1249 2143 
4 1550 2378 2170 1225 
4 2169 1549 2377 1224 
4 2142 1248 2351 1573 
4 1247 2141 1572 2350 
4 1223 2376 1548 2168 
4 1222 1547 2167 2375 
4 1246 2349 2140 1571 
4 2448 1615 2115 1616 
4 2425 1639 2114 1638 
4 1375 1856 2242 1968 
4 2244 1970 1858 1373 
4 1065 1294 1266 2213 
4 2212 1264 1064 1293 
4 2069 1205 2071 2401 
4 2400 2070 2068 1206 
4 1745 2065 2627 2525 
4 2524 1746 2064 2626 
4 2405 1619 2406 1158 
4 2232 1335 954 1080 
4 956 1081 1337 2230 
4 955 1082 1336 2233 
4 957 1338 1083 2231 
4 2081 1599 2432 2431 
4 2408 1622 2409 2080 
4 1404 1719 1279 1825 
4 1825 1404 1720 1280 
4 2173 2381 1553 2382 
4 2355 1577 2356 2146 
4 1145 1767 1471 2395 
4 1146 1768 2394 1472 
4 1693 2270 1858 2278 
4 1856 2276 2268 1695 
4 1623 1624 2410 2084 
4 2433 2085 1601 1600 
4 2112 2424 1638 1637 
4 1615 1614 2447 2113 
4 2612 1736 1389 2306 
4 1735 2613 1389 2306 
4 2358 183 2359 1532 
4 2385 1531 230 2384 
4 1602 2434 2087 1601 
4 1604 1603 2436 2091 
4 1627 2090 2413 1626 
4 1605 1604 2437 2093 
4 2094 2415 1629 1628 
4 1606 1605 2438 2095 
4 2416 2096 1629 1630 
4 2417 2098 1630 1631 
4 2418 2100 1631 1632 
4 2102 2419 1633 1632 
4 1635 2106 2421 1634 
4 2423 2110 1636 1637 
4 2409 1623 2410 2082 
4 2083 2433 2432 1600 
4 1624 2411 2410 2084 
4 2085 2434 2433 1601 
4 2429 2428 1596 1941 
4 1909 2405 1619 2406 
4 1602 2434 2435 2087 
4 1625 2412 2411 2086 
4 1603 2089 2435 2436 
4 2088 2412 2413 1626 
4 1604 2436 2437 2091 
4 2414 1627 2090 2413 
4 2438 1605 2437 2093 
4 2415 2092 2414 1628 
4 2438 1606 2095 2439 
4 2094 2415 2416 1629 
4 1607 2097 2439 2440 
4 2417 2096 2416 1630 
4 2417 2418 2098 1631 
4 2099 1608 2441 2440 
4 2419 2100 2418 1632 
4 1609 2101 2441 2442 
4 2102 2419 2420 1633 
4 2103 1610 2443 2442 
4 2104 2420 2421 1634 
4 2105 1611 2444 2443 
4 1635 2106 2422 2421 
4 2107 1612 2445 2444 
4 2109 1613 2446 2445 
4 2108 2422 2423 1636 
4 2110 2423 2424 1637 
4 1614 2447 2111 2446 
4 2447 1615 2113 2448 
4 2425 2112 2424 1638 
4 1558 2336 160 1557 
4 1534 1533 207 2362 
4 2583 2582 1014 1499 
4 1523 2558 1042 2559 
4 983 2651 257 1899 
4 1898 242 982 2630 
4 2629 984 1896 256 
4 271 2648 985 1897 
4 2354 2145 1576 2355 
4 2380 2172 2381 1552 
4 1645 1824 2325 2465 
4 2464 2324 1646 1824 
4 2316 1676 1135 1276 
4 1275 1133 2317 1675 
4 2171 2380 2379 1551 
4 1575 2353 2144 2354 
4 1882 954 1113 1080 
4 2378 1550 2170 2379 
4 2352 1574 2353 2143 
4 2352 2142 2351 1573 
4 2378 2169 1549 2377 
4 2141 1572 2350 2351 
4 2376 2377 1548 2168 
4 1547 2376 2167 2375 
4 2349 2140 1571 2350 
4 157 2388 2514 1754 
4 204 2389 1753 2515 
4 2463 2513 1852 933 
4 1852 2462 933 2512 
4 1533 32 1534 207 
4 1558 160 79 1557 
4 2061 1133 2195 1936 
4 2060 1904 2194 1135 
4 33 1534 208 1535 
4 80 1559 161 1558 
4 2464 909 910 1828 
4 909 910 1828 2465 
4 1729 1415 1399 2331 
4 1730 2330 1400 1416 
4 2454 155 1669 154 
4 1689 2593 1390 1697 
4 1690 1390 2592 1698 
4 1201 2403 2067 1641 
4 2402 1202 2066 1642 
4 2299 1381 1355 1052 
4 1053 1382 1356 2298 
4 2074 1426 1160 2470 
4 1159 2471 1425 2075 
4 1584 249 122 1583 
4 1383 2301 1357 1054 
4 2300 1384 1358 1055 
4 2128 2337 1235 1234 
4 1204 2150 2149 2328 
4 2329 2177 2176 1203 
4 1655 2201 1088 2288 
4 1089 1656 2286 2200 
4 2066 1650 2116 1200 
4 1199 2117 2067 1649 
4 2404 2405 2072 1156 
4 1155 2428 2073 2427 
4 1850 1466 931 2508 
4 1465 2509 1850 931 
4 1878 958 1882 954 
4 956 1880 1876 960 
4 1881 961 957 1877 
4 1879 955 1883 959 
4 2048 944 1356 2202 
4 1355 2204 942 2050 
4 2428 1596 1941 1595 
4 2405 1618 1909 1619 
4 1207 1465 2511 1467 
4 2510 1208 1468 1466 
4 1881 1116 2035 1993 
4 2034 1115 1883 1992 
4 2032 1990 1882 1113 
4 1114 1880 2033 1991 
4 1337 1081 952 2230 
4 2232 950 1335 1080 
4 1338 1083 2231 953 
4 1336 1082 951 2233 
4 930 1849 1464 2506 
4 1463 2507 1849 930 
4 1973 1351 1052 1679 
4 1680 1053 1972 1352 
4 1051 941 2243 1760 
4 1049 1759 2245 939 
4 1682 1974 1055 1354 
4 1681 1353 1054 1975 
4 1747 2059 1134 1141 
4 1142 2058 1136 1748 
4 987 1903 1364 1344 
4 1366 1346 1901 989 
4 1019 1588 1684 1907 
4 991 1939 1683 1587 
4 1833 914 1431 2475 
4 1833 914 2474 1432 
4 2477 915 1834 1433 
4 915 2476 1834 1434 
4 1835 916 1435 2479 
4 916 2478 1835 1436 
4 1836 917 2480 1438 
4 1836 2481 917 1437 
4 1837 1440 918 2482 
4 1439 2483 1837 918 
4 1441 2485 1838 919 
4 1838 1442 919 2484 
4 1839 920 2486 1444 
4 1443 2487 1839 920 
4 1446 2488 921 1840 
4 2489 1445 921 1840 
4 1448 2490 922 1841 
4 2491 1447 922 1841 
4 923 1842 1450 2492 
4 1449 2493 1842 923 
4 1843 2494 1452 924 
4 1451 2495 1843 924 
4 1453 2497 1844 925 
4 1844 925 2496 1454 
4 926 2498 1845 1456 
4 2499 1455 926 1845 
4 927 1846 1458 2500 
4 2501 1457 927 1846 
4 2503 1459 928 1847 
4 1847 928 2502 1460 
4 913 1832 1430 2472 
4 913 1832 2473 1429 
4 2360 1581 2361 206 
4 2335 159 1582 2334 
4 2505 1461 929 1848 
4 1848 929 2504 1462 
4 1524 1256 2149 1476 
4 2176 1500 1475 1232 
4 2337 1235 1234 1559 
4 1211 2363 1210 1535 
4 1246 1245 2348 1570 
4 2374 1222 1546 1221 
4 1092 2258 1667 2456 
4 1669 2454 2256 1094 
4 1256 1580 2358 1532 
4 1531 1232 1556 2384 
4 1829 1773 2469 2467 
4 2466 2468 1829 1774 
4 1044 1642 1678 1932 
4 1964 1016 1641 1677 
4 2508 1464 2112 1198 
4 2509 1463 1197 2113 
4 1619 1620 2406 1160 
4 1159 2429 1596 1597 
4 1018 2392 1140 2182 
4 1826 2235 1725 2589 
4 1726 2234 1826 2588 
4 106 188 187 1670 
4 235 1668 59 234 
4 2151 1411 1143 1147 
4 2124 1148 1144 1412 
4 1155 2073 2071 2427 
4 2404 2072 2070 1156 
4 2176 1475 1203 1232 
4 1256 1204 2149 1476 
4 1159 1425 1157 2075 
4 1158 2074 1426 1160 
4 1989 1065 1294 1265 
4 1263 1988 1064 1293 
4 1615 2448 1961 1616 
4 1929 1639 2425 1638 
4 1764 2398 2460 1853 
4 2399 1763 2461 1853 
4 2563 2564 995 1943 
4 1023 2539 1911 2540 
4 1345 1365 1900 988 
4 986 1902 1343 1363 
4 1741 958 2618 1084 
4 2616 1743 1086 960 
4 1744 1087 961 2617 
4 1742 2619 959 1085 
4 25 26 1359 201 
4 2541 1024 1912 2540 
4 1944 2565 2564 996 
4 2123 2327 1589 2177 
4 1590 2150 2326 2122 
4 2563 2562 1942 994 
4 2539 2538 1022 1910 
4 2241 138 2652 1325 
4 1875 1722 1085 1983 
4 2275 2229 1353 1975 
4 2565 2566 997 1945 
4 2542 1025 1913 2541 
4 1980 1872 1086 1723 
4 1721 1874 1084 1982 
4 1415 2599 1705 1936 
4 1904 1706 1416 2598 
4 1946 2567 2566 998 
4 2543 2542 1026 1914 
4 2060 1138 2396 2596 
4 2061 1137 2597 2397 
4 1947 2568 2567 999 
4 2543 2544 1915 1027 
4 2545 1028 1916 2544 
4 1948 2568 1000 2569 
4 1949 1001 2570 2569 
4 2545 2546 1917 1029 
4 2546 2547 1918 1030 
4 2571 2570 1950 1002 
4 2571 2572 1003 1951 
4 2547 2548 1919 1031 
4 2572 1952 2573 1004 
4 2548 1920 1032 2549 
4 2550 1033 1921 2549 
4 1005 2574 1953 2573 
4 1922 1034 2550 2551 
4 1954 2575 2574 1006 
4 1923 1035 2551 2552 
4 1955 2576 2575 1007 
4 1924 2552 2553 1036 
4 1008 1956 2576 2577 
4 1957 1009 2578 2577 
4 2553 1037 2554 1925 
4 1958 1010 2579 2578 
4 1012 2580 2581 1960 
4 2555 2554 1038 1926 
4 1959 2580 2579 1011 
4 1927 2555 2556 1039 
4 1040 1928 2557 2556 
4 1733 2649 2241 263 
4 2239 248 2628 1731 
4 2190 2234 2006 1714 
4 2235 2191 2007 1713 
4 235 61 1360 236 
4 1669 73 1361 154 
4 1559 2337 161 1558 
4 1687 908 1403 2595 
4 908 2594 1688 1403 
4 2400 2404 2070 1206 
4 2071 1205 2427 2401 
4 1380 1099 142 2283 
4 2282 1379 1098 136 
4 1097 1378 125 2281 
4 1377 2280 1096 119 
4 203 28 2585 1295 
4 1667 2456 201 202 
4 1816 182 2357 2358 
4 2383 229 1815 2384 
4 182 1816 2357 1814 
4 2383 229 1794 1815 
4 2603 1065 1353 1701 
4 2602 1065 1702 1354 
4 1112 145 2031 1116 
4 133 2030 1115 1111 
4 2205 943 1975 2311 
4 2203 945 2309 1974 
4 2270 2007 2288 1285 
4 2268 1287 2286 2006 
4 2258 1092 1667 1359 
4 1361 1669 2256 1094 
4 1652 2253 2635 2238 
4 2653 2255 1654 2240 
4 1973 2204 2310 942 
4 944 2308 1972 2202 
4 1830 912 1831 2471 
4 912 1830 1831 2470 
4 1531 1765 230 55 
4 183 102 1766 1532 
4 2524 1746 2520 2064 
4 2065 1745 2521 2525 
4 1351 2227 2273 1973 
4 1500 2329 2176 1475 
4 2149 1524 1476 2328 
4 1258 2217 1668 2221 
4 2219 1670 1260 2215 
4 1102 2010 2608 152 
4 190 1103 2011 2609 
4 1101 237 2013 2611 
4 2558 1930 1042 2559 
4 2582 2583 1014 1962 
4 1329 1818 1994 1050 
4 1817 1048 1327 1996 
4 1256 1255 1524 2149 
4 2176 1500 1232 1231 
4 2009 1286 1383 1357 
4 1384 1288 2008 1358 
4 955 1879 1883 2233 
4 957 1881 1877 2231 
4 2232 1878 1882 954 
4 1880 956 1876 2230 
4 1816 182 2358 183 
4 229 230 1815 2384 
4 2155 1211 2154 1479 
4 991 2587 1707 1591 
4 1019 1592 1708 2586 
4 2216 1257 1074 1303 
4 2562 2561 1941 993 
4 1909 2538 1021 2537 
4 1023 2540 1505 1504 
4 1481 1480 2564 995 
4 1210 1478 2154 1479 
4 1503 1502 2127 1234 
4 232 233 1691 2517 
4 1692 185 2516 186 
4 163 1795 2338 162 
4 209 210 1775 2364 
4 1658 1674 1140 2056 
4 1673 2057 1657 1139 
4 2185 2391 1282 1767 
4 1284 2184 1768 2390 
4 1319 2191 1713 1088 
4 1089 2190 1714 1320 
4 199 2610 1100 2012 
4 1788 223 48 1789 
4 78 160 1557 79 
4 32 1533 31 207 
4 2373 2374 1545 1221 
4 1245 1569 2347 2348 
4 2348 1246 1570 2349 
4 2374 1222 2375 1546 
4 2114 1208 2510 1466 
4 1465 2115 1207 2511 
4 2336 2126 1822 1234 
4 2362 1210 1821 2153 
4 96 1809 1810 177 
4 79 161 160 1558 
4 32 1534 207 208 
4 225 1791 50 1790 
4 2270 2288 1902 1343 
4 2268 1345 1900 2286 
4 2229 2301 1054 1975 
4 2228 2300 1974 1055 
4 109 1740 1103 2609 
4 2116 1650 2512 1468 
4 2117 1649 1467 2513 
4 1528 1298 2620 105 
4 1526 58 2621 1296 
4 2288 2270 1285 1343 
4 1345 2268 1287 2286 
4 2336 2335 160 1557 
4 1533 2361 207 2362 
4 1482 1481 2565 996 
4 2541 1024 1505 1506 
4 1710 1904 1706 1416 
4 1705 1415 1936 1709 
4 1807 1806 174 93 
4 1705 2054 1060 1133 
4 1062 1135 2052 1706 
4 1108 1404 1279 1825 
4 1108 1404 1825 1280 
4 1578 2357 1254 1579 
4 1230 1555 2383 1554 
4 2332 2122 1410 2516 
4 2333 2123 2517 1409 
4 1639 1930 1041 1929 
4 1013 1961 1962 1616 
4 2542 1507 1025 1506 
4 2566 1483 1482 997 
4 1275 2317 2063 1675 
4 2404 1908 1684 1907 
4 1940 1939 2427 1683 
4 138 2241 2652 263 
4 2239 2632 248 121 
4 2601 1351 1064 1699 
4 1700 2600 1352 1064 
4 1484 1483 2567 998 
4 2543 1508 1026 1507 
4 1485 1484 2568 999 
4 1508 2544 1027 1509 
4 2545 1028 1509 1510 
4 1485 1486 1000 2569 
4 1486 1487 1001 2570 
4 2546 1029 1510 1511 
4 1487 2571 1488 1002 
4 2547 1030 1511 1512 
4 1513 2548 1512 1031 
4 1003 2572 1488 1489 
4 1011 2580 1496 1497 
4 2556 1039 1520 1521 
4 1032 1513 2549 1514 
4 1490 2573 1004 1489 
4 1491 1490 2574 1005 
4 1033 2550 1515 1514 
4 1034 2551 1516 1515 
4 1492 1491 2575 1006 
4 1035 2552 1517 1516 
4 1493 1492 2576 1007 
4 2553 1036 1517 1518 
4 1494 1008 1493 2577 
4 2578 1009 1495 1494 
4 1037 1518 2554 1519 
4 2579 1010 1496 1495 
4 2555 1519 1520 1038 
4 1691 233 2621 2517 
4 2620 1692 2516 186 
4 2557 1040 1521 1522 
4 2581 1012 1498 1497 
4 1599 1944 1598 996 
4 1024 1621 1622 1912 
4 997 1599 1945 1600 
4 1623 1025 1622 1913 
4 1026 1914 1623 1624 
4 998 1946 1601 1600 
4 999 1947 1602 1601 
4 1625 1915 1027 1624 
4 1000 1948 1603 1602 
4 1625 1626 1028 1916 
4 1604 1603 1001 1949 
4 1627 1917 1029 1626 
4 1604 1605 1950 1002 
4 1918 1627 1030 1628 
4 1919 1031 1629 1628 
4 1605 1003 1606 1951 
4 1004 1952 1607 1606 
4 1629 1920 1630 1032 
4 1630 1033 1921 1631 
4 1608 1005 1953 1607 
4 1034 1922 1631 1632 
4 1608 1609 1954 1006 
4 1610 1955 1609 1007 
4 1923 1035 1633 1632 
4 1008 1956 1611 1610 
4 1924 1633 1036 1634 
4 1957 1612 1009 1611 
4 1635 1037 1634 1925 
4 1010 1613 1612 1958 
4 1635 1636 1038 1926 
4 1613 1614 1959 1011 
4 1039 1927 1636 1637 
4 1353 2229 1054 1975 
4 1974 2228 1055 1354 
4 1618 2405 2404 1156 
4 2428 1155 1595 2427 
4 1259 2218 2178 1387 
4 2288 1655 2523 1343 
4 1345 1656 2522 2286 
4 1818 1994 1050 2242 
4 2244 1048 1817 1996 
4 1618 1020 1909 1021 
4 1941 993 992 1595 
4 1053 1382 2298 1316 
4 2299 1315 1381 1052 
4 2312 2058 1748 1063 
4 1747 1061 2059 2313 
4 1419 2333 1149 2177 
4 2150 1420 2332 1150 
4 1972 1053 2298 2226 
4 2227 2299 1973 1052 
4 945 2049 1358 2203 
4 943 2051 2205 1357 
4 1943 995 1597 1598 
4 1620 1621 1023 1911 
4 228 54 53 1794 
4 1972 1053 2226 1352 
4 1351 2227 1973 1052 
4 2193 1689 1321 1269 
4 1690 1270 2192 1322 
4 1317 2301 1383 1054 
4 1318 1384 2300 1055 
4 1459 2505 2503 2109 
4 2502 2504 1460 2108 
4 2502 1458 2500 2106 
4 2501 1457 2503 2107 
4 2104 2498 1456 2500 
4 2501 1455 2105 2499 
4 2103 2497 2499 1453 
4 2496 2498 1454 2102 
4 2101 2495 2497 1451 
4 2494 2496 1452 2100 
4 1449 2493 2099 2495 
4 2494 2098 1450 2492 
4 2490 2096 2492 1448 
4 2493 2491 1447 2097 
4 2489 1445 2491 2095 
4 2490 2094 1446 2488 
4 2092 2488 2486 1444 
4 2489 2487 1443 2093 
4 2486 1442 2484 2090 
4 2091 2485 2487 1441 
4 2089 1439 2483 2485 
4 2088 1440 2484 2482 
4 2086 2482 2480 1438 
4 2087 2481 2483 1437 
4 2478 2084 2480 1436 
4 1435 2481 2479 2085 
4 2476 2082 2478 1434 
4 2477 1433 2479 2083 
4 99 1813 180 1812 
4 1974 2228 1354 2274 
4 1796 1795 1560 2338 
4 1776 1536 1775 2364 
4 2582 1013 1499 1498 
4 1041 2558 1523 1522 
4 1330 1985 2053 2206 
4 1987 1328 2055 2207 
4 2610 1737 24 1100 
4 1071 947 1751 1971 
4 1752 949 1073 1969 
4 2080 2476 2474 1432 
4 1431 2477 2475 2081 
4 1614 1012 1615 1960 
4 1928 1040 1638 1637 
4 1900 1656 988 2522 
4 2523 1655 986 1902 
4 1580 2148 1255 2149 
4 2176 1231 1556 2175 
4 1261 1745 2627 1473 
4 1746 1474 1262 2626 
4 2457 2217 1668 234 
4 187 1670 2455 2215 
4 1971 1997 1751 2305 
4 1995 1969 1752 2303 
4 1258 2217 1304 1668 
4 1670 1306 1260 2215 
4 245 2246 118 246 
4 252 126 253 2247 
4 2337 2128 2127 1234 
4 1527 74 2584 75 
4 27 28 1525 2585 
4 2505 1461 2507 2111 
4 1462 2504 2506 2110 
4 1025 1024 1622 1913 
4 1599 997 1945 996 
4 1944 995 1598 996 
4 1621 1024 1023 1912 
4 2296 1682 1266 2274 
4 2294 1680 2272 1264 
4 1946 998 997 1600 
4 1026 1914 1025 1623 
4 998 1947 999 1601 
4 1915 1026 1027 1624 
4 1028 1625 1916 1027 
4 999 1948 1000 1602 
4 1917 1029 1626 1028 
4 1603 1000 1001 1949 
4 1001 1604 1950 1002 
4 1627 1918 1030 1029 
4 1605 1003 1951 1002 
4 1919 1030 1031 1628 
4 1952 1004 1003 1606 
4 1031 1920 1629 1032 
4 1953 1005 1004 1607 
4 1033 1630 1921 1032 
4 1033 1034 1922 1631 
4 1608 1954 1005 1006 
4 1923 1034 1035 1632 
4 1955 1609 1007 1006 
4 1008 1956 1610 1007 
4 1633 1035 1924 1036 
4 1037 1036 1634 1925 
4 1008 1957 1009 1611 
4 1010 1612 1009 1958 
4 1037 1635 1038 1926 
4 1927 1039 1636 1038 
4 1613 1959 1010 1011 
4 1040 1928 1039 1637 
4 1012 1614 1011 1960 
4 2539 1023 1022 1504 
4 1480 2563 995 994 
4 73 153 1361 154 
4 200 25 1359 201 
4 2026 2612 1389 2306 
4 2613 2026 1389 2306 
4 2259 2013 2611 1101 
4 2011 2257 2609 1103 
4 2272 1972 2226 1352 
4 210 211 1776 2365 
4 163 164 2339 1796 
4 1145 2627 1153 1473 
4 1474 2626 1154 1146 
4 229 55 54 1815 
4 1161 2079 1597 1598 
4 1162 1621 1620 2078 
4 1998 1980 1757 2010 
4 1755 2012 1982 2000 
4 2337 2336 161 1558 
4 2473 1429 2475 2079 
4 2474 2078 1430 2472 
4 2564 1481 995 996 
4 1024 1023 2540 1505 
4 1776 210 1775 35 
4 1795 82 163 1796 
4 2058 2122 2312 1748 
4 2059 1747 2313 2123 
4 2658 258 2030 1111 
4 1112 2031 2660 270 
4 2028 243 2642 1109 
4 1110 255 2640 2029 
4 2259 236 235 1360 
4 2056 2196 1283 2318 
4 2007 1088 2288 1285 
4 1287 1089 2286 2006 
4 1422 2070 1206 1644 
4 1205 1643 2071 1421 
4 931 1466 1464 2508 
4 1463 2509 1465 931 
4 1199 1201 2067 1641 
4 1202 2066 1642 1200 
4 1813 100 99 180 
4 2180 1385 1257 1092 
4 1094 1259 2178 1387 
4 2011 1758 1999 1981 
4 2013 1756 1983 2001 
4 1025 1024 2541 1506 
4 1482 2565 997 996 
4 2459 1645 1824 2325 
4 2324 2458 1646 1824 
4 1929 1639 2426 2425 
4 2448 2449 1961 1616 
4 2140 1246 1571 1247 
4 1223 1222 1547 2167 
4 2141 1247 1572 1248 
4 1223 1548 1224 2168 
4 1249 1248 2142 1573 
4 1549 2169 1225 1224 
4 1250 1574 1249 2143 
4 1550 2170 1226 1225 
4 1250 1575 2144 1251 
4 1227 2171 1226 1551 
4 2336 161 1558 160 
4 1534 207 208 2362 
4 1772 1116 1342 2035 
4 1115 2034 1771 1341 
4 1770 1114 2033 1340 
4 2032 1339 1113 1769 
4 1061 2055 2059 2313 
4 2058 2312 2053 1063 
4 205 2360 1581 2389 
4 1251 2145 1252 1576 
4 1227 1228 2172 1552 
4 1026 2542 1507 1025 
4 1483 2566 998 997 
4 1041 1040 2557 1522 
4 1012 1013 2581 1498 
4 2590 1690 2192 1322 
4 2193 1689 2591 1321 
4 2567 1484 998 999 
4 1508 2543 1026 1027 
4 2568 1485 999 1000 
4 2544 1028 1027 1509 
4 1023 2539 2540 1504 
4 1480 2563 2564 995 
4 1000 1486 1001 2569 
4 2545 1029 1028 1510 
4 1487 1001 2570 1002 
4 2546 1030 1029 1511 
4 2571 1003 1488 1002 
4 2547 1030 1512 1031 
4 1513 2548 1031 1032 
4 1004 2572 1003 1489 
4 1033 1032 2549 1514 
4 1005 1490 2573 1004 
4 2574 1491 1005 1006 
4 1034 1033 2550 1515 
4 1035 1034 2551 1516 
4 1492 2575 1007 1006 
4 1035 2552 1036 1517 
4 1008 1493 2576 1007 
4 2553 1037 1036 1518 
4 1009 1008 1494 2577 
4 1009 1010 2578 1495 
4 2554 1037 1519 1038 
4 2579 1010 1011 1496 
4 1039 2555 1520 1038 
4 1012 2580 1011 1497 
4 2556 1040 1039 1521 
4 2073 2467 1423 1421 
4 1424 2072 1422 2466 
4 908 1688 1827 1824 
4 1827 908 1824 1687 
4 1596 1942 994 1597 
4 1022 1620 1910 1619 
4 2558 1041 1523 1042 
4 2582 1013 1014 1499 
4 225 51 50 1791 
4 98 180 1812 99 
4 97 96 1810 177 
4 225 50 49 1790 
4 2363 209 208 1775 
4 1795 2337 162 161 
4 956 1876 1337 960 
4 1335 958 1878 954 
4 961 1338 957 1877 
4 955 1879 1336 959 
4 75 157 1754 76 
4 28 203 204 1753 
4 29 28 204 1753 
4 223 49 48 1789 
4 95 177 1809 96 
4 2058 1136 1748 1063 
4 1061 1747 2059 1134 
4 914 2474 1432 1430 
4 1431 914 1429 2475 
4 2078 1162 1164 1430 
4 1163 1429 1161 2079 
4 1620 1023 1022 1911 
4 1943 995 994 1597 
4 2275 1989 2189 1265 
4 1988 1263 2273 2187 
4 223 47 1788 48 
4 2173 1228 1229 1553 
4 1577 1252 1253 2146 
4 1194 1460 2108 1192 
4 1459 1193 2109 1191 
4 1457 1189 1191 2107 
4 1458 1190 2106 1192 
4 2105 1455 1189 1187 
4 1456 2104 1190 1188 
4 2103 1187 1185 1453 
4 1454 1186 2102 1188 
4 1184 1452 1186 2100 
4 1183 2101 1185 1451 
4 1449 1181 1183 2099 
4 1184 2098 1182 1450 
4 1447 2097 1179 1181 
4 1182 2096 1180 1448 
4 1177 1445 2095 1179 
4 2094 1178 1180 1446 
4 1177 1443 1175 2093 
4 1176 1178 2092 1444 
4 1176 1442 2090 1174 
4 2091 1173 1441 1175 
4 2089 1173 1171 1439 
4 1172 2088 1440 1174 
4 1172 2086 1170 1438 
4 1171 2087 1437 1169 
4 2085 1435 1169 1167 
4 1168 1170 2084 1436 
4 1163 1431 2081 1165 
4 2080 1164 1166 1432 
4 1168 2082 1166 1434 
4 1433 2083 1165 1167 
4 2386 1142 1045 2326 
4 1017 2387 2327 1141 
4 2069 1205 2401 1587 
4 1588 2400 2068 1206 
4 77 1672 1582 158 
4 30 205 1581 1671 
4 1990 1882 1113 1080 
4 52 1793 228 53 
4 931 1463 1849 930 
4 1849 931 930 1464 
4 1584 2450 249 1583 
4 2225 1336 1312 951 
4 1314 1338 2223 953 
4 1745 1967 2521 2525 
4 2524 1746 1935 2520 
4 1313 1337 952 2222 
4 950 2224 1335 1311 
4 1966 2519 2059 1703 
4 1704 2058 1934 2518 
4 2565 1481 2564 996 
4 2541 1024 2540 1505 
4 1941 1596 993 1595 
4 1909 1618 1021 1619 
4 204 30 1671 205 
4 157 1672 77 158 
4 1013 2582 2581 1498 
4 1041 2557 2558 1522 
4 1847 928 1846 2502 
4 928 2503 1847 1846 
4 927 1845 1846 2500 
4 2501 927 1845 1846 
4 2498 1844 926 1845 
4 1844 2499 926 1845 
4 1843 1844 925 2496 
4 1844 2497 1843 925 
4 1843 1842 2494 924 
4 1843 2495 1842 924 
4 923 1842 2492 1841 
4 2493 1842 923 1841 
4 2491 922 1840 1841 
4 922 2490 1840 1841 
4 921 2488 1839 1840 
4 2489 921 1839 1840 
4 920 1839 2486 1838 
4 2487 1839 920 1838 
4 919 1838 2484 1837 
4 2485 1838 919 1837 
4 2483 1836 1837 918 
4 1836 1837 918 2482 
4 1836 917 1835 2480 
4 2481 1836 917 1835 
4 1834 916 1835 2479 
4 916 2478 1834 1835 
4 23 199 24 2266 
4 71 2264 151 70 
4 1833 2477 915 1834 
4 2476 1833 915 1834 
4 190 109 110 2265 
4 2477 915 1433 1431 
4 2476 915 1432 1434 
4 1848 929 1847 2504 
4 929 2505 1848 1847 
4 1833 914 1832 2474 
4 914 1833 1832 2475 
4 2542 1025 2541 1506 
4 2566 1482 2565 997 
4 94 1807 174 93 
4 916 2478 1436 1434 
4 1435 916 1433 2479 
4 2542 2543 1026 1507 
4 2567 1483 2566 998 
4 2568 1484 2567 999 
4 2543 1508 2544 1027 
4 2545 1028 2544 1509 
4 2568 1485 1000 2569 
4 1001 1486 2570 2569 
4 2545 2546 1029 1510 
4 2571 1487 2570 1002 
4 2546 2547 1030 1511 
4 2572 2571 1003 1488 
4 2548 2547 1512 1031 
4 2573 2572 1004 1489 
4 1513 2548 1032 2549 
4 2550 1033 2549 1514 
4 1490 2574 1005 2573 
4 1034 2550 2551 1515 
4 2575 1491 2574 1006 
4 2576 1492 2575 1007 
4 1035 2551 2552 1516 
4 1493 1008 2576 2577 
4 2552 2553 1036 1517 
4 2578 1009 1494 2577 
4 2553 1037 1518 2554 
4 1010 2579 2578 1495 
4 2555 2554 1519 1038 
4 2580 2579 1011 1496 
4 2555 2556 1039 1520 
4 2580 1012 2581 1497 
4 2557 1040 2556 1521 
4 2480 917 1436 1438 
4 917 2481 1435 1437 
4 1440 918 2482 1438 
4 1439 2483 918 1437 
4 1442 1440 919 2484 
4 1439 2485 1441 919 
4 920 1442 2486 1444 
4 1441 2487 1443 920 
4 2488 1446 921 1444 
4 2489 1445 1443 921 
4 1445 2491 1447 922 
4 2490 1446 1448 922 
4 1450 923 2492 1448 
4 2493 1449 1447 923 
4 1449 2495 1451 924 
4 2494 1452 924 1450 
4 925 2496 1454 1452 
4 1451 2497 1453 925 
4 1454 2498 926 1456 
4 2499 1455 1453 926 
4 927 1458 1456 2500 
4 1455 2501 1457 927 
4 1459 1457 2503 928 
4 2502 928 1458 1460 
4 2363 209 1775 2364 
4 1795 2337 2338 162 
4 1463 1461 2507 930 
4 930 1464 1462 2506 
4 1366 2320 1901 2277 
4 1903 2279 2321 1364 
4 1461 1195 2111 1193 
4 1196 1462 2110 1194 
4 100 182 1814 101 
4 1831 913 1832 2473 
4 913 1831 1832 2472 
4 2373 1545 1785 1784 
4 1805 1804 1569 2347 
4 1467 2511 2513 1851 
4 1851 2510 2512 1468 
4 2505 1461 1459 929 
4 2504 929 1460 1462 
4 909 1645 1643 2465 
4 2464 909 1646 1644 
4 187 1528 2620 186 
4 1526 233 234 2621 
4 195 21 978 196 
4 2539 1022 1503 1504 
4 2563 1480 1479 994 
4 2075 1159 2429 1596 
4 1050 1375 2242 1968 
4 2244 1048 1970 1373 
4 1676 2060 2316 1135 
4 2317 1133 2061 1675 
4 1622 1621 1164 2080 
4 1163 1599 2081 1598 
4 1019 1530 1588 1907 
4 991 1939 1587 1529 
4 1746 989 1935 2520 
4 1967 987 1745 2521 
4 2337 1235 1559 2338 
4 2364 2363 1211 1535 
4 233 59 58 1526 
4 1528 105 186 106 
4 1849 931 1464 2508 
4 1463 2509 931 1849 
4 1162 2076 1428 2472 
4 2473 1427 1161 2077 
4 1056 1870 1862 1976 
4 1057 1977 1860 1868 
4 1015 1014 1962 1617 
4 1043 1930 1042 1640 
4 1059 1869 1861 1979 
4 1863 1058 1978 1871 
4 1545 2373 1221 1220 
4 1244 1245 1569 2347 
4 2459 1413 2183 2319 
4 2318 1414 2182 2458 
4 1230 1554 2174 1229 
4 1253 1578 2147 1254 
4 1746 989 2520 1262 
4 1745 987 1261 2521 
4 1678 2402 1933 1932 
4 2403 1964 1677 1965 
4 914 913 1832 1430 
4 913 914 1832 1429 
4 1559 1795 80 161 
4 33 208 1775 1535 
4 2085 1167 1601 1600 
4 1624 1623 1168 2084 
4 1996 2220 2180 1663 
4 2219 2179 1388 1260 
4 1386 1258 2181 2221 
4 1602 2087 1169 1601 
4 2090 1627 1174 1626 
4 1604 1173 1603 2091 
4 1604 1605 1175 2093 
4 1177 1605 1606 2095 
4 1178 2094 1629 1628 
4 2096 1180 1629 1630 
4 2098 1182 1630 1631 
4 2100 1184 1631 1632 
4 1186 2102 1633 1632 
4 1635 1190 2106 1634 
4 2110 1194 1636 1637 
4 1297 2514 156 2584 
4 1850 931 1849 2508 
4 2509 1850 931 1849 
4 1020 1908 1909 2537 
4 1941 2561 1940 992 
4 157 2388 1672 158 
4 204 205 1671 2389 
4 2114 1639 1198 1638 
4 1615 1197 2115 1616 
4 914 1832 1429 2475 
4 914 1832 2474 1430 
4 1568 2346 1243 1244 
4 2372 1219 1220 1544 
4 1590 2150 2122 1150 
4 1149 2123 1589 2177 
4 2367 1214 1539 1538 
4 1562 1238 1563 2341 
4 1215 1539 1540 2368 
4 1564 2342 1563 1239 
4 1564 1565 2343 1240 
4 1541 2369 1216 1540 
4 1565 2344 1241 1566 
4 1541 1542 1217 2370 
4 1542 1218 2371 1543 
4 2345 1567 1242 1566 
4 1567 1568 2346 1243 
4 1219 2372 1543 1544 
4 2340 1562 1237 1561 
4 2366 1213 1538 1537 
4 1908 1618 2405 2404 
4 1940 2428 1595 2427 
4 1323 2239 1651 2014 
4 1478 2561 2562 993 
4 2538 1021 2537 1502 
4 159 78 1557 1582 
4 1581 1533 206 31 
4 2613 2191 1319 1267 
4 1268 2190 1320 2612 
4 1295 1761 2315 2515 
4 2314 2514 1762 1297 
4 1478 2561 993 992 
4 1021 1020 2537 1502 
4 2314 1305 1762 2604 
4 1761 2605 1303 2315 
4 1793 228 53 1794 
4 1196 2112 1638 1637 
4 1614 1615 1195 2113 
4 2477 1833 915 1431 
4 1833 2476 915 1432 
4 59 1668 1526 234 
4 187 1528 106 1670 
4 1048 2244 938 1373 
4 940 1050 1375 2242 
4 2510 2114 1466 2508 
4 1465 2509 2115 2511 
4 2635 2253 250 2238 
4 2255 2653 265 2240 
4 2478 916 1834 1434 
4 916 1834 1433 2479 
4 1533 1581 2361 1147 
4 1148 2335 1557 1582 
4 1531 1765 2385 230 
4 2359 183 1766 1532 
4 917 1835 2480 1436 
4 917 2481 1835 1435 
4 918 1836 2482 1438 
4 2483 1836 918 1437 
4 1440 919 2484 1837 
4 1439 2485 919 1837 
4 1442 920 2486 1838 
4 1441 2487 920 1838 
4 1443 2489 921 1839 
4 2488 921 1839 1444 
4 1445 2491 922 1840 
4 2490 1446 922 1840 
4 923 2492 1448 1841 
4 1447 2493 923 1841 
4 1842 2494 924 1450 
4 2495 1449 1842 924 
4 2497 1451 1843 925 
4 925 1843 2496 1452 
4 2499 1453 1844 926 
4 2498 1844 1454 926 
4 1845 927 1456 2500 
4 1455 2501 927 1845 
4 1457 2503 928 1846 
4 928 1846 2502 1458 
4 2339 163 1796 2338 
4 210 1776 2364 2365 
4 1199 2117 1649 1467 
4 1650 2116 1200 1468 
4 929 1847 2504 1460 
4 1459 2505 929 1847 
4 2348 1246 2349 2139 
4 1222 2166 2374 2375 
4 2347 1245 2348 2138 
4 2165 2374 2373 1221 
4 235 61 60 1360 
4 67 149 148 980 
4 67 149 980 68 
4 240 66 979 241 
4 195 21 20 978 
4 113 981 194 193 
4 1848 1849 930 2506 
4 1849 2507 1848 930 
4 1559 2337 1795 161 
4 208 2363 1775 1535 
4 153 1361 154 2256 
4 2258 200 1359 201 
4 1070 1970 1749 946 
4 1072 948 1750 1968 
4 1245 1246 2348 2139 
4 2166 1222 2374 1221 
4 955 1883 959 963 
4 961 965 1881 957 
4 958 1882 954 962 
4 964 1880 956 960 
4 1833 915 914 1432 
4 915 1833 914 1431 
4 1193 2111 2109 2446 
4 2106 2108 1192 2422 
4 1191 2109 2107 2445 
4 2105 1189 2107 2444 
4 2104 2102 2420 1188 
4 1187 2105 2103 2443 
4 2103 2101 1185 2442 
4 1183 2101 2099 2441 
4 2097 1181 2099 2440 
4 2097 2095 1179 2439 
4 1176 2092 2414 2090 
4 2089 2435 2087 1171 
4 1172 2088 2412 2086 
4 1967 987 1469 1401 
4 1470 1402 989 1935 
4 2086 2411 1170 2084 
4 1905 2250 988 2056 
4 986 2057 2251 1937 
4 1020 1909 1021 2537 
4 2561 1941 993 992 
4 2536 1908 1020 2537 
4 2561 1940 992 2560 
4 2083 2081 1165 2432 
4 2080 2409 2082 1166 
4 1830 2468 1426 1774 
4 1425 1830 1773 2469 
4 1408 1334 2261 2309 
4 1407 2311 2263 1332 
4 1329 1984 1062 1075 
4 1986 1327 1060 1074 
4 916 915 1834 1434 
4 915 916 1834 1433 
4 2260 1406 2308 1333 
4 2310 2262 1331 1405 
4 1803 170 1567 2345 
4 217 2371 1783 1543 
4 2370 1542 1782 216 
4 169 1802 2344 1566 
4 1541 2369 215 1781 
4 1565 2343 1801 168 
4 1333 1680 2294 1077 
4 1682 1334 2296 1079 
4 2342 167 1800 1564 
4 1780 1540 214 2368 
4 2337 2128 1235 2338 
4 2363 2364 1211 2155 
4 916 917 1835 1435 
4 917 916 1835 1436 
4 1836 918 917 1438 
4 918 1836 917 1437 
4 1440 919 1837 918 
4 919 1439 1837 918 
4 1442 920 1838 919 
4 920 1441 1838 919 
4 1839 921 920 1444 
4 921 1443 1839 920 
4 922 1446 921 1840 
4 1445 922 921 1840 
4 923 1448 922 1841 
4 1447 923 922 1841 
4 1449 1842 924 923 
4 1842 924 923 1450 
4 925 1843 1452 924 
4 1451 1843 925 924 
4 1844 925 1454 926 
4 1844 1453 925 926 
4 926 1455 927 1845 
4 927 926 1845 1456 
4 1457 928 927 1846 
4 928 927 1846 1458 
4 1799 166 1563 2341 
4 2367 1539 1779 213 
4 929 928 1847 1460 
4 1459 929 928 1847 
4 2582 1013 2581 1961 
4 2557 1041 2558 1929 
4 2239 2252 1651 2014 
4 1906 2392 2330 1400 
4 1399 2393 2331 1938 
4 1202 2402 2120 1154 
4 1153 2403 2121 1201 
4 1463 2509 2507 2113 
4 2508 1464 2506 2112 
4 1852 933 1851 2512 
4 2513 1852 933 1851 
4 1064 1700 2284 1367 
4 1064 2284 1699 1367 
4 1701 2285 1368 1855 
4 2285 1368 1855 1702 
4 2119 1145 1471 2395 
4 2118 1146 2394 1472 
4 1778 2366 1538 212 
4 165 1562 1798 2340 
4 2174 2173 1229 2382 
4 1253 2356 2146 2147 
4 1022 1910 1021 1619 
4 1596 1942 993 994 
4 2140 2141 1247 2350 
4 2376 1223 2167 2168 
4 2349 1246 2140 2139 
4 2166 1222 2167 2375 
4 1248 2141 2142 2351 
4 2377 2169 1224 2168 
4 2378 2169 2170 1225 
4 1249 2352 2142 2143 
4 2171 2170 1226 2379 
4 1250 2353 2143 2144 
4 2144 2145 1251 2354 
4 1227 2172 2171 2380 
4 1228 2173 2172 2381 
4 2145 1252 2355 2146 
4 1245 2348 2138 2139 
4 2165 2166 2374 1221 
4 1041 1639 1929 1638 
4 1013 1615 1961 1616 
4 1121 197 196 21 
4 2128 2129 1235 2338 
4 2364 1211 2155 2156 
4 1528 187 2620 2215 
4 2217 1526 234 2621 
4 1371 2264 71 70 
4 1369 23 24 2266 
4 109 1372 110 2265 
4 2402 1202 1642 1678 
4 1201 2403 1641 1677 
4 1474 1678 1933 1047 
4 1677 1046 1473 1965 
4 989 2184 1660 1662 
4 987 2185 1661 1659 
4 1962 1014 1616 1617 
4 1930 1639 1042 1640 
4 92 174 1806 93 
4 1464 1196 2112 1198 
4 1463 1195 1197 2113 
4 1222 1547 2375 1546 
4 1246 1570 2349 1571 
4 1933 1678 1932 1047 
4 1964 1046 1677 1965 
4 1501 2536 1020 2537 
4 992 2561 2560 1477 
4 1740 2257 1103 2609 
4 2259 1101 2611 1738 
4 2464 2070 1422 1644 
4 1643 2465 2071 1421 
4 2614 2219 1260 2215 
4 2217 1258 2615 2221 
4 1237 1236 2339 1561 
4 1213 1537 2365 1212 
4 1568 171 1803 2346 
4 2372 1783 1544 218 
4 2371 217 1782 1543 
4 170 1567 2345 1802 
4 1801 169 2344 1566 
4 1542 2370 1781 216 
4 1593 231 1765 56 
4 103 1766 1594 184 
4 2509 1463 2507 1849 
4 1464 1849 2508 2506 
4 2369 1541 215 1780 
4 1565 1800 2343 168 
4 2366 1213 1214 1538 
4 2340 1562 1238 1237 
4 1238 1563 2341 1239 
4 1214 1215 2367 1539 
4 1564 2342 1239 1240 
4 1216 1215 1540 2368 
4 1541 2369 1217 1216 
4 2343 1565 1241 1240 
4 1217 1542 1218 2370 
4 1241 2344 1242 1566 
4 2345 1567 1243 1242 
4 1218 1219 2371 1543 
4 2342 167 1564 1799 
4 214 1540 1779 2368 
4 2562 1479 993 994 
4 2538 1022 1021 1503 
4 943 1054 1975 1332 
4 945 1334 1974 1055 
4 2563 1479 2562 994 
4 2538 2539 1022 1503 
4 1052 1973 1331 942 
4 1053 944 1333 1972 
4 2589 2613 2191 1319 
4 2190 1320 2612 2588 
4 2357 2148 2147 1254 
4 1230 2383 2175 2174 
4 1292 2053 2518 2320 
4 1290 2055 2321 2519 
4 1848 930 1462 2506 
4 2507 1461 1848 930 
4 912 1427 2471 1425 
4 1426 912 1428 2470 
4 1967 1903 2321 1364 
4 2320 1366 1901 1935 
4 197 23 2046 198 
4 239 2047 63 238 
4 110 192 191 2045 
4 2367 1778 1539 213 
4 166 1798 1563 2341 
4 1820 910 1829 1828 
4 910 1829 1828 1819 
4 1320 1268 2612 1736 
4 1735 2613 1319 1267 
4 1586 2188 1266 2213 
4 2186 1584 1264 2212 
4 1081 1067 952 1868 
4 950 1870 1066 1080 
4 951 1082 1068 1871 
4 1083 1069 1869 953 
4 2449 2448 2115 1616 
4 1639 2426 2425 2114 
4 2391 1279 2395 1825 
4 1825 2390 1280 2394 
4 2656 262 137 2254 
4 1366 1470 989 1935 
4 1967 987 1364 1469 
4 1962 2449 2453 1617 
4 1930 1640 2452 2426 
4 1586 2451 2188 2213 
4 2450 1584 2186 2212 
4 1123 150 68 149 
4 2503 1459 2109 1191 
4 1460 2502 2108 1192 
4 2500 1458 1190 2106 
4 1457 2501 1189 2107 
4 2498 2104 1456 1188 
4 2105 1455 1187 2499 
4 2496 1454 1186 2102 
4 2103 1185 2497 1453 
4 2101 1183 2495 1451 
4 1184 2494 1452 2100 
4 2098 1182 1450 2492 
4 1449 2493 1181 2099 
4 1180 2096 2490 1448 
4 2491 1447 2097 1179 
4 2094 1178 1446 2488 
4 1177 1445 2489 2095 
4 1443 2487 1175 2093 
4 1176 2092 2486 1444 
4 1442 2484 2090 1174 
4 2091 1173 2485 1441 
4 1171 2089 1439 2483 
4 2088 1172 1440 2482 
4 1170 2086 2480 1438 
4 2087 2481 1437 1169 
4 2479 1435 2085 1167 
4 1168 2084 2478 1436 
4 1832 2473 1429 2475 
4 1832 2474 1430 2472 
4 2477 1833 1431 2475 
4 2476 1833 2474 1432 
4 1166 2082 2476 1434 
4 2477 1433 2083 1165 
4 987 1967 1745 1401 
4 1402 1746 989 1935 
4 2476 2478 1834 1434 
4 1834 2477 1433 2479 
4 1021 2538 1503 1502 
4 1479 1478 2562 993 
4 2481 1835 1435 2479 
4 1835 2478 2480 1436 
4 1164 2080 2474 1432 
4 1163 1431 2475 2081 
4 2483 2481 1836 1437 
4 2482 1836 2480 1438 
4 2484 1440 1837 2482 
4 1439 2483 2485 1837 
4 2485 2487 1441 1838 
4 2486 1442 1838 2484 
4 2488 1839 2486 1444 
4 2487 2489 1443 1839 
4 1446 2490 2488 1840 
4 1445 2489 2491 1840 
4 2492 2490 1448 1841 
4 2491 2493 1447 1841 
4 1842 2494 1450 2492 
4 1449 2493 2495 1842 
4 2496 1843 2494 1452 
4 2495 2497 1451 1843 
4 2497 2499 1453 1844 
4 1844 2496 2498 1454 
4 2501 1455 2499 1845 
4 2498 1845 1456 2500 
4 1846 2502 1458 2500 
4 1457 2501 2503 1846 
4 2505 1459 2503 1847 
4 1847 2502 2504 1460 
4 1879 955 1336 2233 
4 1338 957 1877 2231 
4 2232 1335 1878 954 
4 1876 956 1337 2230 
4 2078 1162 1430 2472 
4 1429 2473 1161 2079 
4 2048 1392 944 2308 
4 942 2310 1391 2050 
4 1461 2505 2507 1848 
4 2504 1848 1462 2506 
4 1865 949 1073 1314 
4 1312 947 1071 1867 
4 1466 932 1850 931 
4 932 1465 1850 931 
4 1502 1233 2127 1234 
4 1478 1210 2154 1209 
4 1461 929 1848 930 
4 929 1848 930 1462 
4 1766 1594 184 2332 
4 1593 231 2333 1765 
4 1197 1465 2115 1207 
4 2114 1208 1466 1198 
4 937 1690 2590 1728 
4 937 1689 1727 2591 
4 1121 22 197 21 
4 69 1123 150 68 
4 1258 1061 1304 2615 
4 2614 1306 1260 1063 
4 1681 1265 2297 1078 
4 1930 1639 1041 1042 
4 1014 1013 1962 1616 
4 1263 1076 1679 2295 
4 1670 187 2455 188 
4 235 2457 1668 234 
4 1233 2126 1502 2127 
4 2153 1478 2154 1209 
4 2387 1966 2059 1703 
4 2058 2386 1704 1934 
4 1554 1229 1553 2382 
4 1578 1577 1253 2356 
4 991 2587 1939 1707 
4 1019 1708 1907 2586 
4 1547 1787 2375 1786 
4 1806 2349 1571 1807 
4 1196 2112 1198 1638 
4 1195 1615 1197 2113 
4 934 1763 1854 1853 
4 1764 934 1854 1853 
4 1465 2509 2511 1850 
4 2510 1466 1850 2508 
4 1501 2536 2537 2126 
4 2327 2123 1589 1141 
4 1142 1590 2326 2122 
4 2284 1826 1699 1367 
4 1700 1826 2284 1367 
4 2505 1461 2111 1193 
4 1462 2504 2110 1194 
4 1864 1072 948 1313 
4 1866 1070 1311 946 
4 941 2243 1760 2206 
4 2245 1759 2207 939 
4 2064 1746 1262 2626 
4 1745 2065 1261 2627 
4 1704 1136 2518 1470 
4 1469 2519 1703 1134 
4 1072 1980 1106 1757 
4 1286 1090 2009 1383 
4 1288 1384 2008 1091 
4 1476 1524 1043 1931 
4 1963 1500 1015 1475 
4 211 1777 1537 2365 
4 164 1797 2339 1561 
4 1137 2597 1399 1709 
4 1710 1138 2596 1400 
4 1412 1148 1582 2334 
4 1411 2360 1581 1147 
4 107 189 188 1362 
4 156 1297 2584 75 
4 1864 1072 1313 1723 
4 1866 1070 1721 1311 
4 1015 1962 2453 1617 
4 1043 1930 1640 2452 
4 196 195 1898 978 
4 1235 1236 1560 2338 
4 2364 1536 1211 1212 
4 1804 171 1568 2346 
4 1544 2372 218 1784 
4 1804 1805 91 172 
4 1933 1474 1045 1402 
4 1401 1473 1017 1965 
4 2279 1290 2321 1364 
4 1292 2320 1366 2277 
4 1270 1091 2192 1322 
4 1090 2193 1321 1269 
4 1689 2593 1697 1269 
4 1270 1690 2592 1698 
4 1865 1073 1724 1314 
4 1722 1312 1071 1867 
4 2007 2270 2204 1285 
4 1287 2268 2202 2006 
4 1232 2176 1556 2384 
4 1580 1256 2358 2149 
4 102 184 1766 103 
4 231 1765 56 55 
4 2251 1415 2331 1936 
4 2330 1904 1416 2250 
4 2340 1237 2339 1561 
4 2366 1213 1537 2365 
4 1562 2340 1238 2341 
4 2366 1214 2367 1538 
4 1563 2342 2341 1239 
4 1215 2367 1539 2368 
4 1689 1727 2591 1321 
4 2590 1690 1322 1728 
4 2342 1564 2343 1240 
4 2369 1216 1540 2368 
4 2343 1565 2344 1241 
4 2369 1541 1217 2370 
4 2344 2345 1242 1566 
4 1542 1218 2370 2371 
4 2345 1567 2346 1243 
4 1219 2372 2371 1543 
4 1708 2396 1906 2586 
4 2587 1938 1707 2397 
4 2593 1689 2193 1269 
4 1690 1270 2592 2192 
4 2474 1164 1432 1430 
4 1163 1431 1429 2475 
4 1148 2335 2125 2126 
4 2153 2361 2152 1147 
4 2194 1135 1762 1276 
4 1761 1275 1133 2195 
4 1593 2333 232 2517 
4 1594 185 2332 2516 
4 1622 2409 2080 1166 
4 2081 1599 1165 2432 
4 2411 1624 1170 2084 
4 2435 1602 2087 1171 
4 1625 1172 2412 2086 
4 1627 1176 2414 2090 
4 1613 1193 2109 2446 
4 1612 1191 2107 2445 
4 1635 2106 1192 2422 
4 2105 1611 1189 2444 
4 1610 1187 2103 2443 
4 2420 2102 1633 1188 
4 2101 1609 1185 2442 
4 1608 1183 2099 2441 
4 2097 1607 1181 2440 
4 2095 1606 1179 2439 
4 1205 2427 2401 1587 
4 1720 2394 2398 1854 
4 2395 1719 2399 1854 
4 2366 1538 212 1777 
4 1797 1562 165 2340 
4 160 2335 159 1557 
4 1533 2361 206 207 
4 2403 2121 1201 2067 
4 1202 2402 2066 2120 
4 1334 2261 2309 1974 
4 2311 1975 2263 1332 
4 1615 1012 1013 1961 
4 1040 1041 1929 1638 
4 1998 1757 2264 2010 
4 2266 2012 1755 2000 
4 2308 2260 1333 1972 
4 2262 1973 2310 1331 
4 1425 2471 2469 2075 
4 2074 2468 1426 2470 
4 2030 2034 1115 1883 
4 2031 1881 1116 2035 
4 2029 1114 1880 2033 
4 1882 2032 1113 2028 
4 2471 1427 1159 1425 
4 1160 1426 1428 2470 
4 2117 1199 2453 1617 
4 1640 2452 2116 1200 
4 1758 2265 2011 1999 
4 2013 2267 1756 2001 
4 1252 1576 2355 1577 
4 1228 2381 1552 1553 
4 1261 2627 1145 1473 
4 1474 1262 2626 1146 
4 1166 2476 1432 1434 
4 1433 2477 1431 1165 
4 1537 1536 2365 1212 
4 1236 2339 1561 1560 
4 1131 2048 1392 944 
4 1391 942 2050 1129 
4 2123 1149 1589 1141 
4 1142 1590 2122 1150 
4 2275 1681 1265 2297 
4 2273 1263 1679 2295 
4 2228 1318 1702 1728 
4 1701 2229 1727 1317 
4 1079 2188 1326 2240 
4 1151 1205 2069 1587 
4 2068 1588 1206 1152 
4 2186 1077 1324 2238 
4 1433 1435 2479 1167 
4 2478 1168 1436 1434 
4 2065 1767 1145 2395 
4 1768 2064 1146 2394 
4 233 59 1526 234 
4 187 1528 186 106 
4 1170 2480 1436 1438 
4 2481 1435 1437 1169 
4 1172 1440 2482 1438 
4 1439 1171 2483 1437 
4 1442 1440 2484 1174 
4 1173 1439 2485 1441 
4 1442 1176 2486 1444 
4 2487 1441 1443 1175 
4 1178 1446 2488 1444 
4 1445 1177 2489 1443 
4 1180 2490 1446 1448 
4 2491 1445 1447 1179 
4 1182 1450 2492 1448 
4 1449 2493 1447 1181 
4 2494 1184 1452 1450 
4 1183 1449 2495 1451 
4 2496 1454 1452 1186 
4 2497 1185 1451 1453 
4 1455 1187 2499 1453 
4 1454 2498 1456 1188 
4 2501 1455 1457 1189 
4 1458 1456 2500 1190 
4 1458 2502 1460 1192 
4 1457 1459 2503 1191 
4 2428 1157 1596 1595 
4 2405 1618 1619 1158 
4 2597 1137 1399 1938 
4 1138 1906 2596 1400 
4 1407 1058 1978 2311 
4 1059 1408 1979 2309 
4 1942 2562 993 994 
4 2538 1022 1910 1021 
4 2380 1227 1552 1551 
4 1251 1575 2354 1576 
4 1056 2310 1405 1976 
4 1406 1057 1977 2308 
4 203 28 1295 2515 
4 149 148 980 1896 
4 981 1897 194 193 
4 241 1899 979 240 
4 175 1808 1807 94 
4 1787 47 1788 222 
4 1906 2392 1400 1530 
4 1529 2393 1399 1938 
4 1574 1250 1575 2353 
4 1550 1226 2379 1551 
4 2244 1858 938 1373 
4 1856 940 1375 2242 
4 2378 1550 1549 1225 
4 2352 1574 1249 1573 
4 1248 1572 2351 1573 
4 2377 1549 1548 1224 
4 2376 1223 1548 1547 
4 1571 1247 1572 2350 
4 95 1808 1809 176 
4 1500 2583 1963 1014 
4 1524 1042 1931 2559 
4 1790 49 224 1789 
4 1909 2538 1910 1021 
4 1942 2562 1941 993 
4 2658 132 258 1111 
4 146 1112 2660 270 
4 243 2642 1109 115 
4 255 129 1110 2640 
4 1390 2027 2592 1698 
4 1390 2593 2027 1697 
4 942 1355 2050 1129 
4 1131 2048 944 1356 
4 252 1378 126 2247 
4 2246 1377 118 246 
4 97 1810 1811 178 
4 2473 913 1429 1427 
4 913 1430 1428 2472 
4 2248 2024 1309 1992 
4 2025 1993 2249 1310 
4 1308 2023 1991 2247 
4 2246 1990 1307 2022 
4 1930 1639 1640 2426 
4 2449 1962 1616 1617 
4 1785 2374 1786 1546 
4 1805 1806 2348 1570 
4 2590 1690 2592 2192 
4 1689 2593 2193 2591 
4 1939 2401 1529 1938 
4 1530 1906 2400 1907 
4 1255 2148 1524 2149 
4 2176 1500 1231 2175 
4 1735 2613 2589 1319 
4 1320 2612 2588 1736 
4 205 31 1581 206 
4 159 78 1582 158 
4 1978 1407 2311 2263 
4 1979 1408 2261 2309 
4 1258 1093 1386 2181 
4 1388 2179 1095 1260 
4 1821 2153 1209 1147 
4 1233 1148 2126 1822 
4 2310 2262 1405 1976 
4 2260 1406 1977 2308 
4 1792 1791 51 226 
4 1811 98 179 1812 
4 1461 2505 1459 1193 
4 1460 2504 1462 1194 
4 46 221 1787 1786 
4 958 1878 2618 1084 
4 2616 1086 1876 960 
4 961 1087 1877 2617 
4 2619 1879 959 1085 
4 1808 1572 2350 1807 
4 1788 1787 2376 1548 
4 1161 1163 2079 1598 
4 1162 1621 2078 1164 
4 1902 2270 1343 2278 
4 2276 2268 1345 1900 
4 1381 2204 1355 1285 
4 1382 1287 1356 2202 
4 1164 1622 2080 1166 
4 1599 1163 2081 1165 
4 1623 1168 2082 1166 
4 2083 1165 1167 1600 
4 1193 1613 2109 1191 
4 2108 1194 1192 1636 
4 1189 1612 1191 2107 
4 1190 1635 2106 1192 
4 2104 1190 1188 1634 
4 1611 2105 1189 1187 
4 2102 1186 1633 1188 
4 1187 1610 2103 1185 
4 1186 1184 2100 1632 
4 2101 1609 1183 1185 
4 1181 1608 1183 2099 
4 2098 1184 1182 1631 
4 2097 1607 1179 1181 
4 2096 1182 1180 1630 
4 1178 2094 1180 1629 
4 1606 1177 2095 1179 
4 1605 1177 1175 2093 
4 1178 1176 2092 1628 
4 1627 1176 2090 1174 
4 1604 1173 2091 1175 
4 1172 2088 1174 1626 
4 1173 1603 2089 1171 
4 1602 2087 1171 1169 
4 1625 1172 2086 1170 
4 1169 2085 1167 1601 
4 1170 1624 1168 2084 
4 2335 1148 2125 2334 
4 2361 2360 2152 1147 
4 995 2563 1943 994 
4 1023 2539 1022 1911 
4 2362 1534 1210 1535 
4 1043 1524 1042 1931 
4 1500 1963 1015 1014 
4 965 1889 1881 2031 
4 2030 1891 1883 963 
4 1882 1890 2028 962 
4 964 1888 2029 1880 
4 2627 2403 1473 1965 
4 2114 1466 2508 1198 
4 1465 2509 1197 2115 
4 1159 2471 2075 2077 
4 2076 2074 1160 2470 
4 2188 2296 1266 2274 
4 2186 2294 2272 1264 
4 1340 2033 2623 2247 
4 2032 2622 2246 1339 
4 2248 2034 1341 2624 
4 1342 2625 2035 2249 
4 1944 2564 995 996 
4 1024 1023 1912 2540 
4 1205 1155 2071 2427 
4 2070 2404 1156 1206 
4 1985 2614 1330 2053 
4 1987 1328 2615 2055 
4 2563 1942 1943 994 
4 1022 2539 1910 1911 
4 1788 1549 2377 1789 
4 1808 1809 2351 1573 
4 1016 1964 1641 2453 
4 1642 1044 2452 1932 
4 991 1939 1938 1707 
4 1019 1708 1906 1907 
4 2205 2009 1383 1357 
4 2008 1384 1358 2203 
4 1545 2374 1546 1221 
4 1245 1569 2348 1570 
4 1524 1523 1042 2559 
4 1500 2583 1014 1499 
4 1793 1792 52 227 
4 155 74 1527 1669 
4 2076 1162 2078 2472 
4 2473 1161 2079 2077 
4 1620 1162 2076 1160 
4 1159 1161 2077 1597 
4 1809 2352 1574 1810 
4 2378 1550 1790 1789 
4 997 2565 1945 996 
4 1025 1024 1913 2541 
4 1023 1911 1912 2540 
4 2564 1944 995 1943 
4 2587 991 2560 1591 
4 1019 1592 2586 2536 
4 2372 2164 2373 1220 
4 2346 1244 2347 2137 
4 1327 2054 1986 1060 
4 1984 1329 1062 2052 
4 1024 1913 2541 1912 
4 2565 1944 1945 996 
4 2542 1026 1914 1025 
4 2566 1946 998 997 
4 2310 1862 1391 2050 
4 1392 2048 1860 2308 
4 2353 1575 1810 1811 
4 1791 1790 2379 1551 
4 1947 2567 998 999 
4 1026 2543 1915 1027 
4 1948 2568 999 1000 
4 1028 1916 2544 1027 
4 2535 1046 1589 1475 
4 1476 1590 2534 1047 
4 1000 1001 1949 2569 
4 1917 2545 1029 1028 
4 1918 2546 1030 1029 
4 2570 1001 1950 1002 
4 1003 2571 1951 1002 
4 2547 1919 1030 1031 
4 2548 1920 1031 1032 
4 2572 1952 1004 1003 
4 1953 1005 2573 1004 
4 1921 1033 1032 2549 
4 1954 2574 1005 1006 
4 1034 1033 1922 2550 
4 1034 1923 1035 2551 
4 2575 1955 1007 1006 
4 1924 1035 2552 1036 
4 1956 1008 2576 1007 
4 1037 2553 1036 1925 
4 1957 1008 1009 2577 
4 1009 1010 1958 2578 
4 2554 1037 1038 1926 
4 1010 1959 2579 1011 
4 1927 2555 1039 1038 
4 2580 1012 1011 1960 
4 1040 1928 2556 1039 
4 251 2253 124 2638 
4 2323 2244 1817 2607 
4 2606 1818 2322 2242 
4 2462 2066 1650 2512 
4 2067 1649 2513 2463 
4 2468 1830 1426 2470 
4 2471 1830 1425 2469 
4 1914 2542 1025 1913 
4 2566 1946 997 1945 
4 2114 2508 2112 1198 
4 1197 2509 2113 2115 
4 211 1777 1776 1537 
4 164 1797 1561 1796 
4 2543 1026 1915 1914 
4 1946 1947 2567 998 
4 1947 1948 2568 999 
4 2544 1916 1915 1027 
4 1917 2545 1028 1916 
4 1948 1000 1949 2569 
4 1001 1949 2570 1950 
4 2546 1918 1917 1029 
4 1918 2547 1919 1030 
4 2571 1950 1951 1002 
4 2572 1952 1003 1951 
4 2548 1920 1919 1031 
4 1920 1921 1032 2549 
4 1952 1953 2573 1004 
4 1033 1922 2550 1921 
4 2574 1954 1005 1953 
4 1923 1034 1922 2551 
4 1955 2575 1954 1006 
4 1035 1923 1924 2552 
4 1955 1956 2576 1007 
4 1008 1957 1956 2577 
4 2553 1924 1036 1925 
4 1037 2554 1925 1926 
4 1957 1009 1958 2578 
4 1010 1959 1958 2579 
4 1927 2555 1038 1926 
4 1959 2580 1011 1960 
4 1928 1927 2556 1039 
4 2373 2165 1221 1220 
4 1244 1245 2347 2138 
4 155 1527 2454 1669 
4 57 1593 232 1691 
4 104 185 1594 1692 
4 1309 1082 1341 1992 
4 1308 1081 1340 1991 
4 2061 1137 2397 1675 
4 1676 2060 1138 2396 
4 2510 1466 932 1850 
4 1465 2511 932 1850 
4 1464 1196 1462 2506 
4 1461 1463 2507 1195 
4 2256 2010 1102 2018 
4 2012 2258 1100 2020 
4 2400 2404 1684 1907 
4 189 1362 2257 188 
4 2059 1747 2123 1141 
4 2058 1142 2122 1748 
4 945 1394 2049 2309 
4 943 2051 1393 2311 
4 1085 1875 1983 2001 
4 1999 1981 1087 1873 
4 1195 1614 2111 1193 
4 2110 1196 1194 1637 
4 2475 1163 2081 2079 
4 2078 1164 2080 2474 
4 2507 1195 2113 2111 
4 1196 2506 2112 2110 
4 1289 2599 2607 1327 
4 1329 2606 1291 2598 
4 1162 2076 1160 1428 
4 1161 1427 1159 2077 
4 1829 910 911 1819 
4 910 1820 1829 911 
4 2082 2080 1166 2476 
4 2081 2477 2083 1165 
4 1792 2380 1552 1791 
4 1811 1812 2354 1576 
4 1463 2507 1195 2113 
4 1464 1196 2506 2112 
4 2082 1168 2084 2478 
4 2083 2479 2085 1167 
4 1170 2086 2084 2480 
4 2481 2087 2085 1169 
4 233 1526 58 2621 
4 2620 1528 105 186 
4 2088 1172 2482 2086 
4 2087 2089 1171 2483 
4 2484 2088 2090 1174 
4 1173 2089 2091 2485 
4 2092 1176 2486 2090 
4 2487 2091 1175 2093 
4 1178 2094 2092 2488 
4 2489 1177 2095 2093 
4 2491 2097 2095 1179 
4 2096 2094 1180 2490 
4 1182 2098 2096 2492 
4 2493 2097 1181 2099 
4 2101 1183 2099 2495 
4 1184 2494 2100 2098 
4 2496 1186 2100 2102 
4 2101 2103 1185 2497 
4 2105 1187 2103 2499 
4 2104 2498 2102 1188 
4 2501 2105 1189 2107 
4 2104 2500 1190 2106 
4 2109 2503 1191 2107 
4 2108 2502 2106 1192 
4 2504 2110 1194 2108 
4 2111 2505 1193 2109 
4 1256 2358 2359 1532 
4 1531 2385 1232 2384 
4 2194 2316 1135 1276 
4 1133 1275 2317 2195 
4 1874 1084 1982 2000 
4 1872 1998 1980 1086 
4 2279 1859 1694 2271 
4 1696 2269 1857 2277 
4 2164 2165 2373 1220 
4 1244 2347 2137 2138 
4 1831 913 1428 2472 
4 1831 913 2473 1427 
4 1669 1527 2214 1259 
4 1257 2216 1667 1525 
4 229 55 1815 230 
4 1816 182 183 102 
4 2148 1254 1579 1255 
4 1230 1555 1231 2175 
4 2224 950 1391 1299 
4 1301 952 1392 2222 
4 226 52 51 1792 
4 2197 2057 2523 1657 
4 1090 2533 2193 1269 
4 2532 1270 1091 2192 
4 1988 2212 1064 1293 
4 2520 989 1660 1262 
4 987 1659 1261 2521 
4 1065 1989 1294 2213 
4 1394 2223 953 1302 
4 1300 2225 951 1393 
4 75 157 156 1754 
4 98 97 1811 178 
4 2509 1463 1465 1197 
4 1466 1464 2508 1198 
4 1230 2174 1498 1229 
4 2147 1253 1254 1522 
4 2236 2590 2192 1322 
4 2193 2591 2237 1321 
4 1061 2615 2055 2313 
4 2312 2614 2053 1063 
4 1252 1521 1253 2146 
4 2173 1228 1497 1229 
4 2141 1516 1247 1248 
4 1224 1223 2168 1492 
4 2169 1225 1224 1493 
4 1248 1517 1249 2142 
4 2170 1226 1225 1494 
4 1518 1250 1249 2143 
4 1519 1250 2144 1251 
4 1227 2171 1495 1226 
4 2145 1520 1251 1252 
4 1227 1228 1496 2172 
4 1515 1246 2140 1247 
4 1223 1222 2167 1491 
4 1222 2166 1490 1221 
4 1246 1245 1514 2139 
4 1427 2473 2471 2077 
4 2076 1428 2472 2470 
4 151 150 70 2044 
4 1329 1291 1706 2598 
4 2599 1289 1705 1327 
4 95 1808 175 94 
4 1208 2116 2114 2510 
4 1207 2115 2117 2511 
4 2285 1065 1701 1368 
4 2285 1065 1368 1702 
4 1900 1345 2522 2286 
4 2288 2523 1902 1343 
4 2392 1018 1400 1530 
4 2393 990 1529 1399 
4 2212 1988 2187 1293 
4 1294 1989 2189 2213 
4 937 1690 1390 2307 
4 1689 937 1390 2307 
4 64 239 2047 63 
4 110 192 2045 111 
4 197 23 22 2046 
4 70 150 69 2044 
4 1294 1586 1266 2213 
4 1584 1264 2212 1293 
4 1805 91 172 92 
4 46 222 47 1787 
4 2603 2285 1065 1701 
4 2285 2602 1065 1702 
4 1536 2364 2365 1212 
4 1236 2339 1560 2338 
4 2514 1754 1297 75 
4 1295 28 1753 2515 
4 1592 1019 1501 2536 
4 2560 991 1477 1591 
4 1889 965 1881 1885 
4 1891 1887 1883 963 
4 1882 1890 962 1886 
4 1884 1888 964 1880 
4 1667 27 1525 202 
4 1761 2605 2315 2195 
4 2194 2314 1762 2604 
4 2219 2179 1995 1388 
4 1386 2181 1997 2221 
4 1233 1501 2537 2126 
4 2129 1236 1235 2338 
4 1211 2364 1212 2156 
4 2372 2163 1219 2371 
4 2346 2345 1243 2136 
4 1218 2162 2370 2371 
4 2345 2344 1242 2135 
4 2344 2343 1241 2134 
4 2161 2369 1217 2370 
4 2133 2342 2343 1240 
4 1216 2369 2160 2368 
4 2342 2132 2341 1239 
4 1215 2159 2367 2368 
4 2158 2366 1214 2367 
4 2340 1238 2341 2131 
4 2130 2340 1237 2339 
4 2366 1213 2365 2157 
4 2364 2365 1212 2156 
4 1236 2129 2339 2338 
4 962 958 1886 966 
4 968 1884 964 960 
4 1887 967 959 963 
4 965 969 961 1885 
4 2456 1667 1525 202 
4 217 1783 42 1782 
4 943 1975 2311 1332 
4 945 1334 2309 1974 
4 2058 1704 1136 2518 
4 2519 2059 1703 1134 
4 1973 2310 1331 942 
4 944 2308 1333 1972 
4 1306 2614 1260 2215 
4 2217 1258 1304 2615 
4 2148 1254 1255 1523 
4 1231 1230 2175 1499 
4 2117 1207 2511 1467 
4 1208 2116 2510 1468 
4 1157 1159 2075 1596 
4 1964 1963 1016 1475 
4 1044 1476 1931 1932 
4 1681 2275 1265 1353 
4 1263 1351 2273 1679 
4 1798 85 166 1799 
4 2405 1618 1158 1156 
4 1155 1157 2428 1595 
4 2123 1747 1409 1141 
4 1142 2122 1748 1410 
4 1813 100 181 1814 
4 990 2393 1729 1399 
4 1018 1730 2392 1400 
4 2075 1159 2077 2429 
4 2406 2076 2074 1160 
4 74 156 155 2584 
4 1816 182 101 1814 
4 1210 2153 2154 1209 
4 1233 2126 2127 1234 
4 28 203 1753 2515 
4 1763 1719 934 1854 
4 1720 1764 934 1854 
4 2188 1079 1326 1266 
4 2007 2204 1381 1285 
4 1382 1287 2202 2006 
4 1077 2186 1324 1264 
4 1420 1594 2332 1150 
4 2333 1593 1419 1149 
4 1411 1275 2063 1675 
4 1394 945 2049 1132 
4 2051 1130 943 1393 
4 1212 2365 2157 2156 
4 2129 2130 1236 2339 
4 1213 2366 2158 2157 
4 2340 2131 2130 1237 
4 1238 2132 2341 2131 
4 2159 2158 1214 2367 
4 2133 2132 2342 1239 
4 2160 2159 1215 2368 
4 2369 2161 1216 2160 
4 2343 2133 1240 2134 
4 2344 1241 2135 2134 
4 2162 2161 1217 2370 
4 2162 1218 2163 2371 
4 2136 2345 1242 2135 
4 2164 2372 2163 1219 
4 2346 1243 2137 2136 
4 1401 1017 1966 1965 
4 1045 1933 1402 1934 
4 1325 2189 1265 1078 
4 1263 2187 1323 1076 
4 1130 2051 943 1357 
4 945 2049 1132 1358 
4 1793 1792 2381 1553 
4 1812 1813 2355 1577 
4 1290 2055 2207 2321 
4 1292 2053 2320 2206 
4 2214 1259 2604 2218 
4 2059 2387 1703 1134 
4 2386 2058 1704 1136 
4 1088 2007 1381 1285 
4 1089 1287 1382 2006 
4 1676 2060 2396 2062 
4 2063 2061 2397 1675 
4 1056 1870 1395 950 
4 1057 952 1396 1868 
4 953 1869 1059 1398 
4 1397 1058 951 1871 
4 2297 2189 2016 1078 
4 2337 2127 2336 1234 
4 2362 2363 1210 2154 
4 1430 1162 1428 2472 
4 1429 2473 1427 1161 
4 1076 2187 2014 2295 
4 2401 2393 1529 1938 
4 1906 2392 1530 2400 
4 1639 1208 2114 1198 
4 2115 1197 1207 1616 
4 2454 1669 2214 1259 
4 2216 1257 1667 2456 
4 1645 909 1824 2465 
4 909 2464 1646 1824 
4 1665 1329 1994 1050 
4 1048 1327 1996 1663 
4 212 1778 37 1777 
4 947 1071 1867 1971 
4 949 1865 1073 1969 
4 1722 1071 1085 1983 
4 1900 1365 2250 988 
4 986 2251 1902 1363 
4 1072 1980 1086 1723 
4 1070 1721 1084 1982 
4 992 1940 1595 1683 
4 1908 1618 1684 1020 
4 1131 2048 1356 2202 
4 1355 2204 2050 1129 
4 2268 2276 1345 1695 
4 2270 1693 1343 2278 
4 1867 1071 1983 2305 
4 1865 2303 1981 1073 
4 2387 1703 1134 1141 
4 1142 2386 1704 1136 
4 2116 1640 1208 2426 
4 2449 1207 2117 1617 
4 2331 2597 1936 1709 
4 1710 2330 2596 1904 
4 1870 1395 950 1066 
4 952 1067 1396 1868 
4 1805 1806 92 173 
4 220 45 1785 1786 
4 1327 1705 2054 1060 
4 1329 1062 2052 1706 
4 1397 951 1068 1871 
4 1069 1869 953 1398 
4 1256 2358 2149 2359 
4 2385 2176 1232 2384 
4 1963 1015 1016 1475 
4 1044 1476 1043 1931 
4 1830 1829 1774 911 
4 1830 1829 911 1773 
4 1148 2335 1822 1557 
4 1533 2361 1821 1147 
4 2511 1851 932 1850 
4 1851 2510 932 1850 
4 2127 2126 2336 1234 
4 2362 1210 2153 2154 
4 2523 1655 1902 1343 
4 1345 1656 1900 2522 
4 2457 1093 1668 2221 
4 2219 1670 2455 1095 
4 1072 1864 2302 1980 
4 1070 1866 1982 2304 
4 1286 2009 2205 1357 
4 1288 2008 1358 2203 
4 2650 1734 139 264 
4 2631 1732 249 122 
4 2051 1863 1393 2311 
4 1394 1861 2049 2309 
4 1258 1093 2181 2221 
4 2179 2219 1095 1260 
4 1978 2024 1098 2004 
4 1099 2025 1979 2005 
4 2023 1097 1977 2003 
4 1976 2002 1096 2022 
4 102 184 183 1766 
4 1765 231 230 55 
4 1586 2188 1326 1266 
4 2186 1584 1324 1264 
4 1818 2276 2322 2242 
4 2323 2244 2278 1817 
4 1042 1930 1931 2559 
4 2583 1963 1014 1962 
4 1930 1043 1931 2452 
4 1963 1015 1962 2453 
4 45 221 46 1786 
4 1090 2193 2009 1715 
4 1716 2008 1091 2192 
4 1090 1286 2009 2289 
4 2287 1288 2008 1091 
4 2583 1500 2176 2175 
4 2148 1524 2149 2559 
4 2601 1064 2284 1699 
4 1700 2600 1064 2284 
4 2582 1013 1961 1962 
4 1041 1930 2558 1929 
4 1428 1831 2472 2470 
4 2473 1831 1427 2471 
4 2457 2259 235 1360 
4 1362 2455 2257 188 
4 1136 2058 2053 1063 
4 2055 1061 2059 1134 
4 1881 965 2031 1116 
4 1115 2030 1883 963 
4 964 2029 1114 1880 
4 1113 1882 2028 962 
4 941 1051 2243 1857 
4 1049 2245 1859 939 
4 2614 1330 2053 1063 
4 1328 1061 2615 2055 
4 1595 1940 2427 1683 
4 1908 1618 2404 1684 
4 2072 2405 1158 1156 
4 1157 1155 2428 2073 
4 1076 1679 2295 1331 
4 1681 2297 1332 1078 
4 1288 2269 2008 2203 
4 2271 1286 2009 2205 
4 1823 2526 2594 1403 
4 1823 1403 2595 2527 
4 1269 2533 1282 1661 
4 2532 1270 1284 1662 
4 1680 2272 1264 1352 
4 1682 1354 1266 2274 
4 1818 1050 940 2242 
4 2244 1048 938 1817 
4 1230 2174 1499 1498 
4 2147 1254 1523 1522 
4 1761 2605 1060 1303 
4 1762 1305 1062 2604 
4 2034 1115 1082 1341 
4 1116 1083 1342 2035 
4 1114 1081 2033 1340 
4 1339 2032 1113 1080 
4 2012 1755 1982 2020 
4 1980 2018 1757 2010 
4 1756 2013 1983 2021 
4 1758 2011 2019 1981 
4 1255 2148 1523 1524 
4 1500 1231 2175 1499 
4 1939 2401 1587 1529 
4 1588 1530 2400 1907 
4 1155 1595 2427 1683 
4 1618 2404 1684 1156 
4 1116 1083 2035 1993 
4 1115 2034 1082 1992 
4 2032 1990 1113 1080 
4 1081 1114 2033 1991 
4 1735 2613 2306 2589 
4 2612 2588 1736 2306 
4 1149 2123 1409 1141 
4 1142 2122 1410 1150 
4 2619 1879 1085 2001 
4 1087 1999 1877 2617 
4 1100 1104 2020 2258 
4 2018 2256 1106 1102 
4 157 1672 1754 76 
4 29 204 1671 1753 
4 1645 2459 1824 1687 
4 2458 1688 1646 1824 
4 1878 2618 1084 2000 
4 1998 2616 1086 1876 
4 2528 1131 1856 1695 
4 2530 1693 1858 1129 
4 1427 2471 1159 2077 
4 2076 1160 1428 2470 
4 2064 2118 1146 2394 
4 2119 2065 1145 2395 
4 2053 1136 1063 1686 
4 1685 1061 2055 1134 
4 2327 2387 2123 1141 
4 2386 1142 2326 2122 
4 1963 1964 1016 2453 
4 1044 1931 2452 1932 
4 217 43 42 1783 
4 42 217 1782 41 
4 2307 1390 2027 2592 
4 1390 2593 2307 2027 
4 166 85 86 1799 
4 2042 1117 2038 197 
4 2040 1119 150 2036 
4 1118 2043 2039 239 
4 192 2041 2037 1120 
4 1020 1501 2537 1502 
4 1478 2561 992 1477 
4 2402 1202 1678 1154 
4 1153 2403 1201 1677 
4 1408 945 1334 2309 
4 1407 943 2311 1332 
4 1521 1253 2146 1522 
4 1498 2173 1497 1229 
4 258 1895 2030 1111 
4 1112 1893 2031 270 
4 2028 243 1109 1894 
4 1892 255 1110 2029 
4 2292 2210 1299 946 
4 1301 948 2208 2290 
4 2653 140 265 2240 
4 123 2635 250 2238 
4 1520 2145 1521 1252 
4 1496 1228 1497 2172 
4 1490 2165 1489 1221 
4 1245 2138 1513 1514 
4 1515 1246 1514 2139 
4 2166 1222 1490 1491 
4 1516 1515 2140 1247 
4 2167 1223 1491 1492 
4 2168 1224 1492 1493 
4 1517 1516 2141 1248 
4 1517 1518 1249 2142 
4 1225 2169 1494 1493 
4 2170 1495 1226 1494 
4 1518 1250 2143 1519 
4 1520 1519 2144 1251 
4 1496 1227 2171 1495 
4 257 983 1895 2655 
4 271 2654 1893 985 
4 984 1892 256 2633 
4 242 2634 1894 982 
4 1406 944 2308 1333 
4 1331 2310 1405 942 
4 82 1795 162 81 
4 209 35 34 1775 
4 944 2048 2308 2202 
4 2204 2310 942 2050 
4 1640 1642 2452 1200 
4 1199 1641 2453 1617 
4 2599 2323 1415 1289 
4 1416 1291 2322 2598 
4 84 166 1798 85 
4 212 38 37 1778 
4 2360 1411 2151 1147 
4 2124 1148 1412 2334 
4 1013 1012 2581 1961 
4 1040 1041 2557 1929 
4 1716 2300 2008 2236 
4 2009 2237 2301 1715 
4 2619 1742 2267 2001 
4 2265 1999 1744 2617 
4 1071 1751 2305 1971 
4 2303 1752 1073 1969 
4 122 249 2628 1731 
4 139 264 1733 2649 
4 2363 2362 1210 1535 
4 1829 911 1773 1819 
4 1829 1820 1774 911 
4 1284 1698 2390 1280 
4 2391 1279 1697 1282 
4 1200 2116 1208 1468 
4 1199 1207 2117 1467 
4 1672 2388 1276 1412 
4 1411 1671 2389 1275 
4 2528 1856 2268 1695 
4 1693 2270 2530 1858 
4 1374 1049 1859 939 
4 1051 941 1376 1857 
4 202 28 2585 203 
4 44 219 1785 1784 
4 1070 1866 1970 946 
4 1072 1864 948 1968 
4 1743 2616 1998 2264 
4 1741 2618 2266 2000 
4 2229 1727 1317 2237 
4 1318 2228 2236 1728 
4 2403 1677 1473 1965 
4 2152 2151 1143 1147 
4 1148 2124 1144 2125 
4 1398 1099 1979 1274 
4 1397 1978 1098 1273 
4 1977 1097 1396 1272 
4 1976 1271 1395 1096 
4 1964 2329 1963 1475 
4 1476 1931 1932 2328 
4 2061 1133 1709 1675 
4 2060 1676 1710 1135 
4 2581 1012 1960 1961 
4 1928 1040 2557 1929 
4 1940 991 2560 1939 
4 1908 1019 1907 2536 
4 2165 1489 1221 1220 
4 1244 1245 2138 1513 
4 1930 1041 2558 1042 
4 1013 2582 1014 1962 
4 2621 2313 1296 2517 
4 1298 2312 2620 2516 
4 2042 196 1898 978 
4 1414 2324 2182 2458 
4 2325 2459 1413 2183 
4 2514 1297 156 75 
4 2049 1132 1358 2203 
4 2051 1130 2205 1357 
4 2303 2019 1981 1073 
4 1071 1983 2305 2021 
4 2316 2060 2194 1135 
4 1133 2317 2061 2195 
4 1328 1290 2055 2207 
4 1330 2053 1292 2206 
4 2457 1093 1360 1668 
4 1670 1362 2455 1095 
4 2054 1060 1133 2195 
4 1135 2194 1062 2052 
4 1142 1590 1045 2326 
4 1017 2327 1589 1141 
4 1259 1075 2604 2218 
4 2183 1413 1151 1717 
4 1152 1718 1414 2182 
4 2388 2316 1276 1412 
4 1404 1720 934 1854 
4 1719 1404 934 1854 
4 1982 1070 2304 2020 
4 1933 1045 2326 1934 
4 1966 1017 2327 1965 
4 2613 2191 1267 2201 
4 2200 2190 1268 2612 
4 1988 1263 2187 1293 
4 1989 1294 2189 1265 
4 2287 2532 1901 1662 
4 2533 1903 1661 2289 
4 1534 2362 1210 1821 
4 1822 2336 1234 1558 
4 1761 1295 1275 2515 
4 2514 1762 1297 1276 
4 36 212 37 1777 
4 2296 1334 2017 1079 
4 1333 2294 2015 1077 
4 1830 912 2471 1425 
4 1830 912 1426 2470 
4 127 126 1340 253 
4 1339 245 118 117 
4 135 134 260 1341 
4 143 144 1342 268 
4 947 2293 2211 1300 
4 949 1302 2209 2291 
4 2346 1243 1244 2137 
4 2164 2372 1219 1220 
4 2259 2013 1101 2021 
4 2011 2257 1103 2019 
4 1857 2049 2529 1132 
4 2051 1859 2531 1130 
4 1079 2017 2188 2240 
4 2015 1077 2186 2238 
4 2251 1415 1729 2331 
4 1730 2330 1416 2250 
4 78 160 159 1557 
4 1533 206 31 207 
4 1090 2533 1269 1661 
4 2532 1270 1662 1091 
4 989 1901 2184 1662 
4 1903 987 2185 1661 
4 958 1721 1878 1084 
4 1086 1876 960 1723 
4 1087 1724 961 1877 
4 1879 1722 959 1085 
4 1294 2451 1586 2213 
4 2450 1584 2212 1293 
4 2300 1384 2008 2203 
4 2009 2301 2205 1383 
4 2396 1138 1708 1906 
4 1938 1137 1707 2397 
4 149 980 2040 1896 
4 1899 2043 979 240 
4 981 2041 1897 193 
4 1826 1726 2588 935 
4 935 1826 1725 2589 
4 2116 1640 1200 1208 
4 1207 1199 2117 1617 
4 1977 1097 1272 2003 
4 1978 1098 1273 2004 
4 1099 1979 1274 2005 
4 2002 1271 1976 1096 
4 1654 1079 1326 2240 
4 1742 1126 2619 2267 
4 1128 2265 1744 2617 
4 229 54 1794 1815 
4 1077 1652 1324 2238 
4 1741 2618 1125 2266 
4 1588 2400 1684 1907 
4 1211 2155 1480 1479 
4 1504 1503 2128 1235 
4 2260 1333 2294 2015 
4 1334 2261 2296 2017 
4 2129 1236 1504 1235 
4 1480 1211 1212 2156 
4 2312 1306 2620 2215 
4 1304 2217 2313 2621 
4 955 1115 1883 963 
4 965 1881 957 1116 
4 954 1882 1113 962 
4 1114 964 1880 956 
4 1265 2189 2297 1078 
4 1374 1049 1971 1859 
4 1376 1051 1857 1969 
4 1263 2187 1076 2295 
4 1967 1745 1401 2525 
4 1402 2524 1746 1935 
4 90 172 1804 91 
4 2302 1072 1750 1968 
4 1970 1070 1749 2304 
4 1137 1529 1399 1938 
4 1138 1906 1400 1530 
4 1524 2149 2559 2328 
4 2583 1500 2329 2176 
4 1688 2458 1827 1824 
4 2459 1827 1824 1687 
4 111 1124 193 1120 
4 1122 64 240 1118 
4 1058 1397 1978 1871 
4 1869 1059 1398 1979 
4 1977 1057 1396 1868 
4 1056 1870 1976 1395 
4 938 2323 1817 1289 
4 1818 1291 2322 940 
4 2034 259 1771 2624 
4 269 1772 2625 2035 
4 2032 2622 1769 244 
4 254 1770 2033 2623 
4 228 54 1794 229 
4 100 182 181 1814 
4 2299 2007 2204 1381 
4 2202 1382 2006 2298 
4 1987 1664 1997 2221 
4 2219 1995 1985 1666 
4 1649 1647 1467 2513 
4 1650 2512 1468 1648 
4 938 2323 2278 1817 
4 2276 1818 2322 940 
4 1763 1647 1417 2461 
4 1764 1418 1648 2460 
4 1967 1401 1966 2525 
4 2524 1402 1934 1935 
4 1108 1390 2027 1697 
4 1390 1108 2027 1698 
4 2613 2026 2527 1711 
4 2612 1712 2526 2026 
4 2051 1859 1130 2293 
4 1857 2049 1132 2291 
4 945 2049 2203 2309 
4 2051 943 2205 2311 
4 2130 1237 1236 2339 
4 2365 1213 1212 2157 
4 1639 1208 2426 2114 
4 2449 2115 1207 1616 
4 2366 1213 2158 1214 
4 2340 1238 2131 1237 
4 1776 211 1537 2365 
4 2339 164 1561 1796 
4 2605 1761 1060 2195 
4 2194 1762 1062 2604 
4 2057 2523 986 1902 
4 1900 988 2056 2522 
4 2132 1238 2341 1239 
4 1215 2159 1214 2367 
4 2342 2133 1239 1240 
4 1216 2160 1215 2368 
4 1241 2343 1240 2134 
4 2369 2161 1217 1216 
4 2344 1241 1242 2135 
4 2162 1217 1218 2370 
4 2163 1218 1219 2371 
4 2345 1243 2136 1242 
4 1417 2119 2399 2461 
4 2118 1418 2398 2460 
4 2427 1205 1683 1587 
4 2387 1017 1966 1703 
4 1704 2386 1045 1934 
4 1385 1996 2180 1663 
4 2299 2235 2007 1713 
4 2006 2234 2298 1714 
4 1144 1148 2125 1592 
4 1591 2152 1143 1147 
4 2529 1696 1857 1132 
4 1130 1859 2531 1694 
4 1049 2245 1971 1859 
4 1051 2243 1857 1969 
4 1270 2532 1284 2198 
4 2533 2199 1269 1282 
4 2537 2538 1502 2127 
4 2154 1478 2561 2562 
4 220 45 44 1785 
4 1207 2449 1616 1617 
4 1640 1639 1208 2426 
4 1678 1044 1932 1047 
4 1964 1046 1016 1677 
4 948 1301 1375 2290 
4 2292 1299 1373 946 
4 1903 1967 987 1364 
4 1901 1366 989 1935 
4 2024 1397 1978 1098 
4 1099 2025 1398 1979 
4 1940 991 992 2560 
4 1908 1019 2536 1020 
4 1097 2023 1977 1396 
4 1395 1976 1096 2022 
4 2122 2332 1410 1150 
4 2123 2333 1149 1409 
4 1701 1368 1727 1855 
4 1368 1855 1702 1728 
4 1424 2072 2074 1158 
4 2075 1157 2073 1423 
4 1097 2023 2247 2003 
4 2002 2246 1096 2022 
4 2249 2025 1099 2005 
4 2024 2248 1098 2004 
4 1587 2401 2393 1529 
4 1724 1873 1338 1877 
4 1879 1875 1336 1722 
4 1876 1872 1337 1723 
4 1721 1335 1878 1874 
4 947 1374 2293 1300 
4 949 1376 1302 2291 
4 1365 2276 940 1345 
4 1343 938 1363 2278 
4 1767 1279 1471 2395 
4 1768 1280 2394 1472 
4 1878 1721 1874 1084 
4 1086 1872 1876 1723 
4 1879 1875 1722 1085 
4 1724 1087 1873 1877 
4 2204 2299 1381 1355 
4 1356 1382 2202 2298 
4 1370 1742 1085 2001 
4 1372 1999 1087 1744 
4 1736 935 1389 2306 
4 935 1735 1389 2306 
4 1157 2428 2075 2073 
4 2072 2405 2074 1158 
4 1688 909 1646 1824 
4 909 1645 1824 1687 
4 1418 1202 2120 1154 
4 1153 2121 1417 1201 
4 2319 2527 1281 2197 
4 2196 1283 2318 2526 
4 2002 1347 2252 2014 
4 2004 1349 2016 2254 
4 2398 1764 1854 1853 
4 1763 2399 1854 1853 
4 100 1813 181 180 
4 52 1793 227 228 
4 2581 2582 2174 1498 
4 2558 2557 2147 1522 
4 1793 1554 2382 1794 
4 1813 1578 1814 2356 
4 1741 1369 1084 2000 
4 1743 1998 1086 1371 
4 1866 2232 2224 1311 
4 1864 1313 2222 2230 
4 991 992 2560 1477 
4 1019 1501 2536 1020 
4 1306 1298 2312 2620 
4 2313 1304 2621 1296 
4 1364 2279 939 1344 
4 1346 941 1366 2277 
4 1672 2388 1754 1276 
4 1671 2389 1275 1753 
4 1865 1314 2231 2223 
4 1312 2225 1867 2233 
4 1205 1155 2427 1683 
4 2404 1684 1156 1206 
4 1674 2318 1414 2182 
4 1413 2183 2319 1673 
4 170 89 1803 1802 
4 41 1782 1781 216 
4 169 1801 88 1802 
4 1800 1801 87 168 
4 40 215 1781 1780 
4 167 86 1800 1799 
4 214 1780 39 1779 
4 1399 2597 2331 1709 
4 2330 1710 2596 1400 
4 1476 1524 1931 2328 
4 2329 1500 1963 1475 
4 1754 2514 156 75 
4 226 52 1792 227 
4 98 180 179 1812 
4 1590 2150 2534 2326 
4 2327 2535 1589 2177 
4 2511 2117 1467 2513 
4 2510 2116 2512 1468 
4 1768 1284 2390 1280 
4 2391 1279 1282 1767 
4 1779 1778 38 213 
4 98 1811 179 178 
4 225 51 1791 226 
4 2301 2205 1383 1357 
4 1384 2300 1358 2203 
4 49 225 1790 224 
4 97 1810 178 177 
4 2189 2275 1265 2297 
4 223 49 1789 224 
4 95 177 176 1809 
4 1263 2273 2187 2295 
4 2164 1488 1489 1220 
4 2137 1244 1513 1512 
4 2597 1137 1938 2397 
4 2396 1138 1906 2596 
4 47 223 1788 222 
4 95 1808 176 175 
4 2388 2062 2316 1412 
4 2017 2255 1350 2005 
4 2015 2253 2003 1348 
4 986 1139 1937 1729 
4 1730 1905 988 1140 
4 155 1527 2584 2454 
4 2187 1263 1323 1583 
4 2189 1585 1325 1265 
4 912 1830 1426 1774 
4 1830 912 1425 1773 
4 1328 1685 1061 2055 
4 1330 2053 1063 1686 
4 2257 1103 2019 1107 
4 2259 1101 1105 2021 
4 1867 1071 2305 1971 
4 1865 2303 1073 1969 
4 934 1764 936 1853 
4 1763 934 936 1853 
4 46 222 1787 221 
4 1807 175 94 174 
4 2622 245 117 244 
4 254 127 2623 253 
4 134 259 260 2624 
4 269 144 268 2625 
4 2019 2303 1107 1073 
4 1105 1071 2305 2021 
4 1277 2527 1711 1281 
4 1278 1283 1712 2526 
4 1649 1647 2513 2463 
4 1650 2462 2512 1648 
4 1408 1979 2261 1274 
4 1978 1407 2263 1273 
4 2262 1271 1405 1976 
4 1406 2260 1977 1272 
4 1070 1104 2304 2020 
4 2540 2539 2129 1504 
4 1480 2563 2156 2564 
4 2582 2583 2175 1499 
4 2148 2558 1523 2559 
4 2243 941 1857 2206 
4 2245 2207 1859 939 
4 947 1374 1049 1971 
4 949 1051 1376 1969 
4 1857 941 2277 2206 
4 2207 2279 1859 939 
4 2519 1967 1469 1966 
4 2518 1934 1470 1935 
4 1208 2116 2426 2114 
4 2115 2449 1207 2117 
4 1974 1682 2296 2274 
4 1680 1972 2294 2272 
4 1797 165 1798 84 
4 2332 1594 1410 1150 
4 2333 1593 1149 1409 
4 2540 2541 1505 2130 
4 1481 2157 2565 2564 
4 2124 1144 2125 1592 
4 2152 2151 1591 1143 
4 267 2249 1380 2283 
4 2282 2248 1379 261 
4 252 1378 2247 2281 
4 2246 2280 1377 246 
4 2158 2566 1482 2565 
4 2131 2542 2541 1506 
4 1671 204 2389 1753 
4 2388 157 1672 1754 
4 1473 1401 2525 1965 
4 1474 1933 2524 1402 
4 1483 2567 2566 2159 
4 2132 2543 2542 1507 
4 2133 2543 1508 2544 
4 1484 2160 2568 2567 
4 2544 2545 1509 2134 
4 2161 1485 2568 2569 
4 1486 2162 2570 2569 
4 2546 2545 2135 1510 
4 2546 2136 2547 1511 
4 1487 2571 2570 2163 
4 2137 2548 2547 1512 
4 2572 2571 1488 2164 
4 2572 2573 2165 1489 
4 1513 2138 2548 2549 
4 2549 2550 1514 2139 
4 1490 2166 2574 2573 
4 1491 2167 2575 2574 
4 2550 2551 1515 2140 
4 1492 2168 2576 2575 
4 2551 2552 1516 2141 
4 2552 2553 1517 2142 
4 2169 1493 2576 2577 
4 2170 2578 1494 2577 
4 2553 1518 2143 2554 
4 2554 2555 1519 2144 
4 2578 2579 2171 1495 
4 2580 2579 1496 2172 
4 2555 2145 2556 1520 
4 2173 2580 2581 1497 
4 2556 2557 1521 2146 
4 1148 2335 1582 2334 
4 1581 2360 2361 1147 
4 1505 2129 1236 1504 
4 1480 1212 1481 2156 
4 1826 1699 1367 1725 
4 1726 1826 1700 1367 
4 969 1744 961 2617 
4 967 1742 2619 959 
4 1743 2616 968 960 
4 958 1741 2618 966 
4 1386 1751 1049 1997 
4 1995 1051 1388 1752 
4 965 1112 2031 1116 
4 1115 2030 963 1111 
4 1110 964 2029 1114 
4 2028 1113 962 1109 
4 2323 1902 1363 2278 
4 2322 2276 1365 1900 
4 1719 1763 2399 1854 
4 1764 1720 2398 1854 
4 2402 2118 2120 1154 
4 2403 2119 1153 2121 
4 1050 948 1375 1968 
4 1048 1970 1373 946 
4 1879 1875 1085 2001 
4 1087 1999 1873 1877 
4 2148 2147 1254 1523 
4 2175 1230 2174 1499 
4 1133 1705 1936 1709 
4 1710 1904 1135 1706 
4 1266 2188 2274 2213 
4 2272 2186 1264 2212 
4 2219 1985 1260 1666 
4 1987 1258 1664 2221 
4 2073 1155 2071 1421 
4 2070 2072 1422 1156 
4 1823 2594 1827 1403 
4 1827 1823 1403 2595 
4 1506 1505 2130 1237 
4 2157 1213 1481 1482 
4 1874 1878 1084 2000 
4 1872 1998 1086 1876 
4 2279 1694 1344 2271 
4 2269 1696 1346 2277 
4 2402 1678 2626 1154 
4 2158 1483 1214 1482 
4 2131 1238 1507 1506 
4 1483 1484 2159 1215 
4 1508 2132 1239 1507 
4 1508 2133 1509 1240 
4 2160 1216 1484 1485 
4 2161 1486 1217 1485 
4 1241 1509 1510 2134 
4 1242 2135 1510 1511 
4 1487 2162 1486 1218 
4 1487 1488 2163 1219 
4 1243 2136 1511 1512 
4 1672 1412 1582 2334 
4 1768 2184 1660 2064 
4 1767 2185 2065 1659 
4 1525 2456 202 2585 
4 2300 1384 1716 2008 
4 2301 2009 1715 1383 
4 1691 1593 2517 1409 
4 1594 1410 1692 2516 
4 2129 1504 2128 1235 
4 2155 1211 1480 2156 
4 2216 2456 1525 2585 
4 1527 2584 2454 2214 
4 1382 2006 2298 1714 
4 2007 2299 1713 1381 
4 1478 2561 1477 1209 
4 1501 1233 2537 1502 
4 1477 2560 1591 1209 
4 1416 1904 2598 2250 
4 2251 2599 1415 1936 
4 1712 2196 2612 2526 
4 2527 2613 1711 2197 
4 2279 1290 2207 2321 
4 1292 2320 2277 2206 
4 1906 2330 2596 1400 
4 2597 1399 2331 1938 
4 1866 2232 1311 1874 
4 1864 1872 1313 2230 
4 2174 2173 1498 1229 
4 2146 1253 2147 1522 
4 1855 937 2590 1728 
4 937 1727 1855 2591 
4 2193 1090 1321 1715 
4 1091 1716 2192 1322 
4 1864 1072 2302 1968 
4 1866 1070 1970 2304 
4 987 1903 2185 2521 
4 989 1901 2520 2184 
4 43 1783 218 1784 
4 1804 171 90 1803 
4 1495 2171 2170 1226 
4 1518 1249 2142 2143 
4 1250 2143 1519 2144 
4 2169 2170 1225 1494 
4 2145 1520 2144 1251 
4 1496 1227 2172 2171 
4 2169 1224 2168 1493 
4 2141 1517 1248 2142 
4 1516 2140 2141 1247 
4 1223 2167 2168 1492 
4 1246 1515 2140 2139 
4 1222 2166 2167 1491 
4 1245 2138 1514 2139 
4 1490 2166 2165 1221 
4 1228 2173 1497 2172 
4 2145 1521 1252 2146 
4 1865 1314 1873 2231 
4 1875 1312 1867 2233 
4 1105 1071 1386 2305 
4 1107 2303 1388 1073 
4 2188 1586 1326 2240 
4 1584 2186 1324 2238 
4 1488 2164 1219 1220 
4 1243 1244 2137 1512 
4 2527 1711 1281 2197 
4 1283 2196 1712 2526 
4 1284 2184 2390 2198 
4 2391 2199 2185 1282 
4 1148 1233 2125 1592 
4 2152 1591 1209 1147 
4 22 1121 197 1117 
4 1123 69 150 1119 
4 1419 2177 1203 1232 
4 1204 1256 2150 1420 
4 2560 2153 2152 1209 
4 89 171 1803 90 
4 88 170 1802 89 
4 87 169 1801 88 
4 40 41 1781 216 
4 86 167 1800 87 
4 214 40 39 1780 
4 2307 937 1855 2591 
4 937 2307 1855 2590 
4 213 39 38 1779 
4 92 174 173 1806 
4 221 45 220 1786 
4 909 1828 1824 2465 
4 2464 909 1828 1824 
4 991 2587 2560 1939 
4 1907 1019 2586 2536 
4 1969 2209 949 1865 
4 2211 1971 947 1867 
4 1901 2532 2184 1662 
4 2533 1903 2185 1661 
4 2263 1407 1332 1273 
4 1334 1408 2261 1274 
4 2262 1271 1331 1405 
4 2260 1406 1333 1272 
4 908 909 1688 1824 
4 908 909 1824 1687 
4 1903 1344 1661 2289 
4 1346 2287 1901 1662 
4 74 156 2584 75 
4 202 28 27 2585 
4 2269 2287 1288 2008 
4 1286 2271 2009 2289 
4 2532 2184 1284 2198 
4 2199 2533 2185 1282 
4 2323 938 1363 1289 
4 2322 1291 1365 940 
4 2190 1089 2286 2200 
4 2201 2191 1088 2288 
4 2299 1315 1713 1381 
4 2298 1382 1714 1316 
4 199 2610 24 1100 
4 2527 1277 2319 1281 
4 2318 1283 1278 2526 
4 190 109 1103 2609 
4 1347 1271 1651 2014 
4 1273 1349 1653 2016 
4 2017 1654 1274 1350 
4 1652 2015 1272 1348 
4 2155 2563 1479 2562 
4 2538 2539 1503 2128 
4 1641 1015 2453 1617 
4 1642 1043 1640 2452 
4 2312 1298 1410 2516 
4 2313 1296 2517 1409 
4 1934 1704 2518 1470 
4 1469 2519 1966 1703 
4 948 1050 1750 1968 
4 1970 1048 1749 946 
4 82 1795 163 162 
4 209 35 1775 210 
4 1386 1071 1751 2305 
4 1388 2303 1752 1073 
4 1902 1343 1363 2278 
4 1365 2276 1345 1900 
4 1015 1963 1016 2453 
4 1043 1044 1931 2452 
4 1372 2265 1999 1744 
4 2267 1742 1370 2001 
4 2397 2063 1675 1143 
4 1144 1676 2396 2062 
4 2268 2528 1287 2202 
4 2204 2270 2530 1285 
4 1418 1202 1648 2460 
4 1417 1647 1201 2461 
4 2126 1233 1822 1234 
4 1210 1821 2153 1209 
4 1708 1019 1906 1530 
4 1529 991 1938 1707 
4 1736 2588 935 2306 
4 935 1735 2306 2589 
4 1073 1865 1724 1873 
4 1379 135 260 1341 
4 1342 143 268 1380 
4 192 2041 1120 193 
4 1118 240 2043 239 
4 1655 2201 2288 2523 
4 1656 2522 2286 2200 
4 1743 1998 1371 2264 
4 1369 1741 2266 2000 
4 83 165 1797 84 
4 1505 2130 1237 1236 
4 1213 1212 2157 1481 
4 1652 2644 2253 124 
4 141 2255 1654 2667 
4 1213 2158 1214 1482 
4 2131 1238 1506 1237 
4 2132 1238 1239 1507 
4 2159 1483 1215 1214 
4 2133 1508 1239 1240 
4 1216 2160 1484 1215 
4 2161 1217 1216 1485 
4 1509 1241 1240 2134 
4 1486 2162 1217 1218 
4 1241 1242 2135 1510 
4 1218 1487 2163 1219 
4 1243 2136 1242 1511 
4 1967 1903 987 2521 
4 989 1901 1935 2520 
4 2060 1710 1904 1135 
4 2061 1133 1936 1709 
4 1332 2297 2016 1078 
4 2014 1076 2295 1331 
4 2389 1275 2515 2317 
4 2388 2316 2514 1276 
4 1051 949 1752 1969 
4 1751 947 1049 1971 
4 1763 1417 1471 2399 
4 1764 1418 2398 1472 
4 2148 2558 2147 1523 
4 2582 2175 2174 1499 
4 2251 986 1937 1729 
4 1730 1905 2250 988 
4 64 240 1118 239 
4 111 193 192 1120 
4 2060 1710 2596 1904 
4 2597 2061 1936 1709 
4 1304 2217 2615 2313 
4 1306 2312 2614 2215 
4 2276 2322 1365 940 
4 938 2323 1363 2278 
4 2323 1363 1415 1289 
4 1291 1416 2322 1365 
4 1756 1370 1085 2001 
4 1758 1372 1999 1087 
4 2126 2537 1502 2127 
4 1478 2153 2154 2561 
4 1144 1676 1138 2396 
4 1137 2397 1675 1143 
4 1328 1664 1049 2245 
4 2243 1051 1330 1666 
4 2054 2605 1060 2195 
4 1062 2194 2604 2052 
4 990 1587 2393 1529 
4 1369 1755 1084 2000 
4 1086 1998 1757 1371 
4 1089 2190 2006 1714 
4 2191 2007 1713 1088 
4 912 1830 911 1773 
4 912 1830 1774 911 
4 2219 2455 2179 1095 
4 1093 2457 2181 2221 
4 1069 2025 1869 1398 
4 2024 1397 1068 1871 
4 1994 1050 1750 1387 
4 1048 1749 1385 1996 
4 1067 2023 1396 1868 
4 1870 1395 1066 2022 
4 2450 2212 2187 1293 
4 1294 2189 2451 2213 
4 2220 1996 1986 1663 
4 1984 1665 1994 2218 
4 1286 1344 2271 2289 
4 2287 2269 1288 1346 
4 143 267 1380 142 
4 135 1379 261 136 
4 1377 118 246 119 
4 1378 252 126 125 
4 1082 2034 1341 1992 
4 1081 2033 1340 1991 
4 2563 2155 1480 2156 
4 2539 2129 1504 2128 
4 2068 1718 1152 2182 
4 1151 2183 1717 2069 
4 1118 240 1122 2043 
4 1120 2041 1124 193 
4 2173 2581 2174 1498 
4 2557 2146 2147 1522 
4 2520 989 2184 1660 
4 987 2185 1659 2521 
4 2157 1481 2156 2564 
4 2540 1505 2129 2130 
4 218 44 43 1784 
4 2302 1072 1106 1387 
4 1070 1104 1385 2304 
4 1751 1049 2245 1971 
4 2243 1051 1752 1969 
4 2157 2158 1482 2565 
4 2541 2131 1506 2130 
4 2131 2132 2542 1507 
4 2566 1483 2159 2158 
4 2555 2145 1520 2144 
4 2579 1496 2172 2171 
4 2143 2554 1519 2144 
4 2171 2578 1495 2170 
4 2553 1518 2142 2143 
4 2169 2170 1494 2577 
4 2552 1517 2141 2142 
4 2168 2169 1493 2576 
4 2551 1516 2140 2141 
4 2167 2168 1492 2575 
4 2166 2167 1491 2574 
4 1515 2550 2140 2139 
4 1490 2166 2573 2165 
4 2138 2549 1514 2139 
4 2572 2165 2164 1489 
4 2138 2137 1513 2548 
4 2136 2137 2547 1512 
4 2571 1488 2164 2163 
4 2145 2556 1521 2146 
4 2173 2580 1497 2172 
4 2136 2546 2135 1511 
4 2162 1487 2570 2163 
4 1484 2160 2567 2159 
4 2132 2133 2543 1508 
4 2545 2135 1510 2134 
4 2162 1486 2161 2569 
4 2133 2544 1509 2134 
4 2160 2161 1485 2568 
4 2371 2372 1783 1543 
4 1567 1803 2345 2346 
4 1802 2345 2344 1566 
4 2370 1542 2371 1782 
4 2369 1541 2370 1781 
4 2343 1565 1801 2344 
4 1800 2342 1564 2343 
4 2369 1540 1780 2368 
4 2014 2295 2262 1331 
4 2297 2263 1332 2016 
4 1539 2367 1779 2368 
4 2342 1799 1563 2341 
4 1534 1533 2362 1821 
4 1822 2336 1558 1557 
4 2312 1306 2614 1063 
4 1061 1304 2615 2313 
4 2062 2124 1412 2334 
4 2360 1411 2063 2151 
4 2043 975 1899 979 
4 2041 981 1897 977 
4 974 2042 1898 978 
4 980 2040 1896 976 
4 1981 1865 1073 1873 
4 1860 1392 2222 2208 
4 2210 2224 1862 1391 
4 1643 1151 1205 2071 
4 1206 2070 1152 1644 
4 2234 1714 1320 1316 
4 2235 1315 1319 1713 
4 1137 1529 1938 1707 
4 1138 1708 1906 1530 
4 1562 1798 2340 2341 
4 1778 2366 2367 1538 
4 1826 935 2306 2589 
4 2588 1826 935 2306 
4 1672 2388 1412 2334 
4 120 2252 1651 2647 
4 1653 137 2665 2254 
4 1758 1372 2265 1999 
4 1756 2267 1370 2001 
4 1392 1301 2222 2208 
4 2210 2224 1391 1299 
4 2451 1586 2188 2240 
4 1584 2450 2186 2238 
4 1301 1131 1375 2290 
4 2292 1299 1129 1373 
4 1826 1726 935 1367 
4 935 1826 1367 1725 
4 940 2276 1856 1695 
4 1693 1858 938 2278 
4 1998 1757 1371 2264 
4 1369 2266 1755 2000 
4 2389 1275 1753 2515 
4 2388 2514 1754 1276 
4 2618 2046 1125 2266 
4 2265 1128 2045 2617 
4 1126 2047 2619 2267 
4 2017 1079 1654 2240 
4 2560 2152 1591 1209 
4 2015 1652 1077 2238 
4 2535 1046 1017 1589 
4 2534 1590 1045 1047 
4 1072 2302 1750 1387 
4 1749 1070 1385 2304 
4 2048 1856 2528 1131 
4 1858 2050 2530 1129 
4 1404 1825 1720 1854 
4 1404 1719 1825 1854 
4 2223 1394 1861 2209 
4 2225 2211 1863 1393 
4 1985 1330 1260 1666 
4 1328 1987 1258 1664 
4 1759 1328 1049 2245 
4 1051 2243 1330 1760 
4 2533 2185 1282 1661 
4 2184 2532 1284 1662 
4 1787 2376 1547 2375 
4 1571 2349 2350 1807 
4 1986 2220 1663 1074 
4 1984 1075 1665 2218 
4 2293 1374 1130 1300 
4 1302 1376 1132 2291 
4 1681 2275 1975 2297 
4 1678 1474 2626 1154 
4 1931 1524 2559 2328 
4 1500 2583 2329 1963 
4 1973 2273 1679 2295 
4 2605 1986 1060 1074 
4 1984 1062 1075 2604 
4 1664 1386 1049 1997 
4 1051 1995 1388 1666 
4 1155 2073 1423 1421 
4 2072 1424 1422 1156 
4 1747 2313 2123 1409 
4 2122 2312 1748 1410 
4 2252 1347 1651 2014 
4 1349 1653 2016 2254 
4 2217 1304 1668 1526 
4 1528 1306 1670 2215 
4 2017 2255 1654 1350 
4 2015 1652 2253 1348 
4 1394 2223 1302 2209 
4 2211 2225 1300 1393 
4 1888 972 964 1110 
4 970 1890 962 1109 
4 965 1889 1112 973 
4 1891 971 963 1111 
4 2610 1100 2258 1359 
4 2256 1361 1102 2608 
4 2165 2164 1489 1220 
4 2137 1244 2138 1513 
4 1572 1808 2350 2351 
4 1788 2376 2377 1548 
4 1970 2210 946 1866 
4 2208 1968 948 1864 
4 1667 2216 2456 1525 
4 1527 2454 1669 2214 
4 2236 2590 1322 1728 
4 2591 1727 2237 1321 
4 1809 2352 2351 1573 
4 1549 2378 2377 1789 
4 1797 164 83 1796 
4 36 211 1777 1776 
4 1550 2378 1790 2379 
4 1574 2352 2353 1810 
4 1267 2613 2201 2197 
4 2196 2200 1268 2612 
4 2174 2582 1499 1498 
4 2558 2147 1523 1522 
4 2380 1791 2379 1551 
4 2353 1575 1811 2354 
4 2373 2372 1544 1784 
4 1568 1804 2346 2347 
4 267 1380 142 2283 
4 1379 2282 261 136 
4 2280 1377 246 119 
4 1378 252 125 2281 
4 1142 2058 2386 1136 
4 2059 2387 1134 1141 
4 1384 1318 2300 1716 
4 1317 2301 1715 1383 
4 2607 1327 2054 1986 
4 1329 1984 2606 2052 
4 219 220 44 1785 
4 172 1805 92 173 
4 2374 2373 1545 1785 
4 1569 1805 2347 2348 
4 1812 2354 1576 2355 
4 1792 2380 2381 1552 
4 2280 2002 2246 1096 
4 1097 2247 2281 2003 
4 1099 2249 2005 2283 
4 2248 2282 1098 2004 
4 1328 1987 1664 2245 
4 1985 2243 1330 1666 
4 1371 2264 70 1127 
4 1369 1125 23 2266 
4 1126 63 2267 1370 
4 1372 1128 110 2265 
4 1131 1856 1375 2290 
4 1858 2292 1129 1373 
4 2065 1745 1261 2521 
4 1746 2520 2064 1262 
4 1478 2154 1479 2562 
4 2538 1503 1502 2127 
4 1079 2017 1654 1274 
4 1653 1273 2016 1078 
4 1271 1076 1651 2014 
4 1652 2015 1077 1272 
4 1481 1480 2156 2564 
4 1505 2540 2129 1504 
4 2179 2019 2303 1388 
4 2305 1386 2021 2181 
4 1503 2538 2128 2127 
4 2154 2155 1479 2562 
4 1256 2359 1420 1532 
4 1531 2385 1419 1232 
4 961 1724 1338 1877 
4 1336 1879 1722 959 
4 1876 1337 960 1723 
4 958 1721 1335 1878 
4 1017 2387 1966 2327 
4 1045 2386 2326 1934 
4 1777 2366 1537 2365 
4 1797 2340 2339 1561 
4 1712 2612 1736 1389 
4 2613 1735 1389 1711 
4 1505 2541 1506 2130 
4 1481 2157 1482 2565 
4 1305 2314 1762 1297 
4 1761 1303 1295 2315 
4 1337 1872 1313 1723 
4 1335 1721 1311 1874 
4 1314 1724 1873 1338 
4 1336 1875 1312 1722 
4 1505 2129 2130 1236 
4 1212 2157 1481 2156 
4 2557 1521 2146 1522 
4 2173 2581 1498 1497 
4 2566 1483 2158 1482 
4 2542 2131 1507 1506 
4 2227 1699 1725 1315 
4 1726 1316 1700 2226 
4 2543 2132 1508 1507 
4 1483 1484 2567 2159 
4 1508 2133 2544 1509 
4 1484 2160 1485 2568 
4 1509 2545 1510 2134 
4 2161 1486 1485 2569 
4 2135 2546 1510 1511 
4 2162 1487 1486 2570 
4 2136 2547 1511 1512 
4 2571 1487 1488 2163 
4 2580 1496 1497 2172 
4 2145 2556 1520 1521 
4 1488 2572 2164 1489 
4 2137 1513 2548 1512 
4 1513 2138 2549 1514 
4 2573 1490 2165 1489 
4 1490 2166 1491 2574 
4 2550 1515 1514 2139 
4 1491 2167 1492 2575 
4 2551 1516 1515 2140 
4 1492 2168 1493 2576 
4 2552 1517 1516 2141 
4 2169 1494 1493 2577 
4 1517 2553 1518 2142 
4 1518 2143 2554 1519 
4 2578 1495 2170 1494 
4 1519 2555 1520 2144 
4 2579 1496 2171 1495 
4 1705 2599 2054 1936 
4 1904 2052 1706 2598 
4 1859 2531 1694 2271 
4 1696 2269 2529 1857 
4 1233 1148 2125 2126 
4 2153 2152 1209 1147 
4 2528 1131 1287 2202 
4 2530 2204 1285 1129 
4 1872 1876 1337 2230 
4 1335 2232 1878 1874 
4 1873 1338 1877 2231 
4 1875 1879 1336 2233 
4 2158 1213 2157 1482 
4 2131 1506 2130 1237 
4 1483 2159 2158 1214 
4 1238 2132 2131 1507 
4 1484 2160 2159 1215 
4 2132 2133 1508 1239 
4 2133 1509 1240 2134 
4 2161 1216 2160 1485 
4 1486 2162 2161 1217 
4 2135 1241 1510 2134 
4 1242 2136 2135 1511 
4 1487 2162 1218 2163 
4 1488 2164 2163 1219 
4 1243 2137 2136 1512 
4 2583 1500 2175 1499 
4 2148 1523 1524 2559 
4 1806 2348 1570 2349 
4 2374 2375 1786 1546 
4 1100 1104 2258 1359 
4 2256 1361 1106 1102 
4 968 1884 972 964 
4 970 962 1886 966 
4 971 967 1887 963 
4 965 973 969 1885 
4 2241 1733 138 1325 
4 121 2239 1323 1731 
4 1416 1730 2250 988 
4 986 2251 1415 1729 
4 1787 2376 1548 1547 
4 1572 1571 2350 1807 
4 1747 1304 2313 1296 
4 1298 1306 2312 1748 
4 939 2279 1694 1344 
4 1696 941 1346 2277 
4 2649 1733 138 263 
4 248 121 2628 1731 
4 1813 2355 1577 2356 
4 2381 1793 1553 2382 
4 1858 2050 1129 2292 
4 2048 1856 1131 2290 
4 1889 965 1112 2031 
4 2030 1891 963 1111 
4 1890 2028 962 1109 
4 964 1888 1110 2029 
4 2187 2450 1293 1583 
4 1585 1294 2189 2451 
4 2184 2520 1660 2064 
4 2185 2065 1659 2521 
4 1864 1301 948 2208 
4 2210 1866 1299 946 
4 986 2251 1363 1415 
4 1365 1416 2250 988 
4 1652 2015 2253 2238 
4 2255 2017 1654 2240 
4 1140 1674 1718 2182 
4 1717 2183 1673 1139 
4 1305 2314 1527 2214 
4 1303 2216 1525 2315 
4 1263 2187 1293 1583 
4 1294 1585 2189 1265 
4 2255 141 1654 1350 
4 2253 1652 124 1348 
4 1653 1349 137 2254 
4 1347 120 2252 1651 
4 1148 2124 2125 2334 
4 2360 2151 2152 1147 
4 1334 2017 1079 1274 
4 1273 1332 2016 1078 
4 1271 1076 2014 1331 
4 2015 1333 1077 1272 
4 1572 1808 2351 1573 
4 1549 1788 2377 1548 
4 2626 2118 1154 1146 
4 2627 2119 1145 1153 
4 2352 1809 1574 1573 
4 1550 2378 1549 1789 
4 1790 1550 2379 1551 
4 1575 1574 2353 1810 
4 236 2259 2611 1738 
4 1575 1811 2354 1576 
4 2380 1552 1791 1551 
4 1865 949 1302 2209 
4 1867 947 2211 1300 
4 1280 1720 2394 1472 
4 1279 1719 1471 2395 
4 1889 1112 1893 2031 
4 1895 1891 2030 1111 
4 1890 2028 1109 1894 
4 1888 1892 1110 2029 
4 2155 2563 1480 1479 
4 1503 2539 1504 2128 
4 1981 1758 1087 1073 
4 1071 1756 1085 1983 
4 1994 1665 1050 1387 
4 1385 1048 1996 1663 
4 1755 1070 1084 1982 
4 1980 1072 1086 1757 
4 1933 1474 2524 2626 
4 2627 1473 2525 1965 
4 941 1696 1857 2277 
4 2279 1859 939 1694 
4 2381 1792 1552 1553 
4 1576 1812 2355 1577 
4 1643 2467 2465 1421 
4 1422 2464 1644 2466 
4 2269 1288 2529 2203 
4 2531 1286 2271 2205 
4 2375 1547 1786 1546 
4 1570 1806 2349 1571 
4 1378 1097 2247 2281 
4 2280 2246 1377 1096 
4 2249 1099 1380 2283 
4 2248 2282 1379 1098 
4 1647 1201 2067 1649 
4 1202 2066 1650 1648 
4 2387 2059 2123 1141 
4 2058 1142 2386 2122 
4 208 34 33 1775 
4 80 1795 81 161 
4 1578 1813 1577 2356 
4 1793 1554 1553 2382 
4 1376 1857 1132 2291 
4 2293 1374 1859 1130 
4 2025 1069 1099 1398 
4 1397 2024 1068 1098 
4 2631 1732 123 250 
4 1734 2650 140 265 
4 2392 1018 2400 2068 
4 2023 1097 1067 1396 
4 1066 1395 1096 2022 
4 1593 2333 2517 1409 
4 1594 2332 1410 2516 
4 1298 2620 1692 2516 
4 1691 2621 1296 2517 
4 2251 2599 2323 1415 
4 2322 1416 2598 2250 
4 66 983 1899 241 
4 985 113 1897 194 
4 148 984 67 1896 
4 195 1898 20 982 
4 2520 1660 2064 1262 
4 1659 2065 1261 2521 
4 2067 1647 1649 2463 
4 2066 2462 1650 1648 
4 2616 1743 968 2044 
4 242 1894 1898 982 
4 983 257 1895 1899 
4 1893 271 985 1897 
4 984 1892 1896 256 
4 1726 2234 1320 1316 
4 1725 2235 1315 1319 
4 1018 1588 2400 2068 
4 1726 2234 1316 2226 
4 2235 2227 1725 1315 
4 217 43 1783 218 
4 89 171 170 1803 
4 88 170 169 1802 
4 217 1782 41 216 
4 215 40 1781 216 
4 87 169 168 1801 
4 1202 1418 2120 2460 
4 2121 1417 1201 2461 
4 167 1800 87 168 
4 214 40 1780 215 
4 2614 2219 1985 1260 
4 1258 1987 2615 2221 
4 167 166 86 1799 
4 213 39 1779 214 
4 84 166 165 1798 
4 212 38 1778 213 
4 2330 1730 1905 2250 
4 1937 2251 1729 2331 
4 2054 2605 1986 1060 
4 1984 1062 2604 2052 
4 1751 1049 1997 2245 
4 1051 1995 2243 1752 
4 2190 2234 1714 1320 
4 2191 2235 1319 1713 
4 1044 1476 1932 1047 
4 1046 1964 1016 1475 
4 36 211 1776 35 
4 163 83 1796 82 
4 1332 2263 1273 2016 
4 1334 2261 2017 1274 
4 2260 1333 2015 1272 
4 1271 2014 2262 1331 
4 2048 1392 1860 2208 
4 1862 2210 1391 2050 
4 1422 2070 1156 1206 
4 1155 1205 2071 1421 
4 2534 1933 1045 2326 
4 1017 2535 2327 1965 
4 2357 1578 1814 1579 
4 1555 2383 1554 1794 
4 2317 2061 2063 1675 
4 1676 2060 2062 2316 
4 2529 1288 1132 2203 
4 2531 1130 1286 2205 
4 1889 2041 1893 977 
4 2043 1895 975 1891 
4 1888 1892 2040 976 
4 1890 1894 974 2042 
4 1690 1390 2307 2592 
4 2593 1689 1390 2307 
4 1884 1888 972 964 
4 1890 970 962 1886 
4 971 1887 1891 963 
4 965 1889 973 1885 
4 1585 2241 2189 1325 
4 2239 2187 1323 1583 
4 1590 2534 1045 2326 
4 2535 1017 2327 1589 
4 1533 2361 2362 1821 
4 2335 2336 1822 1557 
4 2360 1411 2389 2063 
4 2388 2062 1412 2334 
4 2121 2119 1417 2461 
4 1418 2118 2120 2460 
4 2402 2626 2118 1154 
4 2119 2627 2403 1153 
4 2612 1712 2026 1389 
4 2026 2613 1389 1711 
4 36 211 212 1777 
4 83 165 164 1797 
4 2217 2457 1668 2221 
4 1670 2219 2455 2215 
4 2013 1101 1756 1370 
4 1093 2457 2259 2181 
4 2455 2257 2179 1095 
4 1401 1469 1966 1703 
4 1402 1704 1934 1470 
4 2593 2193 2199 1269 
4 1270 2592 2192 2198 
4 1589 1149 2177 1203 
4 1204 2150 1590 1150 
4 990 2393 1937 1729 
4 1730 1018 2392 1905 
4 2304 1385 1996 2180 
4 2178 1994 2302 1387 
4 208 34 1775 209 
4 1795 162 81 161 
4 2008 2287 1091 2192 
4 2193 1090 2009 2289 
4 1469 1967 1401 1966 
4 1934 1402 1470 1935 
4 1052 1973 1679 1331 
4 1680 1053 1333 1972 
4 1054 1681 1975 1332 
4 1974 1334 1682 1055 
4 2313 1747 1296 1409 
4 2312 1298 1748 1410 
4 2464 2324 2070 1644 
4 2325 1643 2465 2071 
4 90 172 171 1804 
4 218 44 1784 219 
4 1766 1420 1594 2332 
4 2333 1593 1765 1419 
4 1663 2220 1257 1074 
4 1075 1259 1665 2218 
4 2276 940 1345 1695 
4 1343 1693 938 2278 
4 1342 268 2249 1380 
4 2248 1379 260 1341 
4 1545 2373 1544 1784 
4 1804 1568 1569 2347 
4 1139 2057 986 1937 
4 1905 988 1140 2056 
4 1816 1580 2358 1579 
4 1556 1555 1815 2384 
4 2239 2450 2187 1583 
4 2241 1585 2189 2451 
4 1256 1580 1255 2149 
4 1232 2176 1231 1556 
4 937 1690 2307 2590 
4 1689 937 2307 2591 
4 1305 2314 1297 1527 
4 1303 1525 1295 2315 
4 1554 2383 2382 1794 
4 1578 2357 1814 2356 
4 2235 2299 1315 1713 
4 2234 2298 1714 1316 
4 1083 1069 1993 1869 
4 1082 1068 1871 1992 
4 1870 1990 1066 1080 
4 1081 1067 1868 1991 
4 2268 1345 1287 1695 
4 2270 1693 1285 1343 
4 2533 1090 2193 2289 
4 2287 2532 1091 2192 
4 1272 2015 2003 1348 
4 1349 1273 2004 2016 
4 1274 2017 1350 2005 
4 2002 1271 1347 2014 
4 1719 1763 1471 2399 
4 1720 1764 2398 1472 
4 2063 1411 1675 1143 
4 1144 1676 2062 1412 
4 1334 1974 1682 2296 
4 1346 1366 1901 2277 
4 1903 2279 1364 1344 
4 1333 1680 1972 2294 
4 2179 1107 1388 1095 
4 1093 1105 1386 2181 
4 1368 937 1855 1728 
4 1368 937 1727 1855 
4 1097 1272 2003 1348 
4 1099 1274 1350 2005 
4 1098 1349 1273 2004 
4 1271 2002 1347 1096 
4 123 1732 1324 2238 
4 1734 140 1326 2240 
4 1872 1337 1313 2230 
4 2232 1335 1311 1874 
4 1875 1336 1312 2233 
4 1873 1314 1338 2231 
4 1060 2605 1074 1303 
4 1062 1305 1075 2604 
4 1733 2241 138 263 
4 248 2239 121 1731 
4 2457 1093 2259 1360 
4 2455 1362 2257 1095 
4 2017 2296 1079 2188 
4 2294 2015 1077 2186 
4 1795 1559 1560 2338 
4 1536 1775 2364 1535 
4 1369 1741 1125 2266 
4 1371 1743 2264 1127 
4 1372 1128 2265 1744 
4 1742 1126 2267 1370 
4 1397 2024 1978 1871 
4 2025 1869 1398 1979 
4 1870 1976 1395 2022 
4 2023 1977 1396 1868 
4 958 2618 1886 966 
4 2616 1884 968 960 
4 961 969 2617 1885 
4 1887 967 2619 959 
4 1685 2055 2519 1134 
4 2053 1136 1686 2518 
4 1385 1749 2304 1996 
4 2302 1994 1750 1387 
4 1135 2194 1762 1062 
4 1060 1761 1133 2195 
4 1895 2043 975 1899 
4 1893 2041 1897 977 
4 1894 974 2042 1898 
4 2040 1892 1896 976 
4 1674 2318 1278 1414 
4 1277 1413 2319 1673 
4 1776 1536 2364 2365 
4 2339 1796 1560 2338 
4 1056 2310 1862 1391 
4 1057 1392 1860 2308 
4 2257 1362 1740 1103 
4 2259 1360 1101 1738 
4 1863 1058 1393 2311 
4 1394 1059 1861 2309 
4 1861 1394 2049 2209 
4 2211 2051 1863 1393 
4 1756 1085 1983 2001 
4 1758 1999 1981 1087 
4 2058 1136 2053 2518 
4 2519 2055 2059 1134 
4 2257 1362 1103 1107 
4 1360 2259 1101 1105 
4 2634 242 114 982 
4 271 147 2654 985 
4 130 984 256 2633 
4 257 983 2655 131 
4 2587 2560 2152 1591 
4 1592 2125 2586 2536 
4 1084 1755 1982 2000 
4 1998 1980 1086 1757 
4 1318 2236 1322 1728 
4 1727 1317 2237 1321 
4 1730 1018 1905 1140 
4 1139 990 1937 1729 
4 1283 2196 1268 1712 
4 1711 1267 1281 2197 
4 2324 1152 1414 2182 
4 1413 2325 2183 1151 
4 2124 1144 2396 2062 
4 2151 2063 2397 1143 
4 2601 2284 2227 1699 
4 2600 1700 2226 2284 
4 979 1122 65 240 
4 112 981 193 1124 
4 1316 1700 2226 1352 
4 2227 1351 1699 1315 
4 2185 1282 1661 1659 
4 2184 1284 1660 1662 
4 1478 2153 2561 1209 
4 2537 1233 2126 1502 
4 2234 1726 1320 2588 
4 2235 1725 2589 1319 
4 2256 1361 1094 1106 
4 1104 1092 2258 1359 
4 2229 2285 2603 1701 
4 2228 2602 2285 1702 
4 1386 1105 2305 2021 
4 2303 2019 1107 1388 
4 1385 2304 2020 2180 
4 2018 2178 2302 1387 
4 2323 1817 1289 2607 
4 2606 1818 1291 2322 
4 2605 2220 1986 1074 
4 1075 1984 2604 2218 
4 2193 2533 2199 1269 
4 2532 1270 2192 2198 
4 2251 2323 1363 1415 
4 1416 2322 1365 2250 
4 2324 2068 1152 2182 
4 2325 2183 1151 2069 
4 2025 2249 1099 1310 
4 2024 2248 1309 1098 
4 1097 2023 1308 2247 
4 2246 1307 1096 2022 
4 1353 2229 1701 1317 
4 1318 2228 1702 1354 
4 1888 976 972 1110 
4 970 1890 1109 974 
4 975 971 1891 1111 
4 1112 1889 977 973 
4 2065 1261 2627 1145 
4 1262 2064 2626 1146 
4 2237 1317 2301 1715 
4 1318 2300 1716 2236 
4 2391 1279 1767 2395 
4 2390 1768 1280 2394 
4 1766 2359 1420 2332 
4 2333 1765 2385 1419 
4 1964 1046 2535 1475 
4 1932 1476 2534 1047 
4 1068 2024 1871 1992 
4 1069 2025 1993 1869 
4 1067 2023 1868 1991 
4 1990 1870 1066 2022 
4 2199 1697 1269 1282 
4 1270 1284 1698 2198 
4 2267 2013 1756 1370 
4 1089 2190 2286 2006 
4 2191 2007 1088 2288 
4 189 2257 1740 2609 
4 1545 2374 1785 1546 
4 1569 1805 2348 1570 
4 1131 2528 1287 1695 
4 1693 2530 1285 1129 
4 2019 2179 1107 1388 
4 1386 1105 2021 2181 
4 2592 1270 1698 2198 
4 1697 2593 2199 1269 
4 2070 2324 1152 1644 
4 1643 2325 1151 2071 
4 2459 1827 1687 2595 
4 2458 2594 1688 1827 
4 260 2248 1341 2624 
4 1342 268 2625 2249 
4 2622 245 2246 1339 
4 1340 2623 253 2247 
4 1138 1144 2396 1708 
4 1137 1707 2397 1143 
4 1865 949 1314 1302 
4 1312 947 1867 1300 
4 991 1939 1529 1938 
4 1019 1906 1530 1907 
4 1104 1385 2304 2020 
4 2018 2302 1106 1387 
4 2391 1697 2199 1282 
4 1698 1284 2390 2198 
4 1093 2259 1105 2181 
4 2179 2257 1107 1095 
4 2626 2064 2118 1146 
4 2119 2065 2627 1145 
4 1424 2072 1158 1156 
4 1157 1155 2073 1423 
4 211 210 1776 35 
4 163 83 164 1796 
4 1301 1864 948 1313 
4 1299 1866 1311 946 
4 1858 2244 938 2278 
4 2276 940 1856 2242 
4 2196 1268 1712 2612 
4 1711 2613 1267 2197 
4 1283 1674 2318 1278 
4 2319 1277 1673 1281 
4 2459 1277 1413 2319 
4 2318 1278 1414 2458 
4 2337 1559 1795 2338 
4 1775 2363 2364 1535 
4 1058 1863 951 1871 
4 1869 953 1059 1861 
4 952 1057 1860 1868 
4 1870 1056 1862 950 
4 1732 123 250 2238 
4 140 1734 265 2240 
4 1287 1131 1356 2202 
4 2204 1355 1285 1129 
4 2050 2292 1299 1129 
4 1131 1301 2048 2290 
4 1130 1286 2205 1357 
4 1132 1288 1358 2203 
4 1816 2357 1814 1579 
4 1555 2383 1794 1815 
4 1257 1092 1667 2456 
4 2454 1669 1259 1094 
4 2024 1068 1309 1992 
4 2025 1069 1993 1310 
4 2023 1067 1308 1991 
4 1990 1066 1307 2022 
4 1707 2587 2397 1143 
4 1144 2396 1708 2586 
4 2216 2220 1257 2456 
4 2214 2454 1259 2218 
4 2310 1056 942 1391 
4 1392 1057 944 2308 
4 1058 943 1393 2311 
4 1394 945 1059 2309 
4 137 262 2665 2254 
4 2252 120 247 2647 
4 1015 1016 1641 2453 
4 1044 1043 1642 2452 
4 2118 1418 2120 1154 
4 2119 1153 2121 1417 
4 1719 1471 2395 2399 
4 2394 1720 2398 1472 
4 1528 1298 1306 2620 
4 1304 1526 2621 1296 
4 266 2255 141 2667 
4 2644 251 2253 124 
4 1327 1986 1663 1074 
4 1329 1984 1075 1665 
4 1408 1398 1979 1274 
4 1397 1407 1978 1273 
4 968 1743 1127 2044 
4 1406 1977 1396 1272 
4 1271 1405 1976 1395 
4 1975 1681 2297 1332 
4 1679 1973 2295 1331 
4 1046 2535 1017 1965 
4 1933 2534 1045 1047 
4 2231 1869 2223 953 
4 951 2225 2233 1871 
4 952 2222 2230 1868 
4 2232 1870 2224 950 
4 2257 1362 1107 1095 
4 1093 2259 1360 1105 
4 2009 1090 1715 1383 
4 1384 1716 2008 1091 
4 2531 1130 1694 1286 
4 1288 1696 2529 1132 
4 1884 2616 968 2044 
4 1886 2618 2046 966 
4 969 2045 2617 1885 
4 967 2047 1887 2619 
4 2244 938 2278 1817 
4 2276 1818 940 2242 
4 978 196 21 1121 
4 2180 1104 1092 2258 
4 2256 1094 2178 1106 
4 2269 1696 1288 1346 
4 1344 1694 1286 2271 
4 973 969 2037 1120 
4 971 967 1118 2039 
4 2038 970 966 1117 
4 968 2036 1119 972 
4 144 269 1772 2625 
4 1771 259 134 2624 
4 2622 117 1769 244 
4 1770 254 127 2623 
4 2048 1301 1392 2208 
4 2210 1391 2050 1299 
4 1350 1099 2005 2283 
4 1347 2002 2280 1096 
4 2223 1394 953 1861 
4 2225 1863 951 1393 
4 1392 952 1860 2222 
4 1862 2224 950 1391 
4 1318 2228 2300 2236 
4 1317 2229 2237 2301 
4 1094 2178 1106 1387 
4 1104 1385 2180 1092 
4 1061 1747 1304 2313 
4 1306 2312 1748 1063 
4 2622 245 1339 117 
4 127 1340 2623 253 
4 134 260 1341 2624 
4 144 1342 268 2625 
4 2585 1295 2315 2515 
4 2314 2514 1297 2584 
4 68 1123 149 980 
4 2204 2530 2050 1129 
4 1131 2528 2048 2202 
4 1536 1776 1537 2365 
4 1561 2339 1796 1560 
4 2190 2234 1320 2588 
4 2235 2589 2191 1319 
4 2459 1277 1687 1413 
4 1278 1414 2458 1688 
4 2051 2293 1130 1300 
4 2049 1302 1132 2291 
4 1306 1528 2620 2215 
4 2217 1304 1526 2621 
4 269 145 144 1772 
4 259 133 1771 134 
4 254 128 1770 127 
4 117 1769 244 116 
4 1103 1758 2011 1107 
4 1101 2013 1756 1105 
4 2225 1336 951 2233 
4 1338 2231 2223 953 
4 2224 2232 950 1335 
4 1337 952 2222 2230 
4 1149 1419 2177 1203 
4 2150 1204 1420 1150 
4 2287 2532 1662 1091 
4 1090 2533 1661 2289 
4 2012 1100 1755 1104 
4 1106 1757 2010 1102 
4 1716 1318 2236 1322 
4 1317 2237 1321 1715 
4 2372 1783 1543 1544 
4 1568 1803 1567 2346 
4 1542 2371 1782 1543 
4 1567 2345 1802 1566 
4 1565 1801 2344 1566 
4 1541 1542 2370 1781 
4 1800 1564 1565 2343 
4 1541 2369 1540 1780 
4 1754 2514 1297 1276 
4 1275 1295 1753 2515 
4 1564 2342 1799 1563 
4 1540 1539 1779 2368 
4 2305 1386 2181 1997 
4 1995 2179 2303 1388 
4 2600 1988 1064 2284 
4 1988 2601 1064 2284 
4 2603 2285 1989 1065 
4 2285 2602 1989 1065 
4 1817 1289 2607 1327 
4 1329 2606 1818 1291 
4 971 2043 975 1891 
4 1889 2041 977 973 
4 2040 1888 976 972 
4 970 1890 974 2042 
4 1555 2383 1815 2384 
4 2357 1816 2358 1579 
4 1760 1330 1292 2206 
4 1290 1328 1759 2207 
4 1778 2367 1539 1538 
4 1798 1562 1563 2341 
4 1888 1892 976 1110 
4 1109 1890 1894 974 
4 1895 975 1891 1111 
4 1112 1889 1893 977 
4 2599 2323 1289 2607 
4 1291 2606 2322 2598 
4 2007 1713 1088 1381 
4 1382 1089 2006 1714 
4 2257 2019 2179 1107 
4 1105 2259 2021 2181 
4 2210 1866 2224 1311 
4 1313 1864 2222 2208 
4 1277 2459 2595 2319 
4 1278 2318 2594 2458 
4 1643 1819 2467 1421 
4 1422 1644 1820 2466 
4 1334 2261 1974 2296 
4 1391 2050 1299 1129 
4 1301 1131 2048 1392 
4 2260 1333 1972 2294 
4 1964 2535 2329 1475 
4 1932 1476 2328 2534 
4 2013 1756 1105 2021 
4 2011 1758 2019 1107 
4 1375 1856 1968 2290 
4 1970 2292 1858 1373 
4 1328 1987 2245 2207 
4 2243 1985 1330 2206 
4 1755 2012 1104 2020 
4 2018 1106 1757 2010 
4 1424 1422 1820 2466 
4 2467 1819 1423 1421 
4 1819 1643 2467 2465 
4 1644 2464 1820 2466 
4 2225 1312 1867 2211 
4 1865 1314 2223 2209 
4 2234 2298 1316 2226 
4 2235 2299 2227 1315 
4 2033 1770 1340 2623 
4 2032 2622 1339 1769 
4 1772 1342 2625 2035 
4 2034 1771 1341 2624 
4 1759 1328 2245 2207 
4 2243 1330 1760 2206 
4 1301 1864 1313 2208 
4 1866 2210 1299 1311 
4 2051 2211 1300 1393 
4 2049 1394 1302 2209 
4 2178 2018 1106 1387 
4 1104 1385 2020 2180 
4 1797 1562 2340 1561 
4 2366 1538 1777 1537 
4 1592 1144 1708 2586 
4 2587 1707 1591 1143 
4 2256 2178 2018 1106 
4 2020 1104 2180 2258 
4 1314 1865 1302 2209 
4 1312 1867 2211 1300 
4 2292 2210 2050 1299 
4 2048 1301 2208 2290 
4 1277 2459 1687 2595 
4 2594 1278 2458 1688 
4 2270 1693 2530 1285 
4 2528 2268 1287 1695 
4 2036 1884 1888 972 
4 1890 970 1886 2038 
4 2039 971 1887 1891 
4 973 1889 2037 1885 
4 1313 1337 2222 2230 
4 2224 2232 1335 1311 
4 1336 2225 1312 2233 
4 1314 1338 2231 2223 
4 1376 949 1969 2291 
4 1374 947 2293 1971 
4 1101 2013 1105 2021 
4 1103 2011 2019 1107 
4 2038 1886 2046 966 
4 1884 968 2036 2044 
4 967 2047 2039 1887 
4 969 2037 2045 1885 
4 1130 2051 1300 1393 
4 1394 2049 1302 1132 
4 1305 2314 2214 2604 
4 2605 2216 1303 2315 
4 2012 1100 1104 2020 
4 2018 1106 2010 1102 
4 1301 1313 2222 2208 
4 2210 2224 1299 1311 
4 2042 196 978 1121 
4 2359 1766 1420 1532 
4 1765 1531 2385 1419 
4 1201 1647 2067 2461 
4 1202 2066 1648 2460 
4 970 1886 2038 966 
4 968 1884 2036 972 
4 971 967 2039 1887 
4 969 973 2037 1885 
4 2051 1130 2531 2205 
4 2049 2529 1132 2203 
4 1718 1674 1414 2182 
4 2183 1413 1717 1673 
4 2225 1312 2211 1300 
4 2223 1314 1302 2209 
4 981 2041 193 1124 
4 979 2043 1122 240 
4 1123 149 980 2040 
4 1152 2324 1646 1644 
4 1645 1643 2325 1151 
4 1152 2324 1414 1646 
4 1645 2325 1413 1151 
4 1418 1764 2398 2460 
4 1763 1417 2399 2461 
4 1256 1204 2150 2149 
4 2177 2176 1203 1232 
4 1878 958 2618 1886 
4 1884 2616 1876 960 
4 1877 961 2617 1885 
4 1879 1887 2619 959 
4 2321 1290 2519 1469 
4 1292 2518 1470 2320 
4 1933 1932 2534 1047 
4 1046 1964 2535 1965 
4 948 1375 1968 2290 
4 1970 2292 1373 946 
4 2070 2324 2068 1152 
4 1151 2325 2069 2071 
4 1525 2216 2585 2315 
4 1527 2314 2584 2214 
4 2067 1647 2463 2461 
4 2066 2462 1648 2460 
4 1704 1045 1402 1934 
4 1017 1401 1966 1703 
4 2293 2051 2211 1300 
4 1302 2049 2209 2291 
4 2057 1657 1139 986 
4 988 1658 1140 2056 
4 1296 1691 2517 1409 
4 1410 1298 1692 2516 
4 1975 2297 2263 1332 
4 2295 1973 2262 1331 
4 1290 2321 1364 1469 
4 1470 1292 2320 1366 
4 1277 2595 2527 2319 
4 1278 2318 2526 2594 
4 2321 1967 1364 1469 
4 2320 1470 1366 1935 
4 2125 2124 1592 2586 
4 2151 2587 2152 1591 
4 2613 1735 1711 1267 
4 1268 1712 2612 1736 
4 1068 1082 1309 1992 
4 1069 1083 1993 1310 
4 1067 1081 1308 1991 
4 1066 1990 1307 1080 
4 1144 2124 2396 2586 
4 2587 2151 2397 1143 
4 2303 1995 1388 1752 
4 1751 1386 2305 1997 
4 2524 1474 1402 1746 
4 1745 1473 1401 2525 
4 2036 150 2044 1119 
4 197 2038 2046 1117 
4 239 1118 2047 2039 
4 1120 2037 192 2045 
4 1664 1987 1997 2245 
4 1985 1995 2243 1666 
4 1863 1058 951 1393 
4 953 1394 1059 1861 
4 952 1057 1392 1860 
4 1056 1862 950 1391 
4 2593 1689 2307 2591 
4 1690 2307 2590 2592 
4 1049 1664 1997 2245 
4 1995 1051 2243 1666 
4 1069 2025 1099 1310 
4 1068 2024 1309 1098 
4 1097 2023 1067 1308 
4 1307 1066 1096 2022 
4 1378 1097 1308 2247 
4 1377 2246 1307 1096 
4 1099 2249 1380 1310 
4 1309 2248 1379 1098 
4 2293 1374 1971 1859 
4 1857 1376 1969 2291 
4 1411 2063 2151 1143 
4 2124 1144 2062 1412 
4 2259 236 1360 1738 
4 2524 1474 1746 2626 
4 1745 2627 1473 2525 
4 2124 1144 1592 2586 
4 2151 2587 1591 1143 
4 2070 2068 1206 1152 
4 1205 1151 2069 2071 
4 153 72 1361 1739 
4 2066 1202 2120 2460 
4 2121 1201 2067 2461 
4 1339 2622 117 1769 
4 1770 127 1340 2623 
4 1771 134 1341 2624 
4 144 1772 1342 2625 
4 2314 1297 1527 2584 
4 1525 2585 1295 2315 
4 1405 1056 1976 1395 
4 1057 1406 1977 1396 
4 1397 1407 1058 1978 
4 1398 1059 1408 1979 
4 2275 2229 2603 1353 
4 1696 2269 1288 2529 
4 1694 2531 1286 2271 
4 2043 971 2039 1891 
4 1889 2041 973 2037 
4 970 1890 2042 2038 
4 2036 1888 2040 972 
4 150 69 2044 1119 
4 2046 197 1117 22 
4 1118 64 239 2047 
4 111 1120 192 2045 
4 2601 1351 2227 2273 
4 2228 2602 1354 2274 
4 236 61 1360 1738 
4 189 1362 108 1740 
4 2118 1418 1154 1146 
4 2119 1145 1153 1417 
4 1930 1043 1042 1931 
4 1963 1015 1014 1962 
4 2600 2272 2226 1352 
4 1059 945 1408 2309 
4 1407 943 1058 2311 
4 1057 1406 944 2308 
4 2310 1056 1405 942 
4 1660 1768 2064 1262 
4 2065 1767 1659 1261 
4 1362 189 2257 1740 
4 1414 2458 1688 1646 
4 1645 2459 1687 1413 
4 969 2037 1120 2045 
4 1118 967 2047 2039 
4 968 2036 2044 1119 
4 2046 2038 966 1117 
4 2651 983 257 131 
4 147 271 2648 985 
4 242 114 982 2630 
4 130 984 2629 256 
4 1967 2321 2519 1469 
4 2518 1470 2320 1935 
4 25 1737 200 1359 
4 985 113 981 1897 
4 983 66 1899 979 
4 20 1898 978 982 
4 984 980 67 1896 
4 1742 2619 1085 2001 
4 1999 1087 1744 2617 
4 2616 1743 1998 1086 
4 2618 1741 1084 2000 
4 2229 2603 1353 1701 
4 2228 2602 1702 1354 
4 1531 1556 1815 2384 
4 1580 1816 2358 1532 
4 74 155 1527 2584 
4 1351 2601 2227 1699 
4 1700 2600 2226 1352 
4 1586 1734 1326 2240 
4 1732 1584 1324 2238 
4 27 1525 202 2585 
4 1127 968 2044 1119 
4 1125 2046 966 1117 
4 1128 969 1120 2045 
4 1118 967 1126 2047 
4 2065 1767 1261 1145 
4 1768 2064 1262 1146 
4 2459 1645 2325 1413 
4 1414 2324 2458 1646 
4 2066 1202 1650 1200 
4 1201 1199 2067 1649 
4 1773 1425 2469 1423 
4 2468 1424 1426 1774 
4 2249 1342 1380 1310 
4 2248 1309 1379 1341 
4 1378 1308 1340 2247 
4 2246 1339 1377 1307 
4 1898 974 978 982 
4 984 980 1896 976 
4 981 985 1897 977 
4 975 983 1899 979 
4 1863 2225 951 1871 
4 1869 2223 953 1861 
4 2224 1870 1862 950 
4 952 1860 2222 1868 
4 2450 1584 1293 1583 
4 1585 1294 2451 1586 
4 2239 1323 1731 1583 
4 1585 1733 2241 1325 
4 980 148 67 1896 
4 1898 195 20 978 
4 113 981 1897 194 
4 1899 66 241 979 
4 2324 2464 1646 1644 
4 1643 1645 2325 2465 
4 983 1895 975 1899 
4 1894 974 1898 982 
4 985 1893 1897 977 
4 1892 984 1896 976 
4 2663 267 142 2283 
4 2282 261 136 2657 
4 2637 2280 246 119 
4 252 125 2281 2639 
4 1721 1866 1311 1874 
4 1872 1864 1313 1723 
4 1724 1865 1314 1873 
4 1875 1312 1722 1867 
4 2646 2634 1109 1894 
4 2646 1109 2634 115 
4 1109 2634 974 1894 
4 1109 974 2634 115 
4 974 2634 982 1894 
4 974 982 2634 115 
4 2654 2664 1112 146 
4 2654 1112 2664 1893 
4 977 2654 1112 146 
4 977 1112 2654 1893 
4 985 2654 977 146 
4 985 977 2654 1893 
4 2655 2666 1111 1895 
4 2655 1111 2666 132 
4 975 2655 1111 1895 
4 975 1111 2655 132 
4 983 2655 975 1895 
4 983 975 2655 132 
4 2633 2645 1110 1892 
4 2633 1110 2645 129 
4 976 2633 1110 1892 
4 976 1110 2633 129 
4 984 2633 976 1892 
4 984 976 2633 129 
4 1114 2033 254 1770 
4 254 2033 1114 2029 
4 254 2641 1114 1770 
4 1114 2641 254 2029 
4 2643 1113 244 2028 
4 2643 244 1113 1769 
4 2032 244 1113 2028 
4 2032 1113 244 1769 
4 2031 1772 145 2661 
4 145 1772 2031 1116 
4 1771 2030 133 2659 
4 1771 133 2030 1115 
4 2637 247 1347 2636 
4 1347 247 2637 2280 
4 1347 119 2637 2636 
4 2637 119 1347 2280 
4 142 2663 1350 2662 
4 142 1350 2663 2283 
4 266 1350 2663 2662 
4 266 2663 1350 2283 
4 140 1654 2240 2653 
4 140 2240 1654 1326 
4 1652 123 2238 2635 
4 1652 2238 123 1324 
4 1110 1114 2640 128 
4 1110 2640 1114 2029 
4 2641 2640 1114 128 
4 2641 1114 2640 2029 
4 1113 2643 2642 2028 
4 2642 2643 1113 116 
4 2642 1109 1113 2028 
4 1113 1109 2642 116 
4 266 1350 141 2255 
4 141 1350 266 2662 
4 2638 2253 2003 251 
4 2638 2003 2253 1348 
4 2281 2639 2003 251 
4 2639 2638 2003 251 
4 2056 1283 2522 1658 
4 2522 1283 2056 2196 
4 1657 2197 2319 1281 
4 1657 2319 2197 2057 
4 1584 249 2238 1732 
4 2238 249 1584 2450 
4 1586 139 2451 1585 
4 1733 139 2451 264 
4 1733 2451 139 1585 
4 1583 249 2239 2450 
4 1583 2239 249 1731 
4 1555 2384 2175 2383 
4 2175 2384 1555 1556 
4 1579 2358 2148 1580 
4 1579 2148 2358 2357 
4 1663 2180 1257 2220 
4 1663 1257 2180 1385 
4 1387 2218 1994 1665 
4 1387 1994 2218 2178 
4 1323 2014 2187 2239 
4 2187 2014 1323 1076 
4 2035 1310 1083 1342 
4 1083 1310 2035 1993 
4 1992 1341 2248 2034 
4 1992 2248 1341 1309 
4 1991 1340 2247 2033 
4 1991 2247 1340 1308 
4 1307 2032 1080 1990 
4 1307 1080 2032 1339 
4 2043 1118 971 1122 
4 2043 971 1118 2039 
4 1117 2042 970 1121 
4 1117 970 2042 2038 
4 1119 2040 972 2036 
4 1119 972 2040 1123 
4 2041 1120 973 2037 
4 2041 973 1120 1124 
4 2277 1292 941 1366 
4 2279 939 1290 1364 
4 1052 2204 942 1355 
4 1052 942 2204 1973 
4 1053 2202 944 1972 
4 944 2202 1053 1356 
4 2264 71 1102 1371 
4 1102 71 2264 152 
4 2264 2010 1102 152 
4 1357 1975 2301 2205 
4 2301 1975 1357 1054 
4 1055 2203 945 1358 
4 1055 945 2203 1974 
4 2012 2266 1100 199 
4 24 1100 2266 199 
4 24 2266 1100 1369 
4 2011 2265 1103 190 
4 109 1103 2265 190 
4 109 2265 1103 1372 
4 237 1370 63 62 
4 63 1370 237 2267 
4 1620 2078 2076 1162 
4 2076 2078 1620 2407 
4 2079 1597 2077 1161 
4 2077 1597 2079 2430 
4 1729 2331 2393 1937 
4 2393 2331 1729 1399 
4 1730 2330 2392 1400 
4 1730 2392 2330 1905 
4 2347 1568 1244 2346 
4 2347 1244 1568 1569 
4 1544 2373 1220 2372 
4 1544 1220 2373 1545 
4 2114 1638 2112 2425 
4 2112 1638 2114 1198 
4 2115 1615 2113 1197 
4 2115 2113 1615 2448 
4 2216 1074 2220 2605 
4 2220 1074 2216 1257 
4 1259 2604 1305 2214 
4 1305 2604 1259 1075 
4 1621 2080 2078 1164 
4 2078 2080 1621 2408 
4 2081 1598 2079 1163 
4 2079 1598 2081 2431 
4 1347 247 120 2636 
4 120 247 1347 2252 
4 2254 2656 2004 1349 
4 2254 2004 2656 262 
4 2282 2657 2004 262 
4 2004 2657 2656 262 
4 2016 2254 1078 2241 
4 2016 1078 2254 1653 
4 1325 1078 2254 2241 
4 1325 2254 1078 1653 
4 2632 1651 2239 2252 
4 1637 2112 2110 1196 
4 1637 2110 2112 2424 
4 2113 1614 2111 1195 
4 2113 2111 1614 2447 
4 1166 2409 1623 1622 
4 1166 1623 2409 2082 
4 2432 1165 1600 1599 
4 2432 1600 1165 2083 
4 2085 1600 2083 1167 
4 2083 1600 2085 2433 
4 2084 1623 2082 2410 
4 2084 2082 1623 1168 
4 2411 1170 1625 2086 
4 1625 1170 2411 1624 
4 1601 2087 2085 2434 
4 1601 2085 2087 1169 
4 1171 2435 1603 2089 
4 1171 1603 2435 1602 
4 2412 1172 1626 2088 
4 2412 1626 1172 1625 
4 2091 1603 2089 1173 
4 2091 2089 1603 2436 
4 2090 1626 2088 2413 
4 2088 1626 2090 1174 
4 1604 2093 2091 2437 
4 2091 2093 1604 1175 
4 1176 2414 1628 1627 
4 1628 2414 1176 2092 
4 2095 1605 2093 1177 
4 2095 2093 1605 2438 
4 1628 2094 2092 1178 
4 1628 2092 2094 2415 
4 2096 1629 2094 2416 
4 2094 1629 2096 1180 
4 2439 1179 1607 1606 
4 2439 1607 1179 2097 
4 2098 1630 2096 2417 
4 2096 1630 2098 1182 
4 2440 1181 1608 1607 
4 2440 1608 1181 2099 
4 1631 2100 2098 1184 
4 1631 2098 2100 2418 
4 2441 1183 1609 1608 
4 2441 1609 1183 2101 
4 1632 2102 2100 1186 
4 1632 2100 2102 2419 
4 2442 1185 1610 1609 
4 2442 1610 1185 2103 
4 2420 1188 1634 2104 
4 1634 1188 2420 1633 
4 1187 2443 1611 2105 
4 1611 2443 1187 1610 
4 1634 2106 2104 1190 
4 1634 2104 2106 2421 
4 2444 1189 1612 1611 
4 2444 1612 1189 2107 
4 2422 1192 1636 2108 
4 2422 1636 1192 1635 
4 2445 1191 1613 1612 
4 2445 1613 1191 2109 
4 1636 2110 2108 1194 
4 1636 2108 2110 2423 
4 2446 1193 1614 1613 
4 2446 1614 1193 2111 
4 1065 2213 2274 1989 
4 2274 2213 1065 1266 
4 1064 2212 2272 1264 
4 1064 2272 2212 1988 
4 1266 2296 1079 1682 
4 1266 1079 2296 2188 
4 2294 1264 1077 1680 
4 1077 1264 2294 2186 
4 1158 2406 1160 1619 
4 1158 1160 2406 2074 
4 2075 1596 2428 1157 
4 2428 1596 2075 2429 
4 2019 1073 1758 1981 
4 1758 1073 2019 1107 
4 2021 1071 1756 1105 
4 2021 1756 1071 1983 
4 1070 2020 1755 1104 
4 1755 2020 1070 1982 
4 1106 1980 2302 2018 
4 1106 2302 1980 1072 
4 1620 1910 1911 1022 
4 1911 1910 1620 2407 
4 1597 1942 1943 2430 
4 1597 1943 1942 994 
4 2195 1275 2515 1761 
4 2195 2515 1275 2317 
4 2194 1276 2514 2316 
4 2514 1276 2194 1762 
4 2047 63 2267 1126 
4 2267 63 2047 238 
4 110 2045 2265 1128 
4 2265 2045 110 191 
4 23 2046 2266 1125 
4 23 2266 2046 198 
4 1621 1911 1912 1023 
4 1912 1911 1621 2408 
4 1598 1943 1944 2431 
4 1598 1944 1943 995 
4 1991 956 1114 1880 
4 1991 1114 956 1081 
4 1080 1882 2232 1990 
4 1080 2232 1882 954 
4 957 1993 1116 1881 
4 1116 1993 957 1083 
4 955 1992 1115 1082 
4 1115 1992 955 1883 
4 1622 1912 1913 1024 
4 1913 1912 1622 2409 
4 1599 1944 1945 2432 
4 1945 1944 1599 996 
4 1638 1928 1929 1040 
4 1638 1929 1928 2425 
4 1960 1615 1961 1012 
4 1960 1961 1615 2448 
4 1623 1913 1914 1025 
4 1914 1913 1623 2410 
4 1600 1945 1946 2433 
4 1600 1946 1945 997 
4 1624 1914 1915 1026 
4 1624 1915 1914 2411 
4 1601 1946 1947 2434 
4 1601 1947 1946 998 
4 1947 1602 1948 999 
4 1948 1602 1947 2435 
4 1915 1625 1916 2412 
4 1915 1916 1625 1027 
4 1916 1626 1917 2413 
4 1916 1917 1626 1028 
4 1948 1603 1949 1000 
4 1949 1603 1948 2436 
4 1949 1604 1950 1001 
4 1949 1950 1604 2437 
4 1917 1627 1918 2414 
4 1917 1918 1627 1029 
4 1918 1628 1919 2415 
4 1919 1628 1918 1030 
4 1950 1605 1951 1002 
4 1950 1951 1605 2438 
4 1919 1629 1920 2416 
4 1920 1629 1919 1031 
4 1951 1606 1952 1003 
4 1951 1952 1606 2439 
4 1920 1630 1921 2417 
4 1921 1630 1920 1032 
4 1952 1607 1953 1004 
4 1953 1607 1952 2440 
4 1953 1608 1954 1005 
4 1953 1954 1608 2441 
4 1631 1921 1922 1033 
4 1631 1922 1921 2418 
4 1632 1922 1923 1034 
4 1632 1923 1922 2419 
4 1954 1609 1955 1006 
4 1954 1955 1609 2442 
4 1923 1633 1924 2420 
4 1924 1633 1923 1035 
4 1955 1610 1956 1007 
4 1955 1956 1610 2443 
4 1634 1924 1925 1036 
4 1634 1925 1924 2421 
4 1956 1611 1957 1008 
4 1957 1611 1956 2444 
4 1635 1925 1926 1037 
4 1926 1925 1635 2422 
4 1957 1612 1958 1009 
4 1957 1958 1612 2445 
4 1926 1636 1927 2423 
4 1926 1927 1636 1038 
4 1958 1613 1959 1010 
4 1958 1959 1613 2446 
4 1637 1927 1928 1039 
4 1637 1928 1927 2424 
4 1614 1959 1960 2447 
4 1614 1960 1959 1011 
4 936 2462 1764 1648 
4 936 1764 2462 1853 
4 2460 1764 2462 1648 
4 2460 2462 1764 1853 
4 2463 936 1763 1647 
4 1763 936 2463 1853 
4 1763 2461 2463 1647 
4 2463 2461 1763 1853 
4 70 2044 2264 151 
4 2264 2044 70 1127 
4 1073 1873 1087 1981 
4 1087 1873 1073 1724 
4 1983 1722 1867 1875 
4 1983 1867 1722 1071 
4 1982 1721 1866 1070 
4 1982 1866 1721 1874 
4 1723 1980 1864 1072 
4 1723 1864 1980 1872 
4 1018 2182 2068 2392 
4 2068 2182 1018 1718 
4 2393 1717 1139 2183 
4 2393 1139 1717 990 
4 1327 2599 2054 1705 
4 1327 2054 2599 2607 
4 1329 2598 2052 2606 
4 2052 2598 1329 1706 
4 1283 1268 2200 1656 
4 2200 1268 1283 2196 
4 2200 2522 1283 1656 
4 1283 2522 2200 2196 
4 1281 2523 2201 1655 
4 2201 2523 1281 2197 
4 2201 1267 1281 1655 
4 1281 1267 2201 2197 
4 197 1121 2042 1117 
4 197 2042 1121 196 
4 2126 1501 2125 1233 
4 2126 2125 1501 2536 
4 1592 2125 1501 1233 
4 1592 1501 2125 2536 
4 2560 1209 2561 2153 
4 2561 1209 2560 1477 
4 150 1123 2040 149 
4 150 2040 1123 1119 
4 2221 1664 1386 1258 
4 2221 1386 1664 1997 
4 2219 1666 1388 1995 
4 1388 1666 2219 1260 
4 2467 1773 1423 1819 
4 2467 1423 1773 2469 
4 1774 2466 1424 1820 
4 1774 1424 2466 2468 
4 1204 2328 2534 2150 
4 2534 2328 1204 1476 
4 2534 1590 1204 2150 
4 1204 1590 2534 1476 
4 1203 1589 2535 2177 
4 2535 1589 1203 1475 
4 2535 2329 1203 2177 
4 1203 2329 2535 1475 
4 1257 2180 2456 2220 
4 1257 2456 2180 1092 
4 1259 2178 2454 1094 
4 2454 2178 1259 2218 
4 1994 1329 1984 2606 
4 1994 1984 1329 1665 
4 1327 1996 1986 2607 
4 1986 1996 1327 1663 
4 939 2207 1290 1759 
4 939 1290 2207 2279 
4 2206 941 1292 1760 
4 2206 1292 941 2277 
4 1672 2334 158 2388 
4 158 2334 1672 1582 
4 2389 1581 1411 2360 
4 2389 1411 1581 1671 
4 1412 2316 1676 2062 
4 1412 1676 2316 1276 
4 1275 2063 2389 1411 
4 2389 2063 1275 2317 
4 2154 1211 2363 1210 
4 2154 2363 1211 2155 
4 2128 1234 1503 2127 
4 1503 1234 2128 1235 
4 1380 268 267 143 
4 1380 267 268 2249 
4 260 1379 261 135 
4 260 261 1379 2248 
4 2246 118 1339 245 
4 1339 118 2246 1377 
4 2247 126 1340 1378 
4 2247 1340 126 253 
4 152 1739 1102 71 
4 152 1102 1739 2608 
4 2610 24 200 199 
4 200 24 2610 1737 
4 2609 109 189 190 
4 2609 189 109 1740 
4 1738 237 1101 2611 
4 1738 1101 237 62 
4 2626 1678 1933 1474 
4 2626 1933 1678 2402 
4 2403 1473 1153 2627 
4 1153 1473 2403 1677 
4 1658 2522 988 1656 
4 988 2522 1658 2056 
4 1657 2523 986 2057 
4 1657 986 2523 1655 
4 2337 1558 1234 2336 
4 1234 1558 2337 1559 
4 1535 2362 208 2363 
4 1535 208 2362 1534 
4 1668 235 1360 2457 
4 1668 1360 235 60 
4 2608 1361 153 2256 
4 2608 153 1361 1739 
4 2610 1359 200 1737 
4 200 1359 2610 2258 
4 188 1670 1362 2455 
4 188 1362 1670 107 
4 1128 2617 969 2045 
4 969 2617 1128 1744 
4 1126 2619 967 1742 
4 967 2619 1126 2047 
4 2618 1125 966 1741 
4 966 1125 2618 2046 
4 2044 1743 2264 2616 
4 2044 2264 1743 1127 
4 2400 1684 1206 1588 
4 1206 1684 2400 2404 
4 1587 2427 1939 1683 
4 1587 1939 2427 2401 
4 1018 2400 1530 2392 
4 1530 2400 1018 1588 
4 2393 1587 2069 2401 
4 2393 2069 1587 990 
4 1118 63 2047 1126 
4 2047 63 1118 64 
4 975 1122 2043 971 
4 2043 1122 975 979 
4 939 1130 1859 1374 
4 939 1859 1130 1694 
4 1121 974 2042 970 
4 1121 2042 974 978 
4 977 1124 2041 981 
4 2041 1124 977 973 
4 110 1120 2045 1128 
4 2045 1120 110 111 
4 941 1132 1857 1696 
4 1857 1132 941 1376 
4 940 1131 1856 1375 
4 940 1856 1131 1695 
4 1123 976 2040 980 
4 2040 976 1123 972 
4 1119 70 2044 1127 
4 1119 2044 70 69 
4 938 1129 1858 1693 
4 1858 1129 938 1373 
4 23 1117 2046 1125 
4 23 2046 1117 22 
4 121 1651 2239 2632 
4 2239 1651 121 1323 
4 2639 2003 125 2281 
4 1097 125 2003 2281 
4 1097 2003 125 1348 
4 2638 2003 125 2639 
4 2638 125 2003 1348 
4 139 2451 1734 1586 
4 139 1734 2451 264 
4 2240 1734 2451 1586 
4 2240 2451 1734 264 
4 1102 2264 1757 2010 
4 1757 2264 1102 1371 
4 2266 1100 1755 2012 
4 2266 1755 1100 1369 
4 2265 1103 1758 2011 
4 2265 1758 1103 1372 
4 2657 2004 136 2282 
4 1098 136 2004 2282 
4 1098 2004 136 1349 
4 2656 2004 136 2657 
4 136 2004 2656 1349 
4 9530 2978 9529 2981 
4 6114 8064 10024 5618 
4 9457 3127 3124 5402 
4 3024 5352 9507 3027 
4 5343 3006 3008 9516 
4 5397 3116 9462 3114 
4 9518 3002 5341 3004 
4 2998 3000 5339 9520 
4 9474 3093 3090 5385 
4 3112 9464 5395 3110 
4 2983 5331 9528 2985 
4 5345 3010 3013 9514 
4 9484 3073 3070 5375 
4 5371 9488 3062 3065 
4 2990 5335 9524 2993 
4 9476 5383 3088 3086 
4 5369 3058 3060 9490 
4 2986 5333 9526 2988 
4 9486 3068 3066 5373 
4 9522 2994 5337 2996 
4 9472 3097 3094 5387 
4 9482 3077 3075 5377 
4 9443 3154 3152 5416 
4 3107 9467 5392 3104 
4 3136 9452 5407 3134 
4 9460 3121 3118 5399 
4 2978 7336 9530 9529 
4 3535 4710 6683 7766 
4 3149 9446 5413 3146 
4 9470 3101 3098 5389 
4 7337 2979 2978 9530 
4 6482 2763 6481 8981 
4 5325 2963 2965 9357 
4 2978 5329 9529 2981 
4 7845 3775 3761 7144 
4 7349 7032 2769 3751 
4 7146 3759 3773 7847 
4 3753 2771 7039 7351 
4 8064 9354 10024 5618 
4 9847 8457 9845 7027 
4 7283 3087 5382 3086 
4 7297 5368 3058 3059 
4 9643 7978 7977 5806 
4 8063 8062 9728 3891 
4 6200 10023 3975 7977 
4 9539 2975 2977 3164 
4 5633 9639 7971 7972 
4 5347 3015 3017 9512 
4 8920 4408 4407 4515 
4 5722 8061 8062 9727 
4 3029 5354 9505 3031 
4 2856 9411 5271 2855 
4 9428 2822 2821 5254 
4 2852 9413 5269 2851 
4 9495 3048 5364 3050 
4 9851 6593 7864 3178 
4 2955 5321 9361 2956 
4 3124 9457 5402 7263 
4 3024 5352 7313 9507 
4 4395 4396 4497 8944 
4 2860 9409 5273 2858 
4 3020 5350 9509 3022 
4 5362 3044 3046 9497 
4 6692 3724 9547 8544 
4 2924 5306 9376 2926 
4 2769 7032 281 3751 
4 3753 2771 423 7039 
4 10023 7978 3975 7977 
4 7890 7889 9557 5715 
4 4666 3461 7667 7665 
4 9378 2922 2921 5304 
4 7357 417 7879 3771 
4 287 3770 7878 7356 
4 3090 9474 5385 7280 
4 2990 5335 7330 9524 
4 9488 7294 5371 3062 
4 4665 9796 7669 7671 
4 9518 3002 7324 5341 
4 5345 7320 3010 9514 
4 3070 9484 5375 7290 
4 5343 7322 3006 9516 
4 2998 5339 7326 9520 
4 5397 9462 7268 3114 
4 9464 7270 5395 3110 
4 9493 3054 3052 5366 
4 5331 7334 2983 9528 
4 3724 6750 9738 8173 
4 3748 7568 6387 6804 
4 6388 6805 3750 7569 
4 5369 7296 3058 9490 
4 5383 9476 7282 3086 
4 7332 2986 5333 9526 
4 3094 9472 5387 7278 
4 3066 9486 5373 7292 
4 2994 9522 5337 7328 
4 7271 9464 5394 3110 
4 3490 6656 7631 4684 
4 7713 9823 4642 4643 
4 9548 9848 4623 7754 
4 3296 9340 3295 4283 
4 3202 9251 3201 4192 
4 3039 3041 5359 9500 
4 9503 3034 3032 5356 
4 5323 2958 2960 9359 
4 9408 2860 9409 5273 
4 7877 3769 287 7356 
4 9376 5306 9375 2926 
4 5673 9599 7931 7932 
4 6256 4515 9110 6254 
4 9793 4666 7667 7665 
4 5672 7932 7933 9600 
4 5617 7974 6023 6025 
4 3602 7698 4774 9812 
4 7670 4760 3630 9795 
4 9825 3582 4784 7718 
4 7612 9756 4730 3690 
4 9848 4623 7754 7751 
4 9411 9410 2856 5271 
4 3606 7696 4772 9809 
4 9747 7594 3706 4722 
4 7666 9792 4758 3634 
4 3710 7592 4720 9744 
4 9601 5671 7934 7933 
4 3702 7600 4724 9749 
4 7608 4728 3694 9754 
4 3698 7602 4726 9752 
4 3714 9742 7588 4718 
4 7898 7897 9565 5707 
4 5674 7930 7931 9598 
4 5675 7929 7930 9597 
4 2979 6114 10024 5618 
4 7896 9564 7897 5708 
4 7891 7890 9558 5714 
4 9464 3111 5394 3110 
4 8067 6688 5422 4836 
4 8068 6687 5421 4835 
4 7920 7919 9587 5685 
4 9428 9427 2822 5254 
4 7896 7895 9563 5709 
4 7922 7921 9589 5683 
4 9622 5650 7955 7954 
4 7716 4782 3586 9822 
4 9474 3091 5384 3090 
4 7919 7918 9586 5686 
4 7895 7894 9562 5710 
4 3610 7692 4770 9807 
4 9789 3638 4756 7664 
4 7900 7899 9567 5705 
4 2792 2794 5240 7241 
4 2960 5323 9359 9358 
4 9488 5370 3062 3063 
4 9595 7928 7927 5677 
4 7914 9582 7915 5690 
4 5676 9596 7928 7929 
4 5321 9361 2956 9360 
4 9412 2852 9413 5269 
4 9580 7913 7912 5692 
4 7899 7898 9566 5706 
4 7918 7917 9585 5687 
4 7897 7898 3874 5707 
4 7894 7893 9561 5711 
4 7859 3779 3757 4834 
4 9457 3124 5401 7264 
4 7896 7897 3875 5708 
4 5670 7934 7935 9602 
4 5334 2990 9524 2991 
4 9579 7912 7911 5693 
4 7915 9583 7916 5689 
4 9378 2922 5304 9377 
4 3840 5673 7931 7932 
4 7901 7900 9568 5704 
4 7926 9594 7927 5678 
4 9581 7914 7913 5691 
4 3839 5672 7932 7933 
4 7936 5669 7935 9603 
4 7893 7892 9560 5712 
4 9638 5634 7971 7970 
4 3492 3495 6557 7627 
4 7895 7896 3876 5709 
4 9645 7980 7979 5804 
4 4683 7633 4682 9771 
4 5702 7902 7903 9570 
4 7899 7900 3872 5705 
4 7900 7901 3871 5704 
4 3010 5344 3011 9514 
4 7904 5701 7903 9571 
4 9836 4632 4631 7735 
4 5328 7337 2979 2978 
4 5671 3838 7934 7933 
4 7920 3852 7919 5685 
4 7959 5645 9627 7960 
4 7892 7893 3879 5712 
4 7898 7899 3873 5706 
4 7894 7895 3877 5710 
4 7936 5668 9604 7937 
4 5642 9630 7962 7963 
4 9629 5643 7962 7961 
4 3071 9484 3070 5374 
4 7893 7894 3878 5711 
4 9628 5644 7961 7960 
4 9647 7982 7981 5802 
4 5652 9620 7952 7953 
4 9648 7983 7982 5801 
4 7984 5799 9650 7985 
4 7986 9652 7987 5797 
4 6380 8986 6378 4612 
4 9649 7984 7983 5800 
4 7918 7919 3853 5686 
4 9632 5640 7965 7964 
4 7915 7916 3856 5689 
4 5639 9633 7965 7966 
4 7916 9584 7917 5688 
4 9631 5641 7964 7963 
4 9593 7926 7925 5679 
4 9651 7986 7985 5798 
4 7132 9158 7131 2675 
4 7967 9634 5638 7966 
4 7923 9591 7924 5681 
4 8561 3788 7150 7853 
4 9635 7967 5637 7968 
4 7914 7915 3857 5690 
4 3841 5674 7930 7931 
4 9590 7923 7922 5682 
4 9393 5289 9392 2893 
4 9462 3115 5396 3114 
4 7921 7920 9588 5684 
4 7929 3842 5675 7930 
4 7902 5702 7903 3869 
4 7901 7902 3870 5703 
4 7902 7901 9569 5703 
4 3775 7144 6704 2774 
4 7917 7918 3854 5687 
4 9572 7905 7904 5700 
4 9623 5649 7956 7955 
4 3006 5342 3007 9516 
4 5734 9715 8049 8050 
4 7355 7845 3761 7144 
4 5733 9716 8050 8051 
4 5635 9637 7969 7970 
4 5648 9624 7956 7957 
4 3002 9518 5340 3003 
4 9621 5651 7954 7953 
4 10020 3839 7932 7933 
4 9636 5636 7969 7968 
4 9605 5667 7938 7937 
4 7910 9578 7911 5694 
4 4400 4401 4505 8934 
4 2811 9434 9433 5248 
4 7987 9653 7988 5796 
4 5701 7904 7903 3868 
4 7980 9646 7981 5803 
4 5653 9619 7951 7952 
4 7916 7917 3855 5688 
4 5643 3810 7962 7961 
4 3777 7861 4833 3755 
4 8061 5723 8060 9726 
4 2998 5338 2999 9520 
4 3837 5670 7934 7935 
4 10017 3840 7931 7932 
4 3626 7674 4762 9798 
4 8048 5735 9714 8049 
4 3809 5642 7962 7963 
4 2793 5239 2791 7242 
4 7907 7906 9574 5698 
4 4387 4386 8962 4484 
4 5665 9607 7939 7940 
4 5732 8051 8052 9717 
4 3175 7355 3761 7144 
4 5647 7958 9625 7957 
4 3802 5635 7969 7970 
4 9608 5664 7941 7940 
4 7913 7914 3858 5691 
4 7928 5676 7929 3843 
4 8794 4610 4471 4470 
4 7927 7928 3844 5677 
4 5663 9609 7941 7942 
4 8053 5731 8052 9718 
4 9719 8053 5730 8054 
4 8055 5729 8054 9720 
4 8021 8020 9686 5763 
4 8020 9685 5764 8019 
4 5728 8055 8056 9721 
4 9610 5662 7943 7942 
4 2865 9407 9406 5275 
4 8022 8021 9687 5762 
4 8018 5765 9684 8019 
4 7990 7989 9655 5794 
4 7906 7905 9573 5699 
4 8040 8039 9705 5744 
4 5777 8006 8007 9672 
4 8041 8040 9706 5743 
4 5776 8007 8008 9673 
4 8047 8048 5736 9713 
4 8057 5727 8056 9722 
4 5634 3801 7971 7970 
4 7936 5669 3836 7935 
4 3806 5639 7965 7966 
4 5766 8018 9683 8017 
4 8039 8038 9704 5745 
4 8006 5778 8005 9671 
4 7983 3971 7982 5801 
4 5640 3807 7965 7964 
4 5799 7984 3969 7985 
4 9694 8029 8028 5755 
4 5788 9661 7995 7996 
4 3967 7986 7987 5797 
4 9606 5666 7939 7938 
4 5637 7967 3804 7968 
4 8058 5726 8057 9723 
4 7986 3968 7985 5798 
4 7912 7913 3859 5692 
4 5645 7959 3812 7960 
4 5641 3808 7964 7963 
4 7984 3970 7983 5800 
4 7982 3972 7981 5802 
4 7967 5638 3805 7966 
4 5737 8047 9712 8046 
4 5668 7936 3835 7937 
4 5644 3811 7961 7960 
4 5738 9711 8045 8046 
4 9692 8027 8026 5757 
4 9693 8028 8027 5756 
4 9660 5789 7995 7994 
4 9688 8023 8022 5761 
4 7994 7993 9659 5790 
4 8042 8041 9707 5742 
4 8009 5775 8008 9674 
4 7944 5661 7943 9611 
4 9682 5767 8017 8016 
4 5779 8004 8005 9670 
4 8037 5746 9703 8038 
4 9702 8037 8036 5747 
4 5780 8003 8004 9669 
4 5768 9681 8015 8016 
4 8029 9695 8030 5754 
4 9662 5787 7997 7996 
4 7904 7905 3867 5700 
4 5636 3803 7969 7968 
4 3759 7146 7353 7847 
4 9710 5739 8045 8044 
4 8026 8025 9691 5758 
4 9658 7993 7992 5791 
4 9680 5769 8015 8014 
4 9668 5781 8003 8002 
4 8035 9701 8036 5748 
4 8059 5725 8058 9724 
4 5658 7946 7947 9614 
4 8012 5772 8011 9677 
4 5784 9665 7999 8000 
4 9698 8033 8032 5751 
4 7892 7891 9559 5713 
4 7946 5659 7945 9613 
4 9664 5785 7999 7998 
4 5752 8031 8032 9697 
4 5773 9676 8010 8011 
4 7909 7908 9576 5696 
4 9908 7900 7901 3871 
4 7898 9973 7897 3874 
4 3966 7987 7988 5796 
4 7989 7988 9654 5795 
4 5660 7944 7945 9612 
4 5774 8009 8010 9675 
4 5786 9663 7997 7998 
4 9696 8031 8030 5753 
4 8024 8023 9689 5760 
4 8043 8042 9708 5741 
4 5667 3834 7938 7937 
4 7948 5657 7947 9615 
4 3074 9482 3075 5376 
4 8013 5771 8012 9678 
4 5783 9666 8000 8001 
4 8033 9699 8034 5750 
4 7991 7990 9656 5793 
4 7920 7921 3851 5684 
4 5782 8001 8002 9667 
4 9679 5770 8014 8013 
4 8034 9700 8035 5749 
4 7992 7991 9657 5792 
4 5655 9617 7949 7950 
4 8025 8024 9690 5759 
4 8044 8043 9709 5740 
4 5724 8059 8060 9725 
4 7926 7927 3845 5678 
4 3819 5652 7952 7953 
4 9909 7896 7897 3875 
4 7908 7907 9575 5697 
4 5289 9393 2891 2893 
4 7958 7959 5646 9626 
4 7911 7912 3860 5693 
4 3759 7146 3173 7353 
4 7921 7922 3850 5683 
4 5805 7978 3975 7979 
4 7955 5650 3817 7954 
4 7889 7890 3882 5715 
4 10010 3841 7930 7931 
4 7891 7892 3880 5713 
4 5651 3818 7954 7953 
4 5299 9382 9383 2913 
4 7146 3773 2773 6703 
4 3973 7980 7981 5803 
4 7916 7915 3856 9977 
4 7924 9592 7925 5680 
4 3125 9457 3124 5401 
4 7905 7906 3866 5699 
4 9616 7948 5656 7949 
4 2865 9407 5275 2863 
4 5666 3833 7939 7938 
4 2840 9419 9418 5263 
4 3838 10021 7934 7933 
4 5311 2935 2936 9371 
4 7959 7958 5646 3813 
4 4605 8800 4467 4468 
4 7925 7926 3846 5679 
4 7890 7891 3881 5714 
4 4418 4417 8900 4530 
4 3965 7988 7989 5795 
4 9415 5266 2846 9416 
4 7910 7911 3861 5694 
4 7906 7907 3865 5698 
4 7980 3974 7979 5804 
4 7918 7919 9972 3853 
4 3832 5665 7939 7940 
4 9431 9430 2816 5251 
4 5278 9404 2870 9403 
4 8059 5724 8060 3894 
4 5664 3831 7941 7940 
4 5725 8059 8058 3895 
4 8055 5728 8056 3898 
4 5729 8055 8054 3899 
4 5727 8057 8056 3897 
4 5726 8058 8057 3896 
4 8053 5730 8054 3900 
4 3830 5663 7941 7942 
4 3933 8020 8021 5763 
4 2832 9423 9422 5259 
4 5764 8020 8019 3934 
4 5731 8053 8052 3901 
4 3932 8021 8022 5762 
4 5662 3829 7943 7942 
4 8041 3913 8040 5743 
4 8007 5776 8008 3946 
4 8018 5765 8019 3935 
4 3914 8039 8040 5744 
4 8006 5777 8007 3947 
4 4410 4411 4520 8914 
4 8051 5732 8052 3902 
4 7978 5805 9644 7979 
4 3820 5653 7951 7952 
4 9365 5317 9364 2948 
4 5766 8018 8017 3936 
4 3915 8038 8039 5745 
4 3948 8006 5778 8005 
4 7900 10015 7899 3872 
4 8064 6114 6024 5618 
4 8029 3925 8028 5755 
4 3958 5788 7995 7996 
4 3852 7920 7919 10008 
4 8047 8048 3906 5736 
4 7896 10011 7895 3876 
4 5735 8048 3905 8049 
4 5695 7909 7910 9577 
4 8023 3931 8022 5761 
4 7958 5647 3814 7957 
4 8042 3912 8041 5742 
4 5775 8009 8008 3945 
4 7944 5661 3828 7943 
4 3964 7989 7990 5794 
4 5292 9389 9390 2898 
4 3924 8029 8030 5754 
4 5787 7997 7996 3957 
4 9426 9425 2826 5256 
4 3458 3461 6533 7667 
4 5723 8061 8060 3893 
4 8028 3926 8027 5756 
4 7995 5789 3959 7994 
4 5737 8047 8046 3907 
4 5767 8017 8016 3937 
4 8004 5779 8005 3949 
4 3916 5746 8037 8038 
4 8050 5733 8051 3903 
4 7929 9975 3842 7930 
4 8049 5734 8050 3904 
4 2811 2809 9434 5248 
4 7856 7568 3748 6804 
4 6805 3750 7569 7858 
4 5654 9618 7950 7951 
4 7894 9945 7893 3878 
4 8027 3927 8026 5757 
4 8045 5738 8046 3908 
4 3960 7993 7994 5790 
4 8037 3917 8036 5747 
4 8003 5780 8004 3950 
4 8015 5768 8016 3938 
4 5242 2798 9439 9440 
4 7908 7909 3863 5696 
4 10005 7894 7895 3877 
4 9913 7914 7915 3857 
4 5660 7944 3827 7945 
4 8009 5774 8010 3944 
4 7997 5786 7998 3956 
4 8031 3923 8030 5753 
4 9872 7892 7893 3879 
4 9368 5313 2940 9369 
4 3930 8023 8024 5760 
4 3911 8042 8043 5741 
4 7892 9937 7891 3880 
4 7899 10009 7898 3873 
4 3963 7990 7991 5793 
4 8026 3928 8025 5758 
4 8045 5739 3909 8044 
4 7993 3961 7992 5791 
4 5245 2804 9437 2803 
4 3825 5658 7946 7947 
4 5772 8012 8011 3942 
4 3954 5784 7999 8000 
4 8033 3921 8032 5751 
4 5659 3826 7946 7945 
4 3943 5773 8010 8011 
4 5785 7999 7998 3955 
4 5752 8031 3922 8032 
4 9968 7973 10026 5439 
4 5769 8015 8014 3939 
4 3918 8035 8036 5748 
4 5781 8003 8002 3951 
4 7907 7908 3864 5697 
4 9466 3107 5392 3106 
4 7923 7924 3848 5681 
4 7922 7923 3849 5682 
4 3533 8793 3537 6588 
4 8025 3929 8024 5759 
4 8044 3910 8043 5740 
4 7992 3962 7991 5792 
4 7948 5657 3824 7947 
4 5771 8013 8012 3941 
4 3920 8033 8034 5750 
4 8000 5783 8001 3953 
4 5770 8014 8013 3940 
4 8001 5782 8002 3952 
4 3919 8034 8035 5749 
4 5649 3816 7956 7955 
4 2905 5296 9386 2906 
4 3822 5655 7949 7950 
4 4596 9002 6364 6362 
4 7902 9959 7901 3870 
4 3815 5648 7956 7957 
4 2804 5245 9437 9436 
4 7909 5695 7910 3862 
4 7928 7929 9911 3843 
4 9883 7902 7903 3869 
4 9449 3143 3141 5410 
4 3718 7584 4716 9740 
4 3786 8559 7851 7148 
4 5351 3024 9507 3025 
4 4522 6260 6258 9105 
4 3847 7924 7925 5680 
4 2929 5308 9374 2930 
4 9884 7890 7891 3881 
4 5296 9385 9386 2906 
4 3080 9479 3082 5380 
4 4538 9080 6286 6284 
4 5656 7948 3823 7949 
4 7904 9948 7903 3868 
4 2936 5311 9371 9370 
4 7890 9980 7889 3882 
4 7917 7918 9906 3854 
4 7920 7921 10013 3851 
4 3821 5654 7950 7951 
4 9052 6312 6314 4559 
4 3131 9455 5404 3128 
4 5329 7336 2978 9529 
4 5308 9374 2930 9373 
4 9766 3673 8391 9768 
4 7912 10004 7911 3860 
4 9118 4509 6246 6248 
4 2884 5285 9397 9396 
4 7917 7916 3855 10001 
4 7913 10016 7912 3859 
4 3801 9996 7971 7970 
4 7927 7928 10014 3844 
4 7959 3812 7960 9882 
4 7283 9476 3087 3086 
4 3058 7297 3059 9490 
4 7914 7913 3858 10018 
4 3800 5633 7971 7972 
4 7969 3802 7970 9967 
4 2840 9419 5263 2838 
4 5266 2846 9416 2844 
4 3810 7962 7961 9987 
4 3808 7964 7963 9964 
4 3805 7967 7966 9966 
4 9971 7984 3970 7983 
4 7962 3809 7963 9899 
4 9969 3967 7986 7987 
4 3160 9538 2791 2789 
4 5352 7313 9507 3027 
4 10019 3837 7934 7935 
4 2816 9431 5251 2814 
4 6232 6230 4497 8257 
4 9426 2826 2824 5256 
4 7965 3806 7966 9901 
4 3818 10012 7954 7953 
4 10006 3819 7952 7953 
4 3971 9907 7983 7982 
4 3968 9904 7986 7985 
4 9839 3562 7736 7740 
4 7967 3804 7968 9995 
4 7984 9998 3969 7985 
4 3807 7965 7964 9994 
4 6272 4531 6274 9091 
4 3972 10003 7982 7981 
4 3835 7936 9978 7937 
4 7925 7926 9970 3846 
4 7911 7910 3861 9942 
4 3803 7969 7968 9902 
4 7623 9766 7627 4686 
4 2883 2884 5285 9397 
4 2911 5299 9383 2913 
4 3811 9947 7961 7960 
4 2763 7044 6481 8981 
4 7936 3836 9914 7935 
4 9965 3820 7951 7952 
4 7926 7927 10007 3845 
4 8072 9538 9353 6695 
4 5242 2798 9440 2796 
4 6481 2762 6480 8983 
4 9457 3127 5402 7263 
4 8564 5420 6706 2974 
4 7980 9979 3973 7981 
4 8834 4580 4451 4450 
4 7959 7958 3813 9957 
4 7921 7922 9910 3850 
4 7906 7905 3866 9888 
4 9912 7955 3817 7954 
4 5331 7334 9528 2985 
4 3833 9894 7939 7938 
4 8478 5203 5202 7002 
4 7978 10022 3975 7979 
4 279 3759 3173 7353 
4 2832 9423 5259 2830 
4 9892 3965 7988 7989 
4 7905 9989 7904 3867 
4 8061 5722 8062 3892 
4 2946 5317 9365 2948 
4 3127 9456 3126 5402 
4 7324 9518 5341 3004 
4 3495 7623 7627 4686 
4 2896 5292 9390 2898 
4 7322 5343 3008 9516 
4 7355 425 3175 3761 
4 5339 3000 7326 9520 
4 6224 6226 9140 4495 
4 3116 5397 9462 7268 
4 9404 5278 2870 2868 
4 7043 2763 6482 8981 
4 7910 7909 3862 9869 
4 8796 3535 6683 7766 
4 9997 3966 7987 7988 
4 4794 9837 3562 7736 
4 7653 7657 4671 9786 
4 3834 10002 7938 7937 
4 5333 7332 9526 2988 
4 7907 7906 3865 9952 
4 5313 2938 2940 9369 
4 9958 3832 7939 7940 
4 7296 5369 3060 9490 
4 5383 9476 3088 7282 
4 8460 7021 5221 5220 
4 3112 9464 7270 5395 
4 7924 3847 7925 9905 
4 7278 5196 8147 7000 
4 9486 3068 5373 7292 
4 9522 5337 7328 2996 
4 7635 7633 4683 9771 
4 3829 9861 7943 7942 
4 9956 3964 7989 7990 
4 3831 9880 7941 7940 
4 9936 3830 7941 7942 
4 9005 4593 6358 6360 
4 5026 4168 4368 9255 
4 9895 7948 3824 7947 
4 9900 3821 7950 7951 
4 9924 7944 3828 7943 
4 7653 4671 4672 9786 
4 5526 6113 9352 7886 
4 5721 8063 9728 3891 
4 9897 8000 8001 3953 
4 7997 7996 3957 9930 
4 5214 5215 6997 8466 
4 4632 9836 7737 7735 
4 9876 3958 7995 7996 
4 5194 7016 8148 7280 
4 5144 7009 8170 7330 
4 7999 3954 8000 9985 
4 9981 3825 7946 7947 
4 8154 7294 5180 7015 
4 3826 9939 7946 7945 
4 7999 7998 3955 9943 
4 9951 7995 3959 7994 
4 7016 8148 7280 8487 
4 8005 8004 3949 9953 
4 7009 8170 7330 8537 
4 7980 3974 9915 7979 
4 7278 8147 8485 7000 
4 9762 3682 7616 7622 
4 7294 8154 8501 7015 
4 9778 7644 3658 7640 
4 7944 9866 3827 7945 
4 7998 7997 3956 9870 
4 7055 2751 6470 6469 
4 3814 7958 7957 9893 
4 9887 3960 7993 7994 
4 9889 8003 8004 3950 
4 9881 3963 7990 7991 
4 8002 8001 3952 9961 
4 3962 9946 7992 7991 
4 8165 7320 5154 7023 
4 5184 7012 8152 7290 
4 7320 8165 8527 7023 
4 7012 8497 8152 7290 
4 5182 6999 8153 7292 
4 7909 7908 3863 9929 
4 6999 8499 8153 7292 
4 7328 8169 6998 5146 
4 8535 7328 8169 6998 
4 7324 8167 8531 7018 
4 6995 8539 8171 7332 
4 5352 3026 9506 3027 
4 9980 6109 3882 3881 
4 7322 8166 8529 7020 
4 5142 6995 8171 7332 
4 7326 8168 8533 7011 
4 7268 8143 8475 7019 
4 7320 5345 3013 9514 
4 7948 9960 3823 7949 
4 9484 3073 5375 7290 
4 8167 7324 5150 7018 
4 8166 7322 5152 7020 
4 7326 8168 7011 5148 
4 7922 7923 9974 3849 
4 8143 7268 5206 7019 
4 2742 7064 6460 6461 
4 7908 7907 3864 9875 
4 2749 7057 6467 6468 
4 6262 6260 4520 9104 
4 9990 3822 7949 7950 
4 3816 9976 7956 7955 
4 4578 6336 9028 6338 
4 7923 7924 9999 3848 
4 6412 6411 7113 2693 
4 7114 2692 6411 6410 
4 9166 4935 4277 4076 
4 7611 4694 4695 9757 
4 8060 8059 3894 9856 
4 7013 7270 8144 5204 
4 8059 8058 3895 9919 
4 5335 7330 9524 2993 
4 9474 3093 5385 7280 
4 7294 9488 5371 3065 
4 9454 3131 5404 3130 
4 8058 8057 3896 9855 
4 3931 9922 8023 8022 
4 8009 8008 3945 9925 
4 3912 9927 8042 8041 
4 5361 3044 7304 9497 
4 8057 9918 8056 3897 
4 8056 8055 3898 9854 
4 8055 8054 3899 9917 
4 8054 8053 3900 9853 
4 8020 9926 3933 8021 
4 5349 3020 7316 9509 
4 8020 9863 8019 3934 
4 8053 9923 8052 3901 
4 9931 3924 8029 8030 
4 9858 3932 8021 8022 
4 8008 8007 3946 9862 
4 3913 9864 8041 8040 
4 8019 8018 3935 9934 
4 8007 8006 3947 9933 
4 9935 3914 8039 8040 
4 8559 8571 3786 7851 
4 9859 8051 8052 3902 
4 3948 8006 8005 9877 
4 3925 9873 8029 8028 
4 9879 3915 8038 8039 
4 8018 8017 3936 9878 
4 3905 8048 9932 8049 
4 4413 4414 4526 8240 
4 2759 7047 6477 6478 
4 8048 8047 3906 9874 
4 9354 9539 2977 3164 
4 3961 9988 7993 7992 
4 3042 5361 7304 3045 
4 3018 5349 7316 3021 
4 4646 9817 7707 7705 
4 8003 8002 3951 9991 
4 4799 3552 9845 6748 
4 5409 3140 7256 3138 
4 8051 8050 3903 9928 
4 7270 7013 8144 8477 
4 9750 7597 7599 4700 
4 8478 9818 6738 7002 
4 8050 8049 3904 9860 
4 3081 7286 5379 3079 
4 7680 7676 3622 9802 
4 3926 9949 8028 8027 
4 8047 8046 3907 9950 
4 3916 8037 9955 8038 
4 8017 8016 3937 9954 
4 9813 4649 7699 7701 
4 8010 8009 3944 9867 
4 7676 4764 3622 9800 
4 9871 8031 3923 8030 
4 5419 2788 6705 8563 
4 9865 3930 8023 8024 
4 9868 3911 8042 8043 
4 6326 6328 9038 4573 
4 2744 7063 6462 6463 
4 9818 3594 6738 7002 
4 9472 3097 5387 7278 
4 4075 9167 4276 4934 
4 9832 4634 7729 7731 
4 8983 6380 6382 4610 
4 8061 8060 3893 9920 
4 6431 7092 6432 2713 
4 9761 3682 4734 7616 
4 3976 6200 3975 7977 
4 6280 4535 6282 9083 
4 9776 3658 4746 7640 
4 9819 4646 7709 7705 
4 9495 5364 7301 3050 
4 4645 9819 4646 7709 
4 5330 2983 9528 2982 
4 5025 4167 4367 9256 
4 3788 7150 7853 6993 
4 6438 6437 7087 2719 
4 9163 4280 4079 4938 
4 7061 2745 6464 6463 
4 3927 9885 8027 8026 
4 8046 8045 3908 9886 
4 9250 3202 3203 4193 
4 4284 3296 9339 3297 
4 10000 3815 7956 7957 
4 9891 8037 3917 8036 
4 9890 8015 8016 3938 
4 2971 7341 5435 6005 
4 7597 7601 4700 9751 
4 4589 6352 6350 9014 
4 7068 2738 6457 6456 
4 4280 3290 3289 9163 
4 5354 7311 9505 3031 
4 3726 6692 3724 9547 
4 6745 9837 3564 4793 
4 4625 9844 7749 7747 
4 8012 8011 3942 9982 
4 3921 9986 8033 8032 
4 2762 7046 6480 8983 
4 4700 7601 4699 9751 
4 6322 9044 6320 4566 
4 9168 4275 4074 4933 
4 2794 9441 5240 7241 
4 6426 6425 7099 2707 
4 7971 3800 7972 9903 
4 8063 5528 10024 9921 
4 8013 8012 3941 9896 
4 9898 3920 8033 8034 
4 4293 4951 4093 9330 
4 9241 4202 4001 4860 
4 2709 6427 6428 7098 
4 3928 9983 8026 8025 
4 9984 8045 3909 8044 
4 6437 6436 7088 2718 
4 8015 9992 8014 3939 
4 9993 3918 8035 8036 
4 3624 4763 6730 9800 
4 4526 9098 6268 6266 
4 4292 4950 4092 9331 
4 9242 4201 4000 4859 
4 8460 9841 6747 7021 
4 5023 4165 4365 9258 
4 5350 7315 9509 3022 
4 6014 8976 4842 8180 
4 7355 7845 3768 3761 
4 4295 4953 4095 9328 
4 9239 4204 4003 4862 
4 7713 9823 4643 7715 
4 9333 4948 4290 4090 
4 9244 4199 3998 4857 
4 3143 9448 3142 5410 
4 7303 5362 3046 9497 
4 9940 3943 8010 8011 
4 8031 9944 3922 8032 
4 7179 2917 5302 2919 
4 9354 9539 6696 8074 
4 7045 2760 6479 6478 
4 7749 4625 7747 3394 
4 8155 7296 5178 7007 
4 6997 6744 9833 8466 
4 5192 7008 8149 7282 
4 6436 6435 7089 2717 
4 3929 9938 8025 8024 
4 3910 9941 8044 8043 
4 4294 4952 4094 9329 
4 9240 4203 4002 4861 
4 6399 6398 7127 2680 
4 9169 4274 4073 4932 
4 6372 4604 8994 6370 
4 4089 9334 4289 4947 
4 4856 3997 4198 9245 
4 6429 7096 6430 2711 
4 3075 9482 5377 7288 
4 4221 9222 4879 4020 
4 4114 9309 4314 4972 
4 7338 9539 2975 2977 
4 7139 6697 7878 8552 
4 6698 7134 8551 7879 
4 5024 4166 4366 9257 
4 3767 3759 7353 7847 
4 8014 8013 3940 9962 
4 9963 3919 8034 8035 
4 4164 9259 4364 5022 
4 4949 4091 4291 9332 
4 9243 4200 3999 4858 
4 3799 7973 7972 9968 
4 9353 9538 3160 6695 
4 4022 9220 4223 4881 
4 4974 4116 4316 9307 
4 3839 3840 6067 10017 
4 4929 4070 4271 9172 
4 4226 4884 4025 9217 
4 9304 4119 4977 4319 
4 4161 9262 4361 5019 
4 4229 4887 4028 9214 
4 4122 4322 4980 9301 
4 4067 4268 4926 9175 
4 4890 4031 4232 9211 
4 4325 4983 4125 9298 
4 9265 4358 4158 5016 
4 4923 9178 4064 4265 
4 9268 4355 4155 5013 
4 4328 9295 4986 4128 
4 4893 4034 4235 9208 
4 4920 4061 4262 9181 
4 4998 4140 4340 9283 
4 4331 4131 9292 4989 
4 5007 4149 4349 9274 
4 9271 5010 4352 4152 
4 4334 9289 4992 4134 
4 4137 9286 4337 4995 
4 9205 4238 4037 4896 
4 4914 4055 4256 9187 
4 4058 4259 4917 9184 
4 9196 4247 4046 4905 
4 9202 4241 4040 4899 
4 4911 4052 4253 9190 
4 4908 4049 4250 9193 
4 4043 9199 4244 4902 
4 5001 4143 4343 9280 
4 5004 4146 4346 9277 
4 4664 9796 4665 7671 
4 4224 4882 4023 9219 
4 4975 4117 4317 9306 
4 4930 4071 4272 9171 
4 4162 9261 4362 5020 
4 4227 4885 4026 9216 
4 4978 4120 4320 9303 
4 4927 4068 4269 9174 
4 4888 4029 4230 9213 
4 4981 4123 4323 9300 
4 4159 9264 4359 5017 
4 4924 4065 4266 9177 
4 4891 4032 4233 9210 
4 4984 9297 4126 4326 
4 9267 4356 4156 5014 
4 4921 4062 4263 9180 
4 4329 9294 4987 4129 
4 9270 5011 4353 4153 
4 4035 4236 4894 9207 
4 5008 4150 4350 9273 
4 5005 4147 4347 9276 
4 5002 4144 4344 9279 
4 4341 4999 4141 9282 
4 4338 9285 4996 4138 
4 4335 9288 4993 4135 
4 4332 9291 4990 4132 
4 4915 4056 4257 9186 
4 4044 9198 4245 4903 
4 4047 9195 4248 4906 
4 4041 9201 4242 4900 
4 4912 4053 4254 9189 
4 4909 4050 4251 9192 
4 4059 4260 4918 9183 
4 9204 4239 4038 4897 
4 6220 4490 9146 6218 
4 9353 7974 5617 6025 
4 7094 6431 6430 2712 
4 9843 3556 4798 3554 
4 7156 5325 2965 9357 
4 2720 6439 7085 6438 
4 2886 5287 7194 2888 
4 2836 7220 5261 2834 
4 7296 8155 8503 7007 
4 7166 2942 5315 2944 
4 7008 8489 8149 7282 
4 9354 2979 10024 5618 
4 3151 3153 5415 7250 
4 4287 9336 4945 4087 
4 4854 3995 4196 9247 
4 7066 6457 2739 6458 
4 9335 4946 4288 4088 
4 4855 3996 4197 9246 
4 7136 2766 9343 6012 
4 5032 6382 4613 8182 
4 9841 6747 7021 3558 
4 4273 9170 4931 4072 
4 7162 2950 5319 2952 
4 3044 5361 3045 9497 
4 2900 5294 7187 2902 
4 4163 9260 4363 5021 
4 4222 9221 4880 4021 
4 4973 4115 4315 9308 
4 5282 2879 7199 2877 
4 5349 3020 9509 3021 
4 8452 7241 8453 5049 
4 4225 4024 9218 4883 
4 4976 4118 4318 9305 
4 4928 4069 4270 9173 
4 4160 9263 4360 5018 
4 9215 4027 4886 4228 
4 4979 4121 4321 9302 
4 4889 4030 4231 9212 
4 4982 4124 4324 9299 
4 4267 4925 4066 9176 
4 9266 4357 4157 5015 
4 4327 9296 4985 4127 
4 4892 4033 4234 9209 
4 4922 4063 4264 9179 
4 9269 4354 4154 5012 
4 4130 9293 4330 4988 
4 4036 4895 9206 4237 
4 5000 4142 4342 9281 
4 4345 5003 4145 9278 
4 4139 9284 4339 4997 
4 5006 4148 4348 9275 
4 5009 4151 4351 9272 
4 4333 9290 4991 4133 
4 4336 9287 4994 4136 
4 4919 9182 4060 4261 
4 4916 4057 4258 9185 
4 4045 9197 4246 4904 
4 4042 9200 4243 4901 
4 4910 4051 4252 9191 
4 4907 4048 4249 9194 
4 4913 4054 4255 9188 
4 9203 4240 4039 4898 
4 7081 2724 6443 6442 
4 9007 4594 6356 6358 
4 4220 9223 4878 4019 
4 4113 9310 4313 4971 
4 9761 9762 3682 7616 
4 9128 6236 6238 4503 
4 4371 3384 3383 9252 
4 6368 4599 8997 6366 
4 7198 2880 2878 5283 
4 4018 9224 4219 4877 
4 4112 9311 4312 4970 
4 2761 6479 6480 8986 
4 8462 5219 3560 5220 
4 9776 9778 3658 7640 
4 3838 3839 6066 10020 
4 6696 9539 9551 8074 
4 6744 6997 9833 3570 
4 9066 6298 6300 4550 
4 3839 3840 10017 7932 
4 7026 8514 6720 9772 
4 9884 6108 3881 3880 
4 5201 8480 5202 3596 
4 9442 2794 2792 7241 
4 9835 3568 4792 3566 
4 9047 6318 4562 6316 
4 7056 2750 6469 6468 
4 3840 3841 6068 10010 
4 9444 3153 3151 7250 
4 7057 2749 7058 6468 
4 7625 4687 4688 9765 
4 3838 3839 10020 7933 
4 5356 3034 3035 9502 
4 3871 7901 3870 5704 
4 7900 3871 3872 5705 
4 7890 9980 3882 3881 
4 3874 7898 3873 5707 
4 2756 7049 6474 6475 
4 7897 3874 3875 5708 
4 5368 7297 3056 3059 
4 3084 7283 3087 5382 
4 7866 3179 7844 9850 
4 5361 7304 3045 9497 
4 7316 5349 9509 3021 
4 9642 9643 7977 5807 
4 9956 9881 5601 7990 
4 3876 7896 3875 5709 
4 8072 9550 9538 6695 
4 4954 4096 4296 9327 
4 9238 4205 4004 4863 
4 6270 4527 8238 6268 
4 3856 7916 3855 5689 
4 3880 7892 3879 5713 
4 3840 3841 10010 7931 
4 4171 4371 5029 9252 
4 8031 9944 9871 5560 
4 7201 2874 2872 5280 
4 5593 7998 9870 9943 
4 7713 4642 3422 4643 
4 9868 9941 5548 8043 
4 5673 3840 3839 7932 
4 7056 2751 7055 6469 
4 3838 5672 3839 7933 
4 3857 7915 3856 5690 
4 4540 6284 6282 9081 
4 3873 7899 3872 5706 
4 6446 7080 2727 6445 
4 9881 9946 5600 7991 
4 4286 9337 4944 4086 
4 4853 3994 4195 9248 
4 7062 2743 6462 6461 
4 9940 8010 5581 9867 
4 9865 9938 5567 8024 
4 5594 7997 9930 9870 
4 7895 3876 3877 5710 
4 9236 4207 4006 4865 
4 4956 4098 4298 9325 
4 7999 5592 9985 9943 
4 6416 6417 2698 7107 
4 9837 9839 3562 7736 
4 4958 9323 4100 4300 
4 9234 4209 4008 4867 
4 6692 5048 8544 5238 
4 4010 9232 4211 4869 
4 9321 4960 4302 4102 
4 9319 4962 4304 4104 
4 3879 7893 3878 5712 
4 5549 9927 9868 8042 
4 9931 9871 5561 8030 
4 2915 5301 7180 2916 
4 9897 8000 5591 9985 
4 4401 4402 4508 8932 
4 3852 7920 3851 5685 
4 4213 9230 4871 4012 
4 9317 4306 4106 4964 
4 4583 8832 4451 4452 
4 8798 4608 4469 4468 
4 8009 5582 9867 9925 
4 9922 9865 5568 8023 
4 4541 9075 6290 6288 
4 9538 9353 3160 2791 
4 3878 7894 3877 5711 
4 7891 9884 3881 3880 
4 7919 3852 3853 5686 
4 7061 2746 7059 6464 
4 3125 9457 5401 7264 
4 8063 8062 3891 9921 
4 3032 9503 5355 3033 
4 5671 3838 3837 7934 
4 3840 5674 3841 7931 
4 6411 7115 7113 2693 
4 7892 9937 3880 3879 
4 9762 3684 9761 3682 
4 7996 9876 5595 9930 
4 4215 9228 4873 4014 
4 9315 4308 4108 4966 
4 7115 7114 2692 6411 
4 4217 9226 4875 4016 
4 4110 9313 4310 4968 
4 7902 3869 3870 5703 
4 4408 4409 4518 8918 
4 9909 7897 3874 3875 
4 7898 9973 3874 3873 
4 8884 4426 4425 4544 
4 4419 4418 8898 4533 
4 5213 5214 3572 8468 
4 5675 3842 3841 7930 
4 6426 6427 2708 7097 
4 7901 9908 3871 3870 
4 3854 7918 3853 5687 
4 3842 9975 3841 7930 
4 7065 7064 2742 6461 
4 7078 6446 7080 2727 
4 3140 9450 7256 3138 
4 7916 3856 3855 9977 
4 9776 9778 3660 3658 
4 7914 3857 3858 5691 
4 7053 2752 6471 6470 
4 9918 8056 5535 9854 
4 5585 8006 9877 9933 
4 9863 8020 9926 5571 
4 6399 7127 7125 2680 
4 8001 9897 5590 9961 
4 7974 9353 5617 6023 
4 8057 9918 5534 9855 
4 9926 9858 5570 8021 
4 6405 7119 2686 7121 
4 8007 5584 9862 9933 
4 3837 3838 10021 7934 
4 9939 5467 9866 7945 
4 9892 9956 5602 7989 
4 9975 3842 3841 6069 
4 9876 9951 7995 5596 
4 3018 7316 9510 3021 
4 7304 3042 3045 9498 
4 9935 9864 5551 8040 
4 5502 7910 9869 9942 
4 7339 8564 5420 6706 
4 7919 3852 9972 3853 
4 5702 7903 3869 3868 
4 7200 9401 2875 5281 
4 5586 8005 9953 9877 
4 9924 7944 9866 5468 
4 3859 7913 3858 5692 
4 6593 3744 7864 3178 
4 3881 7891 3880 5714 
4 10004 3860 3859 6087 
4 9939 9981 5466 7946 
4 5165 5166 3668 8516 
4 7917 3854 3855 5688 
4 6404 6405 2686 7121 
4 8017 5574 9878 9954 
4 5544 8047 9950 9874 
4 3204 9249 3203 4194 
4 9338 3298 4285 3297 
4 4955 4097 4297 9326 
4 4005 9237 4206 4864 
4 8004 9889 5587 9953 
4 3819 3818 5652 7953 
4 3852 7920 10008 3851 
4 9981 9895 5465 7947 
4 2730 7077 6448 6449 
4 9898 9963 5557 8034 
4 8013 5578 9962 9896 
4 3809 5643 3810 7962 
4 5359 3041 3040 9499 
4 9235 4208 4007 4866 
4 4957 4099 4299 9324 
4 9233 4210 4009 4868 
4 4959 4101 4301 9322 
4 4111 9312 4311 4969 
4 4218 9225 4876 4017 
4 4967 9314 4109 4309 
4 4216 9227 4874 4015 
4 9316 4307 4107 4965 
4 9318 4305 4105 4963 
4 4214 9229 4872 4013 
4 4212 9231 4870 4011 
4 9320 4303 4103 4961 
4 9936 5471 9880 7941 
4 7904 5701 3867 3868 
4 9864 9927 5550 8041 
4 4694 7611 7609 9757 
4 7889 9557 5715 5716 
4 9401 2876 2875 5281 
4 2731 7074 6449 6450 
4 5536 8055 9917 9854 
4 9986 5559 9944 8032 
4 9863 8019 5572 9934 
4 5472 9958 9880 7940 
4 9861 9924 5469 7943 
4 3016 5347 3017 9511 
4 5637 3804 3803 7968 
4 9858 9922 5569 8022 
4 3802 5636 3803 7969 
4 5583 8008 9862 9925 
4 9873 9931 5562 8029 
4 7110 6415 2697 6416 
4 9946 9988 5599 7992 
4 5532 8059 9919 9856 
4 5644 3811 3810 7961 
4 9986 9898 5558 8033 
4 9879 9935 5552 8039 
4 7915 9913 3857 3856 
4 5531 8060 9856 9920 
4 6419 6420 2701 7106 
4 5579 8012 9982 9896 
4 5642 3809 3808 7963 
4 8058 5533 9919 9855 
4 7896 10011 3876 3875 
4 3970 3971 7983 5801 
4 5537 8054 9853 9917 
4 3805 5639 3806 7966 
4 7912 10004 3860 3859 
4 7948 9960 9895 5464 
4 7928 3843 3844 5677 
4 3806 5640 3807 7965 
4 5635 3802 3801 7970 
4 3968 5799 3969 7985 
4 8053 9923 5538 9853 
4 9923 9859 8052 5539 
4 9859 8051 5540 9928 
4 8050 5541 9928 9860 
4 3967 3968 7986 5798 
4 8018 5573 9934 9878 
4 8049 9932 5542 9860 
4 10015 7900 3871 3872 
4 3971 3972 7982 5802 
4 6428 6429 2710 7095 
4 9932 8048 5543 9874 
4 7929 5676 3842 3843 
4 9911 7929 3842 3843 
4 6408 6407 7118 2689 
4 3883 7889 3882 5716 
4 7959 5646 3812 3813 
4 3811 5645 3812 7960 
4 9861 5470 9936 7942 
4 7042 2766 7136 6014 
4 3966 3967 7987 5797 
4 3836 5670 3837 7935 
4 9817 4647 4646 7707 
4 6401 6402 2683 7124 
4 7936 5669 3835 3836 
4 9941 9984 5547 8044 
4 5668 3835 3834 7937 
4 5638 7967 3805 3804 
4 9949 9873 5563 8028 
4 10005 7895 3876 3877 
4 5641 3808 3807 7964 
4 7984 3969 3970 5800 
4 7639 7643 4678 9777 
4 9955 9879 5553 8038 
4 2755 7052 6473 6474 
4 7894 9945 3878 3877 
4 6102 9909 3874 3875 
4 3972 3973 7981 5803 
4 3724 5048 8173 8544 
4 6992 3786 7851 7148 
4 3081 9480 7286 3079 
4 7073 2734 6453 6452 
4 6222 6224 9141 4491 
4 6070 9911 3842 3843 
4 6402 2683 7124 7122 
4 9158 5037 7131 2675 
4 5554 8037 9891 9955 
4 9887 9951 5597 7994 
4 9940 5580 8011 9982 
4 5589 8002 9961 9991 
4 9973 6101 3874 3873 
4 3845 7927 3844 5678 
4 9972 3852 6080 3853 
4 6435 6434 7091 2716 
4 9889 8003 5588 9991 
4 7921 10013 3851 3850 
4 8479 8478 5202 7002 
4 5505 7907 9952 9875 
4 9970 7926 3845 3846 
4 9988 9887 5598 7993 
4 7905 3866 3867 5700 
4 7627 4685 4686 9768 
4 5805 9644 9645 6961 
4 7589 7593 4703 9746 
4 3622 7676 9800 9802 
4 7707 4646 7705 3429 
4 9003 4597 6360 6362 
4 3860 7912 3859 5693 
4 3965 3966 7988 5796 
4 7893 9872 3879 3878 
4 3833 5667 3834 7938 
4 3819 3820 9965 7952 
4 7899 10009 3873 3872 
4 3860 7911 3861 9942 
4 6073 9970 3845 3846 
4 10022 3974 3975 7979 
4 7958 5647 3813 3814 
4 3837 3838 6065 10021 
4 9938 9983 5566 8025 
4 9913 3857 3856 6084 
4 3860 3861 6088 9942 
4 7913 10016 3859 3858 
4 8046 5545 9950 9886 
4 8016 9890 5575 9954 
4 9963 9993 5556 8035 
4 6994 8541 8172 7334 
4 9992 8014 5577 9962 
4 9121 6242 6244 4508 
4 3818 10012 3817 7954 
4 5651 3818 3817 7954 
4 3851 7921 3850 5684 
4 10014 7928 3843 3844 
4 3788 8561 8572 7853 
4 9354 8064 6024 5618 
4 7918 9906 3854 3853 
4 7063 7062 2744 6462 
4 9885 9949 5564 8027 
4 3818 3819 10006 7953 
4 9378 7178 5303 2920 
4 5354 3030 9504 3031 
4 7585 4706 4707 9743 
4 7094 7092 6431 2713 
4 3820 3819 9965 6047 
4 7903 9883 3869 3868 
4 4687 9766 7623 4686 
4 7842 9851 7864 3178 
4 2734 7071 7073 6453 
4 3974 5805 3975 7979 
4 7599 9750 4700 4701 
4 6423 6422 7103 2704 
4 3633 9794 8411 9793 
4 6274 4530 6276 9090 
4 9997 9892 5603 7988 
4 9872 5520 9937 7892 
4 9948 7904 3867 3868 
4 2759 7048 7047 6478 
4 9993 9891 5555 8036 
4 7909 5503 9869 9929 
4 9557 9556 6959 5716 
4 7959 5453 9882 9957 
4 8045 5546 9886 9984 
4 3974 7980 3973 5804 
4 6720 7026 9772 3666 
4 6420 7104 2701 7106 
4 4565 4440 8856 4439 
4 3852 10008 6079 3851 
4 9983 9885 5565 8026 
4 9890 9992 8015 5576 
4 10022 3974 6199 3975 
4 8453 8454 3547 5047 
4 2723 7084 6441 6442 
4 9959 7902 3869 3870 
4 4667 6641 6639 7665 
4 7927 10007 3845 3844 
4 3820 3819 5653 7952 
4 3857 7914 3858 10018 
4 10013 6078 3851 3850 
4 7179 5302 9379 2919 
4 6412 6411 9121 7113 
4 9908 6098 3871 3870 
4 4428 4548 8878 4429 
4 7906 5506 9952 9888 
4 3855 3856 6083 9977 
4 7889 9916 7888 3883 
4 9443 3152 7249 5416 
4 7926 3845 3846 5679 
4 4839 3756 7346 3778 
4 5268 2850 7213 2849 
4 9958 5473 9894 7939 
4 5353 3029 9505 3028 
4 8806 4464 4602 4465 
4 9643 6991 7478 6969 
4 9900 9965 5461 7951 
4 6099 10015 3871 3872 
4 7228 5253 2820 2819 
4 9960 9990 5463 7949 
4 6456 2737 6455 7070 
4 10016 3859 3858 6086 
4 7908 5504 9929 9875 
4 10011 6103 3876 3875 
4 4077 9165 4278 4936 
4 8453 8452 5049 3549 
4 3818 10012 6045 3817 
4 6071 10014 3843 3844 
4 8061 5530 9857 9920 
4 3051 5364 3050 9494 
4 7967 3805 3804 9966 
4 6292 4544 9073 6290 
4 3802 3801 7970 9967 
4 3808 3807 7964 9964 
4 9971 7984 3969 3970 
4 9969 3966 3967 7987 
4 9495 5363 3048 3049 
4 3973 9979 3972 7981 
4 6104 10005 3876 3877 
4 7178 2918 5303 2920 
4 3971 9907 3970 7983 
4 3804 3803 7968 9995 
4 9945 6105 3878 3877 
4 5310 7171 2932 2934 
4 6427 2709 7097 7098 
4 3806 3805 7966 9901 
4 3809 3808 7963 9899 
4 9937 6107 3880 3879 
4 9947 7960 5452 9882 
4 3847 7925 9905 3846 
4 3803 3802 7969 9902 
4 6348 4586 6350 9015 
4 8844 4574 4446 4445 
4 10009 6100 3873 3872 
4 9990 9900 5462 7950 
4 3810 3809 7962 9987 
4 3053 9493 3052 5365 
4 7911 3860 3861 5694 
4 4391 3402 3400 8952 
4 9398 2880 7198 5283 
4 6326 9039 6324 4568 
4 4184 6803 7884 8576 
4 4183 8575 6802 7883 
4 3819 6046 3818 10006 
4 3972 10003 3971 7982 
4 9904 3967 3968 7986 
4 9998 3968 3969 7985 
4 3807 3806 7965 9994 
4 7909 3862 3863 5696 
4 9113 4512 6250 6252 
4 3834 3835 9978 7937 
4 7922 9910 3850 3849 
4 9852 3154 6202 5615 
4 7100 6426 7099 2707 
4 3854 7917 3855 10001 
4 7910 3862 3861 9869 
4 4841 4483 9156 5031 
4 6368 8995 4602 6370 
4 7925 5487 9970 9905 
4 7955 3816 9912 3817 
4 5166 8514 5167 7026 
4 10007 6072 3845 3844 
4 3882 7890 3881 5715 
4 3564 9837 9839 3562 
4 3836 3837 10019 7935 
4 3835 7936 3836 9914 
4 3487 8850 3485 4442 
4 9979 10003 5610 7981 
4 6296 6294 4545 9069 
4 4800 9845 3550 7748 
4 3866 7906 3865 5699 
4 3812 3811 7960 9882 
4 3832 5666 3833 7939 
4 8452 9846 9844 3549 
4 9900 3820 3821 7951 
4 5725 8059 3895 3894 
4 5027 4169 4369 9254 
4 3847 9905 6074 3846 
4 7228 5253 9428 2820 
4 9906 6081 3854 3853 
4 2850 9413 5268 7213 
4 6408 7118 7116 2689 
4 2845 7216 5265 2843 
4 8058 5726 3895 3896 
4 9464 3111 7271 5394 
4 4554 8870 4432 4433 
4 3857 3858 6085 10018 
4 6429 7096 2711 7095 
4 9947 7961 9987 5451 
4 8072 9353 6023 6695 
4 7223 2831 2829 5258 
4 7166 5315 9366 2944 
4 5727 8057 3897 3896 
4 9910 6077 3850 3849 
4 6964 5642 9631 9630 
4 3812 7959 3813 9957 
4 2795 2797 5241 7240 
4 8460 8461 7021 5220 
4 7907 3864 3865 5698 
4 3831 5665 3832 7940 
4 3816 6044 9912 3817 
4 5728 8056 3898 3897 
4 5731 9719 6965 9718 
4 8055 5729 3898 3899 
4 5607 7984 9971 9998 
4 5730 8054 3900 3899 
4 3933 8020 5764 3934 
4 5664 3831 3830 7941 
4 3932 3933 8021 5763 
4 3829 5663 3830 7942 
4 5765 8019 3935 3934 
4 5731 8053 3901 3900 
4 3913 3914 8040 5744 
4 5777 8007 3947 3946 
4 5766 8018 3936 3935 
4 3914 3915 8039 5745 
4 8006 3948 5778 3947 
4 5262 2839 7219 2837 
4 7948 9895 3824 3823 
4 7063 2745 7061 6463 
4 3931 3932 8022 5762 
4 3912 3913 8041 5743 
4 8008 5776 3945 3946 
4 5662 3829 3828 7943 
4 9053 6310 6312 4561 
4 8052 5732 3901 3902 
4 7639 4678 4679 9777 
4 8001 9897 3953 3952 
4 3924 3925 8029 5755 
4 3958 5788 7996 3957 
4 2815 7231 5250 2813 
4 5474 10002 9894 7938 
4 9629 5643 6962 9630 
4 3047 9496 5362 3046 
4 5695 7910 3862 3861 
4 9904 5606 9998 7985 
4 5767 8017 3937 3936 
4 5779 3948 8005 3949 
4 5746 3916 3915 8038 
4 3925 3926 8028 5756 
4 5789 3958 7995 3959 
4 4392 4393 4495 8950 
4 5732 6963 9717 9718 
4 5419 6705 7244 8563 
4 6966 5641 9632 9631 
4 7161 2953 5320 2954 
4 3964 3965 7989 5795 
4 3906 8047 5737 3907 
4 6967 9719 5730 9720 
4 9629 6958 5644 9628 
4 10004 7911 5501 9942 
4 3821 5655 3822 7950 
4 8048 3905 3906 5736 
4 3811 9947 3810 7961 
4 5733 6960 9716 9717 
4 5640 6970 9632 9633 
4 5729 6971 9720 9721 
4 5634 6982 9638 9639 
4 9883 5510 9959 7902 
4 7190 2895 5291 2897 
4 9907 5609 10003 7982 
4 9900 3820 6048 3821 
4 6823 5652 9621 9620 
4 7924 3847 3848 5681 
4 5674 9599 6845 9598 
4 7165 2945 5316 2947 
4 5639 9634 6972 9633 
4 6983 5723 9727 9726 
4 5650 6821 9622 9623 
4 6819 5648 9625 9624 
4 6842 9601 5671 9602 
4 9709 9708 6894 5741 
4 9580 9581 5692 6863 
4 5739 9711 6892 9710 
4 9566 9565 6878 5707 
4 6830 5659 9614 9613 
4 9587 9586 6857 5686 
4 5647 6818 9625 9626 
4 9699 9700 5750 6903 
4 9563 9562 6881 5710 
4 6997 5214 8466 8467 
4 5737 6890 9712 9713 
4 6817 5646 9627 9626 
4 6889 5736 9714 9713 
4 6973 5728 9722 9721 
4 6888 5735 9715 9714 
4 9707 9706 6896 5743 
4 8000 3954 3953 9985 
4 9583 9584 5689 6860 
4 3825 9981 3824 7947 
4 5668 6839 9604 9605 
4 9648 9649 5801 6954 
4 7161 5320 9361 2954 
4 9592 9593 5680 6851 
4 9572 5701 9571 6872 
4 9658 9657 6945 5792 
4 9690 9691 5759 6912 
4 6854 9590 9589 5683 
4 9595 9596 5677 6848 
4 6951 9652 9651 5798 
4 5783 6936 9666 9667 
4 6924 5771 9679 9678 
4 5695 9577 9578 6866 
4 5786 6939 9663 9664 
4 9676 6927 5774 9675 
4 5507 7905 9989 9888 
4 6884 9560 9559 5713 
4 9698 9699 5751 6904 
4 5660 6831 9612 9613 
4 4704 7589 4703 9746 
4 6820 5649 9624 9623 
4 9568 9569 5704 6875 
4 9559 9558 6885 5714 
4 9655 9654 6948 5795 
4 6933 5780 9670 9669 
4 6921 5768 9682 9681 
4 8060 5724 3893 3894 
4 7204 2869 2867 5277 
4 9607 5665 6836 9608 
4 6909 9694 9693 5756 
4 9635 9634 6974 5638 
4 9575 9574 6869 5698 
4 9660 9661 5789 6942 
4 6844 9599 5673 9600 
4 3930 3931 8023 5761 
4 9687 9688 5762 6915 
4 3911 3912 8042 5742 
4 9685 6918 5765 9684 
4 6930 5777 9673 9672 
4 5661 7944 3828 3827 
4 5775 8009 3945 3944 
4 9710 9709 6893 5740 
4 6822 5651 9622 9621 
4 9643 9644 5806 6969 
4 5787 7997 3957 3956 
4 3923 3924 8030 5754 
4 8453 9848 9846 3549 
4 9700 9701 5749 6902 
4 9711 5738 6891 9712 
4 7922 9974 9910 5490 
4 9578 9579 5694 6865 
4 5658 6829 9614 9615 
4 9593 9594 5679 6850 
4 9588 9587 6856 5685 
4 9566 9567 5706 6877 
4 6825 5654 9619 9618 
4 6975 5727 9723 9722 
4 9708 9707 6895 5742 
4 3847 7925 3846 5680 
4 9561 9560 6883 5712 
4 9649 9650 5800 6953 
4 9045 6318 6320 4565 
4 4676 7647 4675 9781 
4 9591 9590 6853 5682 
4 9596 5676 6847 9597 
4 9652 9653 5797 6950 
4 9668 6935 5782 9667 
4 6923 5770 9680 9679 
4 7906 3866 3865 9888 
4 6841 5670 9603 9602 
4 9581 9582 5691 6862 
4 6938 5785 9665 9664 
4 6926 9676 5773 9677 
4 9564 9563 6880 5709 
4 5733 8051 3903 3902 
4 9584 9585 5688 6859 
4 7162 5319 9362 2952 
4 5648 3815 3814 7957 
4 9017 7061 6464 6463 
4 6838 5667 9606 9605 
4 9572 6871 9573 5700 
4 9659 9658 6944 5791 
4 9691 9692 5758 6911 
4 9704 6898 9705 5745 
4 9569 9570 5703 6874 
4 6947 9656 9655 5794 
4 9688 9689 5761 6914 
4 5767 6920 9682 9683 
4 5779 6932 9670 9671 
4 3926 3927 8027 5757 
4 3959 3960 7994 5790 
4 9576 9575 6868 5697 
4 9661 5788 6941 9662 
4 6929 5776 9674 9673 
4 9685 6917 9686 5764 
4 8004 5780 3949 3950 
4 8037 3916 3917 5747 
4 8016 5768 3937 3938 
4 5738 8046 3908 3907 
4 5655 6826 9617 9618 
4 9616 6828 5657 9615 
4 9616 5656 6827 9617 
4 9558 9557 6886 5715 
4 9701 9702 5748 6901 
4 9694 9695 5755 6908 
4 5664 6835 9608 9609 
4 5746 9703 9704 6899 
4 9702 9703 5747 6900 
4 4661 9799 4662 7675 
4 3832 3833 9894 7939 
4 9646 9647 5803 6956 
4 3850 7922 3849 5683 
4 9648 9647 6955 5802 
4 3963 3964 7990 5794 
4 6980 5635 9638 9637 
4 9636 5636 6978 9637 
4 4533 9087 6278 6276 
4 9601 6843 5672 9600 
4 5650 3816 7955 3817 
4 3864 7907 3865 9952 
4 9579 9580 5693 6864 
4 9635 9636 5637 6976 
4 4516 9111 6254 6252 
4 5725 6979 9724 9725 
4 5675 6846 9597 9598 
4 5724 6981 9725 9726 
4 9562 9561 6882 5711 
4 2738 7068 7069 6456 
4 9594 9595 5678 6849 
4 10022 9915 5612 7979 
4 9987 7962 9899 5450 
4 5653 6824 9619 9620 
4 5726 6977 9723 9724 
4 3831 3832 9958 7940 
4 9565 9564 6879 5708 
4 3826 9939 3825 7946 
4 9586 9585 6858 5687 
4 5669 6840 9603 9604 
4 9582 9583 5690 6861 
4 9589 9588 6855 5684 
4 3954 7999 3955 9943 
4 9567 9568 5705 6876 
4 5799 9650 9651 6952 
4 9591 9592 5681 6852 
4 5784 6937 9665 9666 
4 5772 6925 9677 9678 
4 9571 5702 9570 6873 
4 9657 9656 6946 5793 
4 9689 9690 5760 6913 
4 9653 9654 5796 6949 
4 6934 9668 5781 9669 
4 5769 6922 9680 9681 
4 9976 7955 5457 9912 
4 5666 9607 6837 9606 
4 9692 9693 5757 6910 
4 9574 9573 6870 5699 
4 9660 9659 6943 5790 
4 9577 9576 6867 5696 
4 5787 6940 9662 9663 
4 6928 5775 9675 9674 
4 5766 6919 9683 9684 
4 6931 5778 9672 9671 
4 9686 9687 5763 6916 
4 9706 9705 6897 5744 
4 5645 6816 9627 9628 
4 3974 7980 9915 3973 
4 9964 7964 9994 5448 
4 3965 9892 3964 7989 
4 9698 5752 9697 6905 
4 5734 6887 9715 9716 
4 3905 5735 8049 3904 
4 5661 6832 9611 9612 
4 2836 7220 9420 5261 
4 9695 9696 5754 6907 
4 5663 9610 6834 9609 
4 9907 9971 5608 7983 
4 5519 9872 9945 7893 
4 9883 9948 5509 7903 
4 3964 9956 3963 7990 
4 6076 9974 3848 3849 
4 3779 7859 3757 479 
4 9994 7965 9901 5447 
4 9904 9969 5605 7986 
4 3829 9861 3828 7943 
4 3830 3831 9880 7941 
4 3829 3830 9936 7942 
4 8062 8061 3892 9857 
4 9995 7967 5445 9966 
4 6423 7103 7101 2704 
4 7194 5287 9394 2888 
4 3951 8002 3952 9961 
4 4411 8912 4412 4523 
4 7944 9924 3828 3827 
4 4397 4500 4396 8942 
4 9965 10006 5460 7952 
4 9887 3959 3960 7994 
4 5734 8050 3904 3903 
4 9556 7888 5717 5716 
4 7997 3957 3956 9930 
4 9889 8004 3949 3950 
4 9696 9697 5753 6906 
4 3958 9951 7995 3959 
4 7044 2762 6481 8983 
4 9969 9997 5604 7987 
4 9876 3958 7996 3957 
4 4388 4387 8960 4487 
4 3864 7908 3863 5697 
4 3948 8005 3949 9953 
4 6833 9610 5662 9611 
4 8987 6376 6378 4608 
4 3927 3928 8026 5758 
4 8045 5739 3908 3909 
4 3960 3961 7993 5791 
4 4571 6330 6328 8208 
4 3917 3918 8036 5748 
4 5781 8003 3951 3950 
4 5769 8015 3939 3938 
4 3820 5654 3821 7951 
4 3813 7958 3814 9893 
4 6344 6346 9020 4584 
4 9976 3816 3815 6043 
4 7924 5488 9905 9999 
4 3962 9946 3961 7992 
4 9645 6957 9646 5804 
4 7237 2802 2801 5244 
4 7905 3866 9989 3867 
4 9883 6096 3869 3868 
4 9908 9959 5511 7901 
4 9866 3826 3827 7945 
4 3955 7998 3956 9870 
4 3826 5660 3827 7945 
4 5774 3943 8010 3944 
4 7998 5786 3955 3956 
4 8031 3922 3923 5753 
4 3929 3930 8024 5760 
4 3910 3911 8043 5741 
4 9996 7971 9903 5441 
4 3962 3963 7991 5793 
4 9970 7926 10007 5486 
4 9899 7963 9964 5449 
4 9881 3962 3963 7991 
4 7924 3847 9999 3848 
4 8012 5772 3941 3942 
4 3920 3921 8033 5751 
4 3954 5784 8000 3953 
4 5658 3825 3824 7947 
4 7966 9966 9901 5446 
4 3966 9997 3965 7988 
4 7042 9157 5038 2765 
4 3833 3834 10002 7938 
4 9974 7923 3848 3849 
4 3699 9750 9751 8377 
4 9021 6342 6344 4583 
4 9960 3822 3823 7949 
4 3775 3175 3761 7144 
4 7187 5294 9387 2902 
4 9990 3821 3822 7950 
4 5659 3826 3825 7946 
4 3943 5773 8011 3942 
4 5785 3954 7999 3955 
4 5752 3922 3921 8032 
4 5247 2808 7234 2806 
4 6095 9948 3867 3868 
4 9915 7980 9979 5611 
4 3862 7909 3863 9929 
4 9872 6106 3879 3878 
4 6983 6815 7562 9727 
4 6814 7469 6982 9639 
4 5657 7948 3824 3823 
4 5771 8013 3941 3940 
4 5783 8001 3953 3952 
4 3919 3920 8034 5750 
4 3928 3929 8025 5759 
4 3909 3910 8044 5740 
4 3993 4852 9249 4194 
4 4943 9338 4085 4285 
4 3961 3962 7992 5792 
4 10013 7921 9910 5491 
4 9948 9989 5508 7904 
4 6688 8067 5422 8549 
4 8014 5770 3939 3940 
4 8002 5782 3951 3952 
4 3918 3919 8035 5749 
4 7968 9902 9995 5444 
4 8454 9548 3547 6691 
4 9777 3657 9775 8398 
4 8431 3591 9819 9817 
4 3643 8405 9784 9786 
4 7311 3029 5354 9505 
4 3802 3801 9967 6029 
4 8550 8068 6687 5421 
4 3816 9976 3815 7956 
4 5529 8062 9857 9921 
4 5492 7920 10008 10013 
4 7929 9975 9911 5483 
4 5496 7916 9977 10001 
4 7972 9968 9903 5440 
4 9979 6197 3973 3972 
4 5166 8514 7026 8515 
4 6457 7068 6456 9031 
4 9912 5458 10012 7954 
4 7183 2908 5298 2910 
4 5521 9884 9937 7891 
4 6194 9971 3969 3970 
4 7923 3848 3849 5682 
4 6799 7031 7151 3787 
4 7149 6798 7030 3785 
4 3805 6032 3804 9966 
4 3132 9453 3133 5405 
4 7919 10008 9972 5493 
4 3861 3862 6089 9869 
4 3808 6035 3807 9964 
4 7087 6437 7088 2719 
4 8846 4571 4445 4444 
4 6336 9029 6334 4575 
4 5649 3816 3815 7956 
4 7923 9999 9974 5489 
4 6308 6306 4558 8219 
4 7861 3777 436 3755 
4 7537 9702 6901 6900 
4 2760 7045 7048 6478 
4 7313 5352 9506 3027 
4 7446 9616 6828 6827 
4 2762 7044 7046 8983 
4 5518 7894 9945 10005 
4 3803 3802 9902 6030 
4 7538 9703 6900 6899 
4 6826 7447 6827 9617 
4 7058 2750 7056 6468 
4 7445 6829 6828 9615 
4 6198 3974 9915 3973 
4 7536 9701 6902 6901 
4 10006 10012 5459 7953 
4 3835 3836 6063 9914 
4 9897 3953 3952 6177 
4 9895 6051 3824 3823 
4 7970 9996 9967 5442 
4 6898 9704 7539 6899 
4 6825 7448 6826 9618 
4 3107 9467 7273 5392 
4 9073 6436 6435 7089 
4 6829 7444 6830 9614 
4 9700 7535 6902 6903 
4 6064 3836 3837 10019 
4 3775 7845 8565 7144 
4 9907 6195 3971 3970 
4 7958 5454 9957 9893 
4 9969 3966 6191 3967 
4 3822 5656 3823 7949 
4 3854 3855 6082 10001 
4 7928 9911 10014 5484 
4 9999 3847 6075 3848 
4 6436 7089 7088 2718 
4 5517 10005 10011 7895 
4 3834 3835 6062 9978 
4 7936 5476 9978 9914 
4 5288 7193 2889 2890 
4 6192 9904 3967 3968 
4 3806 3805 9901 6033 
4 10002 5475 9978 7937 
4 3048 9495 5364 7301 
4 4623 9548 7754 9541 
4 5443 7969 9902 9967 
4 6050 9960 3822 3823 
4 9813 4650 4649 7701 
4 7908 3864 3863 9875 
4 3809 3808 9899 6036 
4 10007 7927 10014 5485 
4 2903 5295 7186 2904 
4 9906 7917 5495 10001 
4 3127 9456 5402 7263 
4 7083 2724 7081 6442 
4 9914 5477 10019 7935 
4 6803 8098 8576 5428 
4 8575 8097 5427 6802 
4 5482 9975 10010 7930 
4 7146 3759 3173 3773 
4 6298 9067 6296 4548 
4 7096 7094 6430 2712 
4 5478 10021 10019 7934 
4 9129 6234 6236 4502 
4 9708 7543 6894 6895 
4 7089 6435 7090 2717 
4 7452 6822 6821 9622 
4 5516 10011 9909 7896 
4 7545 6892 9710 6893 
4 9707 7542 6895 6896 
4 8566 7146 3773 7847 
4 6891 6890 7547 9712 
4 6892 9711 6891 7546 
4 7544 9709 6894 6893 
4 6819 7454 6820 9624 
4 7453 6821 6820 9623 
4 7451 6823 6822 9621 
4 9705 6898 7540 6897 
4 9059 6304 6306 4554 
4 7449 6825 6824 9619 
4 9539 9354 6696 3164 
4 6890 6889 7548 9713 
4 6818 7455 6819 9625 
4 9069 6438 6437 7087 
4 6097 9959 3869 3870 
4 9147 4488 6216 6218 
4 7534 9699 6904 6903 
4 9558 6885 6886 7388 
4 6889 6888 7549 9714 
4 6830 7443 6831 9613 
4 7456 6818 6817 9626 
4 7918 9972 9906 5494 
4 7541 9706 6897 6896 
4 10003 6196 3972 3971 
4 2881 5284 7197 2882 
4 8003 3951 3950 9991 
4 7450 6824 6823 9620 
4 9988 3960 3961 7993 
4 3804 3803 9995 6031 
4 3951 3952 6176 9961 
4 9441 2795 5240 7241 
4 8059 3895 3894 9919 
4 6436 9071 6437 7088 
4 6816 7457 6817 9627 
4 6888 6887 7550 9715 
4 3813 3814 6041 9893 
4 3865 3866 6093 9888 
4 3707 9745 9746 8373 
4 3015 5346 3014 9512 
4 3041 7306 5359 9500 
4 9981 6052 3825 3824 
4 6060 3832 3833 9894 
4 6193 9998 3968 3969 
4 10000 5455 7957 9893 
4 6228 6230 9135 4498 
4 3953 3954 6178 9985 
4 3406 4392 3400 8952 
4 3895 8058 3896 9855 
4 10016 10004 7912 5500 
4 3807 3806 9994 6034 
4 6884 7390 9560 6883 
4 7523 9688 6915 6914 
4 7520 6917 9685 6918 
4 6930 6929 7508 9673 
4 6942 9661 6941 7496 
4 9575 6868 6869 7405 
4 6947 9655 7490 6948 
4 6921 6920 7517 9682 
4 6933 6932 7505 9670 
4 9569 6874 6875 7399 
4 9596 6847 6848 7426 
4 9649 7484 6953 6954 
4 7493 9658 6945 6944 
4 9572 6871 6872 7402 
4 6860 9584 6859 7414 
4 6866 9578 6865 7408 
4 9691 7526 6911 6912 
4 6838 7435 6839 9605 
4 6927 9676 6926 7511 
4 6939 6938 7499 9664 
4 9593 6850 6851 7423 
4 6924 6923 7514 9679 
4 6936 6935 7502 9667 
4 9652 6951 7487 6950 
4 6854 9590 6853 7420 
4 6184 9887 3959 3960 
4 5515 9909 9973 7897 
4 9563 6880 6881 7393 
4 6863 9581 6862 7411 
4 7432 6842 6841 9602 
4 9587 6856 6857 7417 
4 9566 6877 6878 7396 
4 6977 6979 7559 9724 
4 6844 9599 7429 6845 
4 9636 7466 6978 6976 
4 7915 9913 5497 9977 
4 6909 7529 9694 6908 
4 6835 7438 6836 9608 
4 3931 9922 3930 8023 
4 8009 3945 3944 9925 
4 9927 3911 3912 8042 
4 3924 9931 3923 8030 
4 9939 6053 3826 3825 
4 8057 9918 3897 3896 
4 9892 6189 3965 3964 
4 3949 9889 3950 6174 
4 6979 6981 7560 9725 
4 8056 3898 3897 9854 
4 6980 7467 6978 9637 
4 3954 3955 6179 9943 
4 3898 8055 3899 9917 
4 9926 3932 3933 8021 
4 8054 3900 3899 9853 
4 9863 8020 3933 3934 
4 3931 3932 9858 8022 
4 3945 8008 3946 9862 
4 9864 3912 3913 8041 
4 6801 7760 3541 9536 
4 9559 6884 6885 7389 
4 8053 9923 3901 3900 
4 8007 3947 3946 9933 
4 3914 9935 3913 8040 
4 8019 3935 3934 9934 
4 7303 3044 5362 9497 
4 8006 3948 3947 9877 
4 3020 5350 7315 9509 
4 9646 6957 7481 6956 
4 9873 3924 3925 8029 
4 3915 9879 3914 8039 
4 8018 3936 3935 9878 
4 9689 7524 6913 6914 
4 9656 6947 7491 6946 
4 6874 9570 6873 7400 
4 9561 6882 6883 7391 
4 6929 6928 7509 9674 
4 6941 6940 7497 9662 
4 6868 9576 6867 7406 
4 9686 6917 7521 6916 
4 6920 6919 7518 9683 
4 6932 6931 7506 9671 
4 9340 3296 3295 7563 
4 9251 3202 3201 7470 
4 9585 6858 6859 7415 
4 9859 8052 3901 3902 
4 6880 9564 6879 7394 
4 7494 9659 6944 6943 
4 6871 9573 6870 7403 
4 6862 9582 6861 7412 
4 7433 6841 6840 9603 
4 7527 9692 6911 6910 
4 6837 7436 6838 9606 
4 7485 9650 6953 6952 
4 6926 6925 7512 9677 
4 6938 6937 7500 9665 
4 6853 9591 6852 7421 
4 7488 9653 6950 6949 
4 6923 6922 7515 9680 
4 9668 6934 6935 7503 
4 6991 9643 5806 6969 
4 7427 6847 6846 9597 
4 3810 3809 9987 6037 
4 7418 9588 6856 6855 
4 9567 6876 6877 7397 
4 10021 5479 10020 7933 
4 9579 6864 6865 7409 
4 9647 7482 6955 6956 
4 6850 9594 6849 7424 
4 7430 6844 6843 9600 
4 6975 6977 7558 9723 
4 7442 6832 6831 9612 
4 7483 9648 6955 6954 
4 9635 7465 6976 6974 
4 6017 8599 8977 8553 
4 7533 9698 6905 6904 
4 9083 7094 6431 6430 
4 6928 6927 7510 9675 
4 6940 6939 7498 9663 
4 9577 6866 6867 7407 
4 9687 7522 6915 6916 
4 6931 6930 7507 9672 
4 6919 6918 7519 9684 
4 6942 9660 7495 6943 
4 6870 9574 6869 7404 
4 6925 6924 7513 9678 
4 6937 6936 7501 9666 
4 7422 9592 6852 6851 
4 6951 9651 7486 6952 
4 7419 6854 9589 6855 
4 7489 9654 6949 6948 
4 6922 6921 7516 9681 
4 6934 6933 7504 9669 
4 6876 9568 6875 7398 
4 6887 6960 7551 9716 
4 7528 6909 9693 6910 
4 7437 9607 6837 6836 
4 9657 7492 6945 6946 
4 7401 9571 6873 6872 
4 7525 9690 6913 6912 
4 6858 9586 6857 7416 
4 9565 7395 6878 6879 
4 9583 7413 6860 6861 
4 7434 6840 6839 9604 
4 6849 9595 6848 7425 
4 4801 8456 4802 7752 
4 9007 7056 6469 6468 
4 6958 7458 6816 9628 
4 6845 7428 6846 9598 
4 7392 9562 6882 6881 
4 6864 9580 6863 7410 
4 9601 7431 6842 6843 
4 3893 8060 3894 9856 
4 6973 6975 7557 9722 
4 10015 9908 5512 7900 
4 3815 10000 3814 7957 
4 9634 7464 6974 6972 
4 9467 7273 5392 3104 
4 9695 7530 6907 6908 
4 7439 6835 6834 9609 
4 8852 3487 3483 6551 
4 6049 9990 3821 3822 
4 3905 8048 3906 9874 
4 4477 5037 9344 9158 
4 9946 6186 3962 3961 
4 3402 6491 3398 8954 
4 6971 6973 7556 9721 
4 6972 7463 6970 9633 
4 3926 9949 3925 8028 
4 3916 9955 3915 8038 
4 8017 3937 3936 9954 
4 6832 7441 6833 9611 
4 7318 5347 3017 9512 
4 9697 7532 6905 6906 
4 7627 7629 4685 9768 
4 3906 8047 3907 9950 
4 9742 7582 4717 6707 
4 6354 4590 6356 9010 
4 9792 4757 6727 7662 
4 10009 5514 9973 7898 
4 10000 9976 7956 5456 
4 6960 6963 7552 9717 
4 5282 2879 9399 7199 
4 7459 9629 6958 6962 
4 3458 4665 7667 7669 
4 7598 4725 9752 6711 
4 6967 6971 7555 9720 
4 9756 7606 4729 6713 
4 6970 7462 6966 9632 
4 10017 5481 10010 7931 
4 8051 3903 3902 9928 
4 3943 8010 3944 9867 
4 9871 8031 3922 3923 
4 7276 8146 6996 5198 
4 7978 10022 10023 5613 
4 3930 9865 3929 8024 
4 3911 9868 3910 8043 
4 3864 3865 6092 9952 
4 6740 9825 4783 7714 
4 3831 3832 6059 9958 
4 7334 5331 9527 2985 
4 9250 9251 3202 4192 
4 3296 9339 9340 4283 
4 3136 9452 7258 5407 
4 9932 3905 8049 3904 
4 9747 7590 4721 6709 
4 7694 4773 9812 6735 
4 6457 7068 7066 2739 
4 6734 4771 7690 9809 
4 9696 7531 6906 6907 
4 9610 7440 6833 6834 
4 4719 7586 6708 9744 
4 10016 5499 7913 10018 
4 9005 7055 6470 6469 
4 9719 6967 6965 7554 
4 7461 6964 6966 9631 
4 9951 3958 6183 3959 
4 4761 7672 6729 9798 
4 6981 6983 7561 9726 
4 7468 6980 6982 9638 
4 7337 2979 9354 2977 
4 5208 7022 8142 7266 
4 5341 7324 3004 9517 
4 5369 7296 3060 9489 
4 3948 3949 6173 9953 
4 6057 3829 3830 9936 
4 3829 9861 6056 3828 
4 7668 6728 4759 9795 
4 9475 5383 3088 7282 
4 7596 4723 9749 6710 
4 7610 4731 9759 6714 
4 7604 4727 9754 6712 
4 9913 7914 5498 10018 
4 3830 3831 6058 9880 
4 5343 7322 3008 9515 
4 8050 3904 3903 9860 
4 3000 5339 7326 9519 
4 9876 3958 3957 6182 
4 5186 7025 8151 7288 
4 4487 8265 6216 6214 
4 9463 3112 7270 5395 
4 3550 9847 7752 7748 
4 3862 3863 6090 9929 
4 9956 6188 3964 3963 
4 7651 4674 4675 9782 
4 5422 4808 8549 6700 
4 5397 3116 9461 7268 
4 3811 3812 6039 9882 
4 6963 6965 7553 9718 
4 6964 7460 6962 9630 
4 10009 10015 5513 7899 
4 9885 3926 3927 8027 
4 8046 3908 3907 9886 
4 9890 8016 3937 3938 
4 8037 3916 9891 3917 
4 3941 8012 3942 9982 
4 9986 3920 3921 8033 
4 7252 8137 7001 5222 
4 2876 9401 7200 5281 
4 6054 9866 3826 3827 
4 7332 5333 9525 2988 
4 4807 8550 5421 6699 
4 6187 9881 3962 3963 
4 3955 3956 6180 9870 
4 9482 3077 5377 7288 
4 3153 9443 5415 7250 
4 9924 6055 3828 3827 
4 7062 7065 2743 6461 
4 3863 5504 6090 9929 
4 4523 6262 8241 6264 
4 3956 3957 6181 9930 
4 3812 3813 6040 9957 
4 4634 9832 4635 7731 
4 9983 3927 3928 8026 
4 8045 3908 9984 3909 
4 3485 8850 3490 4443 
4 3298 9337 4286 3299 
4 9248 4195 3204 3205 
4 8015 9992 3939 3938 
4 9993 3917 3918 8036 
4 5310 7171 2934 9371 
4 5480 10017 10020 7932 
4 9947 3811 3810 6038 
4 9557 6886 6959 7387 
4 8013 3941 3940 9896 
4 3920 9898 3919 8034 
4 9538 2791 2789 7243 
4 7297 3056 3059 9491 
4 3068 9485 5373 7292 
4 7046 2761 6480 8986 
4 3084 7283 9477 3087 
4 2708 6426 7097 7100 
4 9099 4524 6264 6266 
4 5302 2918 9379 2919 
4 10000 3815 3814 6042 
4 5337 7328 2996 9521 
4 6656 8848 3490 7631 
4 5436 6006 3157 7344 
4 5522 9980 9884 7890 
4 9443 3152 5415 7250 
4 7686 6733 4769 9807 
4 6479 7045 6478 8987 
4 7025 8495 8151 7288 
4 2839 9419 5262 7219 
4 9398 2881 2880 5283 
4 2845 7216 9416 5265 
4 3863 3864 6091 9875 
4 4666 9793 4667 7665 
4 7474 9549 7473 3385 
4 6726 9789 4755 7660 
4 9548 9848 3547 4623 
4 7712 4781 9822 6739 
4 3402 7735 3400 8952 
4 7043 2764 6394 6482 
4 7276 8146 8483 6996 
4 7022 8473 8142 7266 
4 3624 3622 9800 9802 
4 7049 7051 2756 6474 
4 7231 9431 2815 5250 
4 8884 3458 6533 7667 
4 8850 3487 3485 7633 
4 6411 7115 9121 7113 
4 5315 2945 9366 2944 
4 3820 9965 5461 6047 
4 7085 2720 6438 7087 
4 6256 4515 8245 9110 
4 3503 8828 3506 6566 
4 5216 7010 8139 7258 
4 6957 9645 7480 6961 
4 7617 7615 4692 9760 
4 6413 6412 9119 2694 
4 5487 9970 6073 3846 
4 9411 7210 5271 2855 
4 5269 9413 7212 2851 
4 4666 4667 3461 7665 
4 9940 3943 8011 3942 
4 3922 9944 3921 8032 
4 7076 7077 2730 6449 
4 3866 6094 9989 3867 
4 6057 3830 5471 9936 
4 5321 7160 2955 9361 
4 9442 9441 2794 7241 
4 3861 5502 6088 9942 
4 2698 6416 7107 7109 
4 4687 7625 7623 9765 
4 9938 3928 3929 8025 
4 9941 3909 3910 8044 
4 6061 3833 3834 10002 
4 9428 2821 7227 5254 
4 3939 8014 3940 9962 
4 3919 9963 3918 8035 
4 3950 3951 6175 9991 
4 9861 3829 6056 5470 
4 9408 9409 7208 5273 
4 5306 7175 9376 9375 
4 2879 5282 9399 2878 
4 5409 3140 9449 7256 
4 5634 3801 3800 7971 
4 6185 9988 3960 3961 
4 8890 4423 4422 4538 
4 5345 7320 3013 9513 
4 9479 3081 7286 5379 
4 3073 9483 5375 7290 
4 9997 6190 3966 3965 
4 4436 4559 8862 4437 
4 7150 7853 6993 581 
4 9452 7258 5407 3134 
4 2697 7110 6416 7109 
4 5247 2808 9434 7234 
4 7637 4681 4682 9773 
4 9844 4626 4625 7749 
4 9951 6183 5597 3959 
4 6040 3813 5454 9957 
4 9971 6194 5608 3970 
4 9033 6330 6332 4574 
4 3819 6046 10006 5460 
4 6256 4518 6258 8244 
4 9924 6055 5469 3828 
4 3816 9976 5457 6043 
4 7064 6460 6461 9024 
4 5598 9887 6184 3960 
4 6750 4714 9738 8543 
4 5633 6814 9639 9640 
4 9876 3958 6182 5596 
4 6815 5722 9728 9727 
4 10022 6199 5613 3975 
4 5672 5673 7932 9600 
4 3862 5503 6089 9869 
4 7053 7055 2752 6470 
4 8874 3464 6538 3467 
4 7369 4184 6484 5622 
4 5621 4183 7368 6483 
4 7252 8137 8459 7001 
4 6181 3957 5595 9930 
4 484 7851 483 304 
4 2917 7179 9380 2919 
4 2881 9398 7198 5283 
4 9404 2869 7204 5277 
4 2797 9440 5241 7240 
4 3118 9460 5399 7266 
4 3093 9473 5385 7280 
4 5335 7330 2993 9523 
4 6411 7114 6410 9124 
4 5371 7294 3065 9487 
4 10007 6072 5486 3845 
4 5090 8412 8413 7201 
4 7051 7052 2755 6474 
4 3805 6032 9966 5446 
4 6092 3865 5506 9952 
4 9599 5674 5673 7931 
4 2942 5314 2943 9367 
4 3832 5473 6059 9958 
4 7568 6387 6804 7371 
4 6388 6805 7569 7373 
4 7010 8465 8139 7258 
4 9021 7062 6462 6461 
4 9225 4218 3227 3228 
4 3323 3324 9312 4311 
4 6058 3831 5472 9880 
4 5611 9979 6197 3973 
4 9229 4214 3223 3224 
4 3319 3320 9316 4307 
4 5464 9960 6050 3823 
4 9353 2793 2791 7242 
4 9601 5672 5671 7933 
4 9421 2835 5260 2834 
4 4481 8361 9155 6209 
4 7180 5301 9380 2916 
4 5651 5650 9622 7954 
4 9589 7921 5684 5683 
4 5318 2950 9363 2951 
4 7074 7076 2731 6449 
4 4425 4424 8886 4541 
4 9900 6048 5462 3821 
4 9996 3801 6028 5442 
4 9227 4216 3225 3226 
4 3321 3322 9314 4309 
4 5286 2886 9395 2887 
4 3814 5455 6041 9893 
4 4801 8456 3548 4802 
4 3949 5587 6173 9953 
4 3684 9762 9761 8523 
4 2945 7166 5315 9366 
4 9766 4687 7623 9765 
4 9556 6959 6968 7386 
4 4414 4415 4527 8906 
4 7057 9010 6467 6468 
4 9401 2874 7201 5280 
4 2942 7166 9367 2944 
4 8694 4850 3990 9251 
4 8785 9340 4941 4082 
4 5490 9974 6076 3849 
4 9892 6189 5603 3965 
4 7597 3520 7599 4700 
4 9409 7208 5273 2858 
4 7175 2924 5306 9376 
4 7655 4672 4673 9784 
4 9091 6427 6426 7097 
4 7676 3454 3452 6529 
4 7731 4635 6605 6607 
4 7134 8579 6700 2671 
4 7974 3797 7973 9641 
4 4389 4388 8958 4488 
4 4650 7701 6622 6621 
4 9644 7479 6961 6969 
4 8850 3485 3490 7635 
4 6176 3952 5590 9961 
4 9354 6696 6024 8074 
4 9956 6188 5602 3964 
4 2831 7223 9423 5258 
4 4763 6730 9800 8494 
4 8209 8210 4573 4443 
4 7220 2836 9421 2834 
4 7047 6477 6478 8990 
4 3895 6119 3894 9919 
4 5467 9939 6053 3826 
4 7255 5219 8462 5220 
4 8580 6699 7139 2668 
4 5674 5675 7930 9598 
4 7165 5316 9365 2947 
4 4462 8812 4596 4461 
4 9889 3950 6174 5588 
4 7063 6462 6463 9020 
4 8458 4799 9845 6748 
4 2918 7179 5302 9379 
4 6039 3812 5453 9882 
4 2950 7162 9363 2952 
4 2873 9402 2872 5279 
4 2886 7194 9395 2888 
4 4840 3758 6805 7347 
4 4839 3756 6804 7346 
4 7737 3406 3400 8952 
4 7897 9565 5707 5708 
4 7890 9558 5714 5715 
4 5293 2900 9388 2901 
4 3955 5593 6179 9943 
4 9446 3149 5413 7252 
4 4397 8940 4398 4502 
4 4412 4413 4524 8910 
4 3097 9471 5387 7278 
4 5319 2953 9362 2952 
4 9420 2836 5261 2837 
4 9326 4297 3309 3310 
4 9237 4206 3215 3216 
4 3895 3896 6120 9855 
4 9446 5413 3146 7252 
4 7898 9566 5706 5707 
4 9946 6186 5600 3962 
4 3864 5505 6091 9875 
4 2900 7187 9388 2902 
4 7190 5291 9390 2897 
4 7469 9250 3202 3203 
4 3296 9339 3297 7562 
4 9378 2921 7177 5304 
4 3899 3900 6124 9853 
4 7888 3883 5717 5716 
4 3495 4687 7623 4686 
4 3932 3931 9858 6156 
4 3898 3899 6123 9917 
4 3945 3946 6170 9862 
4 6137 9864 3912 3913 
4 9918 3897 3896 6121 
4 3931 9922 6155 3930 
4 3945 6169 3944 9925 
4 6136 9927 3911 3912 
4 9923 3901 3900 6125 
4 3934 3935 6159 9934 
4 3924 9931 6148 3923 
4 4299 9324 3312 3311 
4 4208 9235 3218 3217 
4 9058 6306 6308 8219 
4 4483 9156 5031 8359 
4 4403 4404 4509 8928 
4 9873 3924 6149 3925 
4 6428 2710 7098 7095 
4 3935 3936 6160 9878 
4 8511 9776 9778 3660 
4 9393 7193 5288 2890 
4 5670 5671 7934 9602 
4 3897 3898 6122 9854 
4 9233 4210 3219 3220 
4 9322 4301 3313 3314 
4 4303 3316 3315 9320 
4 9879 6139 3915 3914 
4 9926 3932 6157 3933 
4 6158 9863 3933 3934 
4 9935 6138 3914 3913 
4 3946 3947 6171 9933 
4 3901 9859 3902 6126 
4 3947 3948 6172 9877 
4 3082 9479 7285 5380 
4 2802 7237 9437 5244 
4 9460 3121 5399 7266 
4 9410 9411 7210 5271 
4 9588 7920 5685 5684 
4 2763 7043 7044 8981 
4 9231 4212 3221 3222 
4 3317 3318 9318 4305 
4 8590 8976 6014 8180 
4 7171 2932 2934 9372 
4 9564 7896 5709 5708 
4 9094 6426 6425 7099 
4 3893 3894 6118 9856 
4 3801 9996 3800 7971 
4 2880 9399 7198 2878 
4 3916 9955 6140 3915 
4 9902 3803 6030 5444 
4 9949 6150 3926 3925 
4 3905 3906 6130 9874 
4 4287 9336 3300 3299 
4 9247 4196 3205 3206 
4 9995 3804 6031 5445 
4 9587 7919 5686 5685 
4 3936 3937 6161 9954 
4 3953 9897 5591 6177 
4 9866 6054 5468 3827 
4 3906 3907 6131 9950 
4 9907 6195 5609 3971 
4 7186 5295 9386 2904 
4 3054 9493 7299 5366 
4 3433 6515 7700 3435 
4 8599 7152 7845 2972 
4 6044 5458 9912 3817 
4 9881 6187 5601 3963 
4 9837 6745 8464 4793 
4 7895 9563 5709 5710 
4 9837 3564 9839 8463 
4 5491 9910 6077 3850 
4 2723 7083 7084 6442 
4 5610 10003 6196 3972 
4 3902 3903 6127 9928 
4 9596 5676 7928 5677 
4 9584 7916 5689 5688 
4 7899 9567 5705 5706 
4 6683 4710 7764 7766 
4 9427 9428 7227 5254 
4 9562 7894 5711 5710 
4 6304 9061 6302 4551 
4 9413 9412 5269 7212 
4 5321 7160 9361 9360 
4 6806 8601 4847 5817 
4 8602 6807 5818 4848 
4 7918 9586 5686 5687 
4 4626 7749 6598 6597 
4 2850 9414 7213 2849 
4 5676 7929 5675 9597 
4 7177 9378 5304 9377 
4 4687 6661 6659 7623 
4 9534 8791 4473 3540 
4 9409 2859 5272 2858 
4 4637 9829 4638 7725 
4 9932 3905 3904 6129 
4 5607 9998 6193 3969 
4 6427 9090 6428 7098 
4 3098 9470 5389 7276 
4 5805 7978 9644 5806 
4 5606 9904 6192 3968 
4 9568 7900 5705 5704 
4 9429 7228 2820 2819 
4 2953 7161 9362 2954 
4 6180 3956 5594 9870 
4 9583 7915 5690 5689 
4 5805 9645 7979 5804 
4 3920 6145 9986 3921 
4 5364 7301 3050 9494 
4 6151 9885 3926 3927 
4 3941 3942 6166 9982 
4 4665 9794 7667 7669 
4 9449 3143 5410 7255 
4 9539 6696 9551 3163 
4 7927 9595 5677 5678 
4 5305 2924 9376 2925 
4 4292 3304 9331 3305 
4 4201 9242 3211 3210 
4 3937 9890 3938 6162 
4 3907 3908 6132 9886 
4 9561 7893 5712 5711 
4 7649 7647 4676 9781 
4 8229 4543 6286 6288 
4 5287 2889 9394 2888 
4 2918 7178 9379 2920 
4 4295 3307 9328 3308 
4 9239 4204 3213 3214 
4 7889 9556 9557 5716 
4 9891 3916 6141 3917 
4 9581 7913 5692 5691 
4 7914 9582 5690 5691 
4 9569 7901 5704 5703 
4 9400 2876 7200 5281 
4 4662 9799 7677 7675 
4 4075 9167 4934 8609 
4 4395 4497 8258 8944 
4 3903 3904 6128 9860 
4 3908 6133 9984 3909 
4 9992 3939 3938 6163 
4 6152 9983 3927 3928 
4 8457 3552 9845 7027 
4 6142 9993 3917 3918 
4 7096 9086 6429 6430 
4 6342 9024 6340 4580 
4 9901 3806 6033 5447 
4 9865 6154 3930 3929 
4 3943 3944 6168 9867 
4 9868 6135 3911 3910 
4 5652 5651 9621 7953 
4 6147 9871 3922 3923 
4 7912 9580 5692 5693 
4 7922 9590 5682 5683 
4 5650 5649 9623 7955 
4 3282 3281 4272 9171 
4 3374 3375 9261 4362 
4 3279 3278 4269 9174 
4 3371 3372 9264 4359 
4 4233 9210 3243 3242 
4 9297 3338 3339 4326 
4 3276 3275 4266 9177 
4 3246 4236 9207 3245 
4 9294 3342 4329 3341 
4 3368 3369 9267 4356 
4 3273 3272 4263 9180 
4 3254 3255 9198 4245 
4 3251 3252 9201 4242 
4 3257 3258 9195 4248 
4 3248 3249 9204 4239 
4 3348 4335 9288 3347 
4 9273 4350 3362 3363 
4 3267 3266 4257 9186 
4 9282 4341 3353 3354 
4 3264 3263 4254 9189 
4 3261 3260 4251 9192 
4 3269 4260 3270 9183 
4 9291 4332 3344 3345 
4 9285 4338 3350 3351 
4 3365 3366 9270 4353 
4 4344 9279 3357 3356 
4 9276 4347 3359 3360 
4 9213 4230 3239 3240 
4 3336 3335 4323 9300 
4 3333 3332 4320 9303 
4 9216 4227 3236 3237 
4 7311 5354 9504 3031 
4 3574 3576 7821 4788 
4 3330 3329 4317 9306 
4 4224 9219 3234 3233 
4 6807 305 306 8602 
4 7892 9560 5712 5713 
4 9828 7726 3417 7720 
4 5032 8981 6382 8182 
4 3779 7859 479 7037 
4 4074 9168 4933 8610 
4 8666 9224 4018 4877 
4 4112 9311 4970 8755 
4 4407 8920 4515 8246 
4 4628 9840 4629 7743 
4 6435 7091 7090 2716 
4 3451 4663 3456 7673 
4 9470 3101 5389 7276 
4 9334 4289 3301 3302 
4 4198 3207 9245 3208 
4 4001 9241 4860 8683 
4 4951 8774 4093 9330 
4 9585 7917 5688 5687 
4 9333 8777 4948 4090 
4 3998 9244 4857 8686 
4 5465 9895 6051 3824 
4 5025 4167 9256 8700 
4 5023 4165 9258 8702 
4 5669 5670 7935 9603 
4 9223 8665 4878 4019 
4 4113 9310 4971 8754 
4 5702 7902 9570 5703 
4 3284 3285 9168 4275 
4 9153 6212 6210 6396 
4 9222 8664 4879 4020 
4 4114 9309 4972 8753 
4 5024 4166 9257 8701 
4 4882 8661 4023 9219 
4 4975 4117 9306 8750 
4 4930 8613 4071 9171 
4 4162 9261 5020 8705 
4 4927 8616 4068 9174 
4 4885 8658 4026 9216 
4 8747 4120 4978 9303 
4 4159 9264 5017 8708 
4 4924 8619 4065 9177 
4 4981 4123 9300 8744 
4 4888 8655 4029 9213 
4 8711 9267 4156 5014 
4 4921 8622 4062 9180 
4 4891 8652 4032 9210 
4 9297 4984 4126 8741 
4 5008 8717 4150 9273 
4 5005 8720 4147 9276 
4 4999 8726 4141 9282 
4 8723 4144 5002 9279 
4 4035 4894 8649 9207 
4 4915 4056 9186 8628 
4 4912 4053 9189 8631 
4 9285 8729 4996 4138 
4 9288 8732 4993 4135 
4 9291 8735 4990 4132 
4 9294 8738 4987 4129 
4 4909 4050 9192 8634 
4 4918 4059 9183 8625 
4 8640 9198 4044 4903 
4 9270 5011 4153 8714 
4 4047 9195 4906 8637 
4 4041 9201 4900 8643 
4 4038 9204 4897 8646 
4 3809 9899 5450 6036 
4 6230 6232 9134 8257 
4 6443 7081 6442 9059 
4 5466 9981 6052 3825 
4 2794 9441 2795 5240 
4 5701 5702 7903 9571 
4 9837 3564 4793 4794 
4 9538 9550 3159 6695 
4 7315 5350 9508 3022 
4 9221 8663 4880 4021 
4 4973 4115 9308 8752 
4 7183 5298 9383 2910 
4 6019 9158 7132 2675 
4 9170 8612 4931 4072 
4 9218 4024 8660 4883 
4 4976 4118 9305 8749 
4 4163 9260 5021 8704 
4 8615 4069 4928 9173 
4 9215 4027 8657 4886 
4 4979 4121 9302 8746 
4 4160 9263 5018 8707 
4 4925 8618 4066 9176 
4 4889 8654 4030 9212 
4 4982 4124 9299 8743 
4 4157 9266 5015 8710 
4 4922 8621 4063 9179 
4 4154 9269 5012 8713 
4 8651 4033 4892 9209 
4 9296 8740 4985 4127 
4 5009 8716 4151 9272 
4 9182 8624 4919 4060 
4 5006 8719 4148 9275 
4 5003 8722 4145 9278 
4 8725 4142 5000 9281 
4 9290 8734 4991 4133 
4 9287 8731 4994 4136 
4 4130 8737 9293 4988 
4 4139 8728 9284 4997 
4 4916 4057 9185 8627 
4 4039 9203 4898 8645 
4 4042 9200 4901 8642 
4 4045 9197 4904 8639 
4 4913 4054 9188 8630 
4 4895 4036 9206 8648 
4 4907 4048 9194 8636 
4 4910 4051 9191 8633 
4 5213 5214 8468 7261 
4 5300 2915 9381 2914 
4 5294 2903 9387 2902 
4 7066 6457 6458 9029 
4 4002 9240 4861 8682 
4 4952 8773 4094 9329 
4 8776 4091 4949 9332 
4 3999 9243 4858 8685 
4 2921 9378 5303 2920 
4 5026 4168 9255 8699 
4 7063 7061 9017 6463 
4 6439 9067 7085 6438 
4 8248 4513 6248 6250 
4 8061 5723 3892 3893 
4 9496 7303 5362 3046 
4 4855 8688 3996 9246 
4 8779 4946 9335 4088 
4 2953 7162 5319 9362 
4 5669 7936 5668 9604 
4 3974 6198 9915 5612 
4 9761 3684 4733 4734 
4 9166 4935 4076 8608 
4 4003 9239 4862 8681 
4 4953 8772 4095 9328 
4 4854 8689 3995 9247 
4 9336 8780 4945 4087 
4 3378 3377 4365 9258 
4 5602 9956 3964 7989 
4 3153 9443 3152 5415 
4 7049 8995 6474 6475 
4 4000 9242 4859 8684 
4 4950 8775 4092 9331 
4 4089 8778 9334 4947 
4 8687 3997 4856 9245 
4 3394 7749 6597 8964 
4 9994 3807 6034 5448 
4 5489 9999 6075 3848 
4 5165 5166 8516 7309 
4 5635 5634 9638 7970 
4 9594 7926 5679 5678 
4 7983 9649 5800 5801 
4 4073 9169 4932 8611 
4 5636 5635 9637 7969 
4 3810 9987 5451 6037 
4 4164 9259 5022 8703 
4 4929 8614 4070 9172 
4 4161 9262 5019 8706 
4 8617 4067 4926 9175 
4 4158 9265 5016 8709 
4 4923 9178 8620 4064 
4 4155 9268 5013 8712 
4 4920 8623 4061 9181 
4 9289 8733 4992 4134 
4 9271 5010 4152 8715 
4 8718 4149 5007 9274 
4 9295 8739 4986 4128 
4 4022 8662 9220 4881 
4 4893 8650 4034 9208 
4 4884 8659 4025 9217 
4 4887 8656 4028 9214 
4 4890 8653 4031 9211 
4 4908 8635 4049 9193 
4 8727 4140 4998 9283 
4 4917 4058 9184 8626 
4 4131 8736 9292 4989 
4 4137 8730 9286 4995 
4 8629 4055 4914 9187 
4 4911 4052 9190 8632 
4 8638 9196 4046 4905 
4 4119 9304 4977 8748 
4 4037 9205 4896 8647 
4 4040 9202 4899 8644 
4 4043 9199 4902 8641 
4 4983 4125 9298 8742 
4 8745 4122 4980 9301 
4 8751 4116 4974 9307 
4 5004 8721 4146 9277 
4 8724 4143 5001 9280 
4 5638 9634 5639 7966 
4 5642 5641 9631 7963 
4 3954 5592 6178 9985 
4 3940 3941 6165 9896 
4 7336 7337 2978 9530 
4 3955 7998 5593 9943 
4 5643 5642 9630 7962 
4 3920 9898 6144 3919 
4 7986 9652 5797 5798 
4 3034 9503 7309 5356 
4 3480 7645 3475 4677 
4 5701 9572 7904 5700 
4 9636 5637 5636 7968 
4 3281 3280 4271 9172 
4 3373 3374 9262 4361 
4 9217 4226 3235 3236 
4 3332 9304 3331 4319 
4 3277 4268 3278 9175 
4 3334 4322 3335 9301 
4 9214 4229 3238 3239 
4 4358 3371 3370 9265 
4 9211 4232 3241 3242 
4 3337 4325 3338 9298 
4 4235 3244 9208 3245 
4 4328 9295 3341 3340 
4 9178 3274 3275 4265 
4 9292 4331 3343 3344 
4 3247 3248 9205 4238 
4 4337 9286 3350 3349 
4 4334 9289 3347 3346 
4 3263 3262 4253 9190 
4 3260 3259 4250 9193 
4 4247 3257 3256 9196 
4 4259 3269 3268 9184 
4 9199 3253 3254 4244 
4 3266 3265 4256 9187 
4 3250 3251 9202 4241 
4 3367 3368 9268 4355 
4 3272 3271 4262 9181 
4 4349 3361 9274 3362 
4 4340 9283 3353 3352 
4 4343 3355 9280 3356 
4 9271 3364 3365 4352 
4 9277 4346 3358 3359 
4 4612 8796 6585 4470 
4 4274 3284 3283 9169 
4 5600 9946 3962 7991 
4 4290 9333 3303 3302 
4 9244 4199 3208 3209 
4 9579 7911 5694 5693 
4 3518 7595 4702 3523 
4 7884 4184 7369 5622 
4 5621 4183 7883 7368 
4 9800 3624 9802 8493 
4 7982 9648 5801 5802 
4 305 5235 6751 10031 
4 8979 5032 4842 4614 
4 9989 6094 5508 3867 
4 9435 2807 5246 2806 
4 7905 9573 5699 5700 
4 5799 9651 7985 5798 
4 6112 5526 7886 3885 
4 5640 5639 9633 7965 
4 7704 7700 3435 9816 
4 5323 7158 9359 9358 
4 9647 7981 5803 5802 
4 7034 7861 3777 436 
4 5601 9881 3963 7990 
4 7004 3684 9762 3682 
4 3836 5477 6063 9914 
4 4293 9330 3306 3305 
4 9241 3212 4202 3211 
4 4745 9776 3660 4746 
4 5667 5666 9606 7938 
4 9220 4223 3232 3233 
4 3329 3328 4316 9307 
4 3324 3325 9311 4312 
4 4219 9224 3229 3228 
4 9990 6049 5463 3822 
4 8190 4600 6364 6366 
4 5668 5667 9605 7937 
4 7967 9635 5637 5638 
4 5799 7984 9650 5800 
4 3376 3377 9259 4364 
4 7880 7134 8549 6700 
4 3660 9778 7006 3658 
4 3758 7038 7862 3780 
4 3756 3778 7033 7860 
4 5641 5640 9632 7964 
4 3882 7889 5715 5716 
4 9654 7988 5796 5795 
4 8550 6699 7877 7139 
4 9845 9847 3550 7748 
4 5297 2908 9384 2909 
4 4554 8870 8221 4432 
4 7987 9653 5796 5797 
4 3949 8004 5587 9953 
4 3957 7996 5595 9930 
4 9147 6399 6398 7127 
4 3954 7999 5592 9985 
4 5643 9629 5644 7961 
4 9947 3811 6038 5452 
4 5633 3800 3799 7972 
4 9087 6429 6428 7095 
4 8806 4464 8189 4602 
4 7237 2802 9438 2801 
4 8214 4565 8856 4439 
4 3952 8001 5590 9961 
4 2921 9378 7178 5303 
4 9591 7923 5682 5681 
4 3956 7997 5594 9870 
4 3121 9459 3120 5399 
4 4590 8820 4457 4458 
4 4690 7619 4689 9763 
4 9897 8000 3953 5591 
4 2879 9400 7199 2877 
4 3769 2672 287 7356 
4 6416 9111 6417 7107 
4 9469 3101 5389 3100 
4 9646 7980 5804 5803 
4 5649 5648 9624 7956 
4 3958 9876 7995 5596 
4 5653 5652 9620 7952 
4 4778 3594 7814 3596 
4 6663 6664 7621 4690 
4 3080 3081 9479 5379 
4 7891 9559 5713 5714 
4 4853 8690 3994 9248 
4 9337 8781 4944 4086 
4 4548 4428 8878 8225 
4 3401 3407 7736 6494 
4 6153 9938 3928 3929 
4 4004 9238 4863 8680 
4 8771 4096 4954 9327 
4 9940 3943 3942 6167 
4 2915 7180 9381 2916 
4 4006 9236 4865 8678 
4 4956 8769 4098 9325 
4 8770 4097 4955 9326 
4 4005 9237 4864 8679 
4 9323 8767 4958 4100 
4 4008 9234 4867 8676 
4 4007 9235 4866 8677 
4 4957 8768 4099 9324 
4 4010 8674 9232 4869 
4 8765 4960 9321 4102 
4 4009 9233 4868 8675 
4 4959 8766 4101 9322 
4 9231 8673 4870 4011 
4 9230 8672 4871 4012 
4 9319 4962 4104 8763 
4 4103 9320 4961 8764 
4 4105 9318 4963 8762 
4 4106 9317 4964 8761 
4 9228 8670 4873 4014 
4 9229 8671 4872 4013 
4 4108 9315 4966 8759 
4 4107 9316 4965 8760 
4 9227 8669 4874 4015 
4 9226 8668 4875 4016 
4 9225 8667 4876 4017 
4 9314 4967 4109 8758 
4 4110 9313 4968 8757 
4 4111 9312 4969 8756 
4 5467 9939 3826 7945 
4 4308 3321 3320 9315 
4 9228 4215 3224 3225 
4 9963 6143 3919 3918 
4 6134 9941 3909 3910 
4 6164 3939 3940 9962 
4 9944 6146 3922 3921 
4 5645 5644 9628 7960 
4 5597 9951 3959 7994 
4 7069 2737 6456 7070 
4 9441 2797 2795 7240 
4 3140 5409 9449 3141 
4 3322 3323 9313 4310 
4 9226 4217 3226 3227 
4 7631 3490 4684 7787 
4 4296 9327 3309 3308 
4 9238 4205 3214 3215 
4 7307 5358 9500 3038 
4 7959 5645 5646 9627 
4 7948 9960 5464 3823 
4 2773 7861 6703 2775 
4 2874 9401 2875 5280 
4 9996 3801 3800 6028 
4 6799 484 6008 7854 
4 7852 580 6798 6007 
4 3830 5471 9936 7941 
4 3179 7866 7844 3765 
4 2881 7197 9398 2882 
4 8185 4608 8798 4468 
4 9007 7058 7056 6468 
4 7910 5502 3861 9942 
4 7068 7069 6456 9031 
4 7220 9420 5261 2837 
4 3676 7785 3674 4738 
4 8898 4418 8235 4533 
4 6242 9124 6240 4505 
4 3747 7574 7857 6690 
4 3831 5472 9880 7940 
4 5469 9924 3828 7943 
4 7925 9593 5679 5680 
4 9889 8003 3950 5588 
4 5598 9887 3960 7993 
4 9574 7906 5699 5698 
4 9445 3149 5413 3148 
4 9607 5666 5665 7939 
4 7842 7864 3763 3178 
4 8832 8202 4583 4451 
4 3123 3125 5401 7264 
4 2932 5309 2933 9372 
4 5725 8059 5724 9725 
4 9861 3829 5470 7942 
4 9319 3316 3317 4304 
4 4211 9232 3221 3220 
4 9321 3314 3315 4302 
4 9323 4300 3312 3313 
4 9234 4209 3218 3219 
4 7910 5695 9578 5694 
4 5466 9981 3825 7946 
4 7197 5284 9397 2882 
4 4298 9325 3311 3310 
4 4207 9236 3217 3216 
4 7989 9655 5794 5795 
4 9005 8193 4593 6360 
4 5725 5726 8058 9724 
4 7907 9575 5697 5698 
4 7944 9866 5468 3827 
4 5665 5664 9608 7940 
4 3865 7906 5506 9952 
4 9003 7053 6471 6470 
4 6064 3837 5478 10019 
4 3815 10000 5456 6042 
4 3832 5473 9958 7939 
4 7134 7880 7357 2768 
4 7924 9592 5680 5681 
4 5726 5727 8057 9723 
4 3318 3319 9317 4306 
4 4213 9230 3223 3222 
4 5664 5663 9609 7941 
4 9610 5663 5662 7942 
4 5727 5728 8056 9722 
4 5603 9892 3965 7988 
4 8055 5728 5729 9721 
4 9687 8021 5763 5762 
4 5729 5730 8054 9720 
4 8022 9688 5761 5762 
4 8020 9686 5763 5764 
4 8041 9707 5742 5743 
4 5775 5776 8008 9674 
4 5661 5662 7943 9611 
4 5764 9685 5765 8019 
4 9706 8040 5744 5743 
4 5776 5777 8007 9673 
4 8053 5731 9719 5730 
4 5723 5724 8060 9726 
4 5766 8018 5765 9684 
4 8039 9705 5744 5745 
4 5778 8006 5777 9672 
4 9695 8029 5755 5754 
4 5788 5787 9662 7996 
4 5325 7156 2963 9357 
4 5731 5732 8052 9718 
4 9694 8028 5756 5755 
4 5788 9661 5789 7995 
4 5465 9895 3824 7947 
4 9871 8031 5560 3922 
4 5767 5766 9683 8017 
4 8038 5746 9704 5745 
4 5778 5779 8005 9671 
4 5737 8047 5736 9713 
4 8048 5735 5736 9714 
4 5661 7944 5660 9612 
4 9689 8023 5761 5760 
4 8042 9708 5741 5742 
4 5774 5775 8009 9675 
4 9868 5548 3910 8043 
4 5787 5786 9663 7997 
4 9696 8030 5754 5753 
4 3552 4799 9845 4800 
4 3381 3380 4368 9255 
4 5634 5633 9639 7971 
4 9005 7056 7055 6469 
4 3380 3379 4367 9256 
4 3230 9222 4221 3231 
4 3326 3327 9309 4314 
4 6413 9119 7111 2694 
4 7990 9656 5793 5794 
4 9432 2812 5249 2813 
4 9399 5282 7199 2878 
4 8027 9693 5756 5757 
4 9660 5789 7994 5790 
4 4687 9766 3673 9765 
4 5738 5737 9712 8046 
4 2866 5276 9405 2867 
4 5768 5767 9682 8016 
4 5779 5780 8004 9670 
4 5746 8037 9703 5747 
4 7975 9852 6202 7976 
4 8884 4425 8228 4544 
4 9391 5290 2895 2894 
4 9335 4288 3300 3301 
4 3207 4197 9246 3206 
4 3304 4291 9332 3303 
4 4200 9243 3210 3209 
4 7337 5328 2979 2977 
4 6446 7080 6445 9053 
4 8500 9792 6727 7662 
4 4744 7634 7638 3486 
4 6061 3834 5475 10002 
4 8010 3943 5581 9867 
4 7216 2845 9417 2843 
4 5735 5734 9715 8049 
4 9692 8026 5758 5757 
4 5738 9711 5739 8045 
4 7993 9659 5790 5791 
4 7074 6449 6450 9045 
4 5732 5733 8051 9717 
4 8532 7598 9752 6711 
4 7606 9756 8528 6713 
4 5769 5768 9681 8015 
4 5780 5781 8003 9669 
4 8036 9702 5747 5748 
4 3862 7909 5503 9869 
4 9424 7223 2831 2829 
4 3307 4294 9329 3306 
4 3212 9240 4203 3213 
4 9865 5567 3929 8024 
4 2889 7193 9394 2890 
4 3675 9765 8390 8116 
4 7017 3564 9839 3562 
4 5599 9988 6185 3961 
4 5648 5647 9625 7957 
4 5658 5659 7946 9614 
4 5772 5773 8011 9677 
4 5785 5784 9665 7999 
4 5752 9698 8032 5751 
4 5657 5658 7947 9615 
4 5771 5772 8012 9678 
4 5784 5783 9666 8000 
4 8033 9699 5750 5751 
4 5647 7958 5646 9626 
4 5659 5660 7945 9613 
4 5773 9676 5774 8010 
4 5786 5785 9664 7998 
4 5752 8031 9697 5753 
4 4571 8846 8209 4444 
4 8024 9690 5759 5760 
4 9709 8043 5741 5740 
4 9825 6740 8474 7714 
4 7991 9657 5792 5793 
4 4764 4763 3624 9800 
4 8990 6374 6376 4605 
4 5287 2889 7194 9394 
4 7907 5505 3864 9875 
4 5734 5733 9716 8050 
4 7092 9081 6431 6432 
4 8063 9729 8064 3889 
4 6885 9558 6886 5714 
4 5654 5653 9619 7951 
4 6175 3951 5589 9991 
4 9616 7948 5657 5656 
4 5771 5770 9679 8013 
4 5782 5783 8001 9667 
4 9700 8034 5750 5749 
4 7590 9747 8536 6709 
4 9691 8025 5759 5758 
4 9710 5739 8044 5740 
4 9658 7992 5792 5791 
4 7042 7136 8590 6014 
4 6734 7690 8486 9809 
4 5770 5769 9680 8014 
4 9668 5782 5781 8002 
4 8035 9701 5748 5749 
4 3179 3745 6594 9850 
4 9702 5747 6901 6900 
4 7586 6708 9744 8538 
4 9703 5746 6900 6899 
4 6828 6829 5657 9615 
4 6828 9616 5656 6827 
4 9701 5748 6902 6901 
4 5655 6826 6827 9617 
4 3863 7908 5504 9929 
4 2839 9420 7219 2837 
4 2903 7186 9387 2904 
4 8484 7694 9812 6735 
4 5599 9988 3961 7992 
4 6898 9704 6899 5745 
4 2808 9435 7234 2806 
4 6829 6830 5658 9614 
4 5654 6825 6826 9618 
4 5749 9700 6902 6903 
4 5655 5654 9618 7950 
4 4401 4508 8252 8932 
4 3951 8002 5589 9991 
4 9432 7231 2815 2813 
4 9965 3820 5461 7951 
4 7352 3760 7846 3174 
4 3762 7848 7354 3176 
4 5695 7909 9577 5696 
4 7190 9391 2895 2897 
4 6190 9997 3966 5604 
4 5549 9868 3911 8042 
4 5561 9871 3923 8030 
4 5294 2903 7187 9387 
4 9742 7582 6707 8540 
4 7668 6728 9795 8498 
4 8534 7596 9749 6710 
4 8530 7604 9754 6712 
4 9576 7908 5697 5696 
4 3944 8009 5582 9867 
4 5568 9865 3930 8023 
4 9249 3204 3203 7468 
4 9338 3298 3297 7561 
4 6008 6799 7854 5428 
4 6798 7852 6007 5427 
4 6889 5735 6888 9714 
4 9793 9791 8410 3633 
4 6817 6818 5646 9626 
4 5736 6889 6890 9713 
4 6818 6819 5647 9625 
4 9794 8412 9796 3631 
4 7280 7016 8486 5195 
4 8484 7278 7000 5197 
4 6894 9708 6895 5741 
4 5737 6890 6891 9712 
4 6821 6822 5650 9622 
4 6895 9707 6896 5742 
4 9711 5738 6892 6891 
4 7330 7009 8536 5145 
4 6819 6820 5648 9624 
4 6892 5739 9710 6893 
4 6820 6821 5649 9623 
4 9709 6894 6893 5740 
4 6823 5651 6822 9621 
4 2945 7165 9366 2947 
4 7294 8500 5181 7015 
4 6816 6817 5645 9627 
4 5734 6887 6888 9715 
4 6887 5733 6960 9716 
4 6959 9556 6968 5716 
4 5487 7925 9970 3846 
4 6958 6816 5644 9628 
4 9705 6898 6897 5744 
4 6963 6960 5732 9717 
4 6825 5653 6824 9619 
4 9629 5643 6958 6962 
4 3518 8814 3520 7599 
4 6979 6977 5725 9724 
4 9560 6884 6883 5712 
4 9706 6897 6896 5743 
4 2874 9402 7201 2872 
4 5636 9636 6978 6976 
4 9699 5750 6904 6903 
4 9688 5761 6915 6914 
4 9685 6917 5764 6918 
4 6929 6930 5776 9673 
4 9661 5788 6942 6941 
4 6868 9575 6869 5697 
4 6947 9655 6948 5794 
4 6920 6921 5767 9682 
4 6932 6933 5779 9670 
4 5703 9569 6874 6875 
4 5676 9596 6847 6848 
4 6830 6831 5659 9613 
4 9658 6945 6944 5791 
4 6871 9572 6872 5700 
4 5758 9691 6911 6912 
4 9584 5688 6860 6859 
4 5667 6838 6839 9605 
4 5800 9649 6953 6954 
4 6866 9578 5694 6865 
4 9676 6927 6926 5773 
4 5785 6938 6939 9664 
4 5679 9593 6850 6851 
4 6923 6924 5770 9679 
4 6935 6936 5782 9667 
4 6951 9652 5797 6950 
4 9590 6854 6853 5682 
4 6880 9563 6881 5709 
4 6824 5652 6823 9620 
4 9581 5691 6863 6862 
4 6841 6842 5670 9602 
4 2908 7183 9384 2910 
4 6909 9694 5755 6908 
4 5664 6835 6836 9608 
4 6856 9587 6857 5685 
4 5706 9566 6877 6878 
4 7154 8366 8595 5327 
4 6981 6979 5724 9725 
4 6844 9599 6845 5673 
4 9758 3689 9757 8383 
4 7859 2777 6704 2774 
4 5635 6980 6978 9637 
4 6884 9559 6885 5713 
4 6975 6973 5727 9722 
4 4518 4408 8918 8245 
4 9634 6974 5638 6972 
4 9544 9733 5809 3189 
4 8574 8576 5428 4826 
4 5427 8575 4825 8573 
4 6971 5728 6973 9721 
4 2766 7042 7136 9343 
4 5639 6972 6970 9633 
4 5760 9689 6913 6914 
4 9656 6947 6946 5793 
4 9570 5702 6874 6873 
4 6928 6929 5775 9674 
4 5787 6940 6941 9662 
4 9576 6868 6867 5696 
4 6917 9686 5763 6916 
4 6919 6920 5766 9683 
4 6931 6932 5778 9671 
4 9647 6955 5802 6956 
4 7672 6729 9798 8496 
4 6858 9585 6859 5687 
4 6977 6975 5726 9723 
4 9659 6944 6943 5790 
4 9573 6871 6870 5699 
4 9692 5757 6911 6910 
4 5666 6837 6838 9606 
4 6882 9561 6883 5711 
4 9564 6880 6879 5708 
4 9582 5690 6862 6861 
4 6841 5669 6840 9603 
4 6435 9073 7089 7090 
4 9650 5799 6953 6952 
4 6926 5772 6925 9677 
4 5784 6937 6938 9665 
4 6853 9591 5681 6852 
4 9653 5796 6950 6949 
4 6922 6923 5769 9680 
4 6934 9668 6935 5781 
4 6310 6308 4556 8218 
4 6846 6847 5675 9597 
4 5637 9635 6976 6974 
4 9588 6856 6855 5684 
4 5705 9567 6876 6877 
4 7746 4798 7742 3397 
4 5693 9579 6864 6865 
4 9594 5678 6850 6849 
4 6999 5183 8498 7292 
4 6995 5143 8538 7332 
4 6843 6844 5672 9600 
4 6957 9646 5803 6956 
4 9918 8056 3897 5535 
4 6971 6967 5729 9720 
4 7096 7094 9083 6430 
4 9648 5801 6955 6954 
4 8020 9926 5571 3933 
4 3947 8006 5585 9933 
4 8534 7328 6998 5147 
4 5640 6970 6966 9632 
4 8443 9834 9832 3569 
4 6927 6928 5774 9675 
4 5786 6939 6940 9663 
4 5695 9577 6866 6867 
4 5762 9687 6915 6916 
4 6918 6919 5765 9684 
4 6930 6931 5777 9672 
4 5789 9660 6942 6943 
4 9574 6870 6869 5698 
4 9693 6909 5756 6910 
4 9607 5665 6837 6836 
4 6924 6925 5771 9678 
4 6937 5783 6936 9666 
4 9592 5680 6852 6851 
4 9651 6951 5798 6952 
4 9654 6949 6948 5795 
4 6921 6922 5768 9681 
4 5780 6933 6934 9669 
4 8526 7610 9759 6714 
4 6854 9589 6855 5683 
4 5656 5655 9617 7949 
4 9568 5704 6876 6875 
4 9690 5759 6913 6912 
4 6945 9657 6946 5792 
4 9571 5701 6873 6872 
4 9815 9813 8428 3599 
4 9586 6858 6857 5686 
4 6878 9565 6879 5707 
4 5689 9583 6860 6861 
4 6840 5668 6839 9604 
4 9595 5677 6849 6848 
4 7322 8528 5153 7020 
4 3948 8005 5586 9877 
4 3896 8057 5534 9855 
4 6446 7078 7080 9053 
4 9562 6882 6881 5710 
4 5674 6845 6846 9598 
4 7324 8530 5151 7018 
4 5754 9695 6907 6908 
4 6835 5663 6834 9609 
4 9580 5692 6864 6863 
4 6842 9601 6843 5671 
4 6967 9719 6965 5730 
4 8532 7326 7011 5149 
4 9858 3932 5570 8021 
4 7019 7268 5207 8474 
4 3492 7627 4685 4686 
4 6831 6832 5660 9612 
4 3946 8007 5584 9862 
4 8814 3518 3520 4461 
4 5551 9864 3913 8040 
4 6964 5641 6966 9631 
4 2869 9405 7204 2867 
4 9698 5751 6905 6904 
4 6419 9105 6420 7106 
4 3410 4792 7734 7730 
4 9811 3605 9810 8425 
4 4411 8912 4523 8242 
4 3575 8440 9829 9830 
4 4396 4500 8257 8942 
4 8435 9824 9823 3585 
4 4842 8979 4614 8180 
4 7119 6405 9135 7121 
4 5805 9644 6961 6969 
4 5463 9990 3822 7949 
4 8031 9944 5560 3922 
4 8416 9801 9799 3623 
4 7710 7706 3430 4780 
4 6963 5731 6965 9718 
4 5462 9900 3821 7950 
4 5548 9941 3910 8043 
4 5642 6964 6962 9630 
4 6832 6833 5661 9611 
4 8017 5574 3936 9878 
4 9794 4666 4665 7667 
4 8411 8412 5090 7200 
4 5752 9697 6905 6906 
4 3906 8047 5544 9874 
4 6316 6314 4564 8215 
4 3651 9781 9782 8402 
4 8960 4387 8266 4487 
4 6408 6407 9129 7118 
4 3379 3378 4366 9257 
4 3943 9940 8010 5581 
4 9555 6968 6990 7385 
4 5559 9986 3921 8032 
4 5567 9938 3929 8024 
4 2782 3742 3750 7858 
4 3741 7856 3748 2780 
4 9455 3129 5403 3128 
4 8059 5532 3894 9856 
4 7686 6733 9807 8488 
4 8135 8452 9844 3551 
4 6983 6981 5723 9726 
4 9898 3920 5558 8033 
4 6405 6404 9135 7121 
4 5610 10003 3972 7981 
4 6980 5634 6982 9638 
4 3941 8012 5579 9896 
4 3422 7713 4643 7715 
4 9766 3673 9765 8390 
4 3105 3103 7274 5391 
4 4168 5027 9254 8699 
4 8480 8479 5202 3596 
4 5550 9927 3912 8041 
4 5554 3916 8037 9955 
4 7922 9974 5490 3849 
4 9898 5557 3919 8034 
4 8013 3940 5578 9896 
4 3812 7959 5453 9882 
4 8006 3947 5585 9877 
4 3895 8058 5533 9919 
4 8056 3897 5535 9854 
4 9931 3924 5562 8029 
4 3498 3494 6560 8843 
4 9944 5559 3921 8032 
4 9863 8020 5571 3933 
4 9071 6436 7089 7088 
4 3898 8055 5536 9854 
4 9863 8019 3934 5572 
4 8502 9789 6726 7660 
4 9922 3931 5569 8022 
4 3945 8008 5583 9925 
4 3286 3287 9166 4277 
4 7270 7013 8476 5205 
4 8476 7712 9822 6739 
4 9165 4076 4936 8608 
4 3816 9976 7955 5457 
4 5552 9935 3914 8039 
4 9927 5549 3911 8042 
4 5608 9971 3970 7983 
4 9931 5561 3923 8030 
4 9956 5601 3963 7990 
4 5607 7984 9998 3969 
4 8000 3953 5591 9985 
4 8057 9918 3896 5534 
4 3899 8054 5537 9917 
4 3414 8943 3412 6500 
4 9340 8784 4941 4083 
4 4850 8693 3991 9251 
4 6630 3443 7687 8902 
4 3935 8018 5573 9934 
4 3900 8053 5538 9853 
4 5753 9696 6906 6907 
4 6833 9610 6834 5662 
4 3932 9926 5570 8021 
4 9923 8052 3901 5539 
4 8007 3946 5584 9933 
4 5358 3039 9500 3038 
4 7012 5185 8496 7290 
4 5563 9873 3925 8028 
4 4486 8268 6485 8964 
4 8009 3944 5582 9925 
4 9922 5568 3930 8023 
4 3131 9455 7261 5404 
4 9935 5551 3913 8040 
4 6402 6401 9141 7124 
4 5547 9984 3909 8044 
4 9859 8051 3902 5540 
4 7701 6621 3434 8916 
4 9941 5547 3909 8044 
4 5553 9879 3915 8038 
4 4578 8205 4448 4449 
4 9414 2848 5267 2849 
4 8048 3905 9932 5543 
4 7179 9379 9380 2919 
4 5252 9429 2818 2819 
4 8062 5722 3891 3892 
4 8011 5580 3942 9982 
4 3937 8016 5575 9954 
4 7710 4780 3590 8477 
4 3907 8046 5545 9950 
4 9778 4747 6722 3658 
4 9762 6716 3682 4735 
4 4500 6234 6232 8256 
4 6663 8836 3500 7621 
4 7057 7058 9010 6468 
4 7966 3805 9966 5446 
4 7705 3429 3424 8924 
4 5633 5632 9640 7972 
4 9353 3160 6023 6695 
4 9170 4273 3282 3283 
4 9836 8446 9838 3563 
4 8061 5722 5723 9727 
4 5564 9949 3926 8027 
4 9980 5523 9916 7889 
4 5557 9963 3919 8034 
4 3893 8060 5531 9920 
4 3940 8013 5578 9962 
4 2964 5325 2965 9356 
4 5574 8017 3936 9954 
4 3375 3376 9260 4363 
4 7964 3807 9994 5448 
4 7967 3804 9995 5445 
4 3331 3330 4318 9305 
4 9218 4225 3234 3235 
4 4713 7577 9547 9738 
4 6453 7073 6452 9039 
4 8047 3906 5544 9950 
4 3280 3279 4270 9173 
4 3373 9263 3372 4360 
4 3334 3333 4321 9302 
4 4228 9215 3238 3237 
4 4231 9212 3241 3240 
4 3337 3336 4324 9299 
4 3277 3276 4267 9176 
4 4327 3339 9296 3340 
4 3244 4234 9209 3243 
4 3369 3370 9266 4357 
4 3274 3273 4264 9179 
4 3342 9293 4330 3343 
4 3246 3247 9206 4237 
4 3268 3267 4258 9185 
4 3249 3250 9203 4240 
4 3255 3256 9197 4246 
4 3252 3253 9200 4243 
4 9284 4339 3351 3352 
4 3265 3264 4255 9188 
4 4345 9278 3358 3357 
4 3270 3271 9182 4261 
4 3361 4348 9275 3360 
4 9290 4333 3345 3346 
4 9272 4351 3363 3364 
4 3262 3261 4252 9191 
4 3259 3258 4249 9194 
4 3355 4342 9281 3354 
4 3348 9287 4336 3349 
4 3366 3367 9269 4354 
4 3328 3327 4315 9308 
4 4222 9221 3232 3231 
4 6679 8802 3529 7587 
4 4852 8691 3993 9249 
4 9338 8782 4943 4085 
4 3892 8061 3893 9920 
4 5532 8059 3894 9919 
4 3903 8050 5541 9928 
4 8600 3158 7246 7847 
4 6437 9069 7087 7088 
4 3904 8049 5542 9860 
4 8449 9842 9840 3557 
4 4509 9118 8249 6248 
4 8191 4596 9002 6364 
4 4436 8864 3477 3475 
4 3453 3451 4422 8892 
4 7042 7041 9157 2765 
4 9881 5600 3962 7991 
4 5580 9940 8011 3942 
4 7041 7043 2764 6394 
4 7961 3810 9987 5451 
4 3920 9986 5558 8033 
4 9141 6402 7124 7122 
4 6886 9557 6959 5715 
4 6246 6244 4510 8250 
4 8055 3898 5536 9917 
4 7998 3955 5593 9870 
4 8920 4408 4515 8245 
4 3637 8409 8121 9790 
4 9864 5550 3912 8041 
4 8019 3934 5572 9934 
4 8198 4589 4456 4455 
4 4610 8794 8183 4470 
4 3416 7721 6612 8936 
4 5566 9983 3928 8025 
4 8012 3941 5579 9982 
4 8058 3895 5533 9855 
4 6228 6226 4494 8259 
4 8395 3665 9773 9771 
4 5556 9993 3918 8035 
4 6422 9099 6423 7103 
4 3285 3286 9167 4276 
4 9992 8014 3939 5577 
4 9879 5552 3914 8039 
4 3931 9858 5569 8022 
4 8008 3945 5583 9862 
4 2986 7333 5332 2987 
4 3924 9873 5562 8029 
4 7707 4647 6617 6619 
4 8060 3893 5531 9856 
4 7999 3954 5592 9943 
4 9398 2880 9399 7198 
4 5555 9891 3917 8036 
4 8574 5428 3787 4826 
4 3785 5427 4825 8573 
4 6415 7110 9113 6416 
4 5606 9904 3968 7985 
4 9938 5566 3928 8025 
4 3908 8045 5546 9886 
4 7980 9979 5611 3973 
4 7997 3956 5594 9930 
4 9738 3724 8173 8544 
4 8054 3899 5537 9853 
4 8005 3948 5586 9953 
4 8018 3935 5573 9878 
4 5565 9885 3927 8026 
4 10006 3819 5460 7952 
4 9890 8015 3938 5576 
4 8053 9923 3900 5538 
4 8052 9859 3901 5539 
4 9963 5556 3918 8035 
4 5609 9907 3971 7982 
4 8014 3939 5577 9962 
4 8051 3902 5540 9928 
4 7077 9047 6448 6449 
4 7962 3809 9899 5450 
4 8001 9897 3952 5590 
4 7921 9910 5491 3850 
4 9946 5599 3961 7992 
4 3077 9481 3076 5377 
4 3916 5554 8037 9891 
4 9997 3966 5604 7987 
4 5458 9912 3817 7954 
4 8048 3905 5543 9874 
4 9949 5563 3925 8028 
4 9955 5553 3915 8038 
4 9147 6399 7127 7125 
4 3801 9996 7970 5442 
4 7926 10007 5486 3845 
4 5311 7170 9371 9370 
4 6270 4529 6272 9094 
4 7045 7048 6478 8987 
4 7178 9378 9379 2920 
4 3496 3493 6558 8847 
4 3562 3401 7736 7740 
4 7965 3806 9901 5447 
4 9362 7161 9361 2954 
4 3451 3453 7677 8892 
4 6226 9140 4495 8260 
4 8864 7649 3477 3475 
4 9993 5555 3917 8036 
4 8858 4562 4439 4438 
4 7115 7114 6411 9124 
4 6420 9105 7104 7106 
4 3447 3453 4421 8894 
4 7162 9362 9363 2952 
4 7166 9366 9367 2944 
4 8050 3903 5541 9860 
4 4599 4464 8808 4463 
4 8045 3908 5546 9984 
4 7008 5193 8488 7282 
4 7296 8502 5179 7007 
4 8230 4538 9080 6286 
4 8049 9932 3904 5542 
4 8015 9992 3938 5576 
4 5347 7318 3015 9512 
4 9983 5565 3927 8026 
4 9915 3974 5612 7979 
4 7052 8997 6473 6474 
4 7071 7073 6453 9039 
4 6570 8822 3508 3512 
4 3813 7958 5454 9957 
4 3811 9947 7960 5452 
4 6314 9052 4559 8216 
4 7065 7064 6461 9024 
4 6715 8525 5157 8524 
4 8046 3907 5545 9886 
4 7220 2836 9420 9421 
4 8016 9890 3937 5575 
4 7968 3803 9902 5444 
4 470 7357 417 7879 
4 445 287 7878 7356 
4 9451 3136 5407 3137 
4 7271 3111 3109 5394 
4 8002 3951 5589 9961 
4 4075 4935 9166 8609 
4 3520 8816 3514 7597 
4 5301 2917 9380 2916 
4 3800 3799 9903 6027 
4 9395 7194 9394 2888 
4 6318 9047 4562 8214 
4 3798 5632 3799 7973 
4 9989 5508 7904 3867 
4 9645 6957 5804 6961 
4 5455 3814 7957 9893 
4 5253 9428 2820 2821 
4 7856 7568 6804 7371 
4 7569 6805 7858 7373 
4 9885 5564 3926 8027 
4 7923 9999 5489 3848 
4 7063 7062 6462 9020 
4 9981 5465 3824 7947 
4 4435 8866 3471 3477 
4 3800 3799 7972 9903 
4 3494 3498 7624 8843 
4 5111 3673 8391 8390 
4 7996 9876 3957 5595 
4 8003 3950 5588 9991 
4 7786 3672 4740 3670 
4 2955 7161 5320 9361 
4 9817 8430 4647 7707 
4 5673 9599 7932 9600 
4 5253 7228 9428 2821 
4 9892 5602 3964 7989 
4 3834 5475 10002 7937 
4 8004 9889 3949 5587 
4 7187 9387 9388 2902 
4 4578 9028 8204 6338 
4 7827 3560 4796 3558 
4 9413 2850 5268 2851 
4 5721 3890 8063 3891 
4 9413 5268 7213 2851 
4 9167 4074 4934 8610 
4 8666 4018 9223 4878 
4 9310 4112 4971 8755 
4 7357 2768 417 3771 
4 287 2672 3770 7356 
4 9810 4653 4652 7695 
4 6434 9075 6435 7091 
4 9951 3958 7995 5596 
4 4167 5026 9255 8700 
4 4486 8268 4385 6485 
4 9988 5598 3960 7993 
4 6426 9091 7097 7100 
4 3836 5477 9914 7935 
4 9997 5603 3965 7988 
4 7603 3516 4698 3510 
4 4731 3688 9759 6714 
4 5320 2955 9361 2954 
4 9895 7948 5464 3823 
4 8665 9222 4879 4019 
4 9309 4113 4972 8754 
4 8073 9546 9549 5628 
4 4165 5024 9257 8702 
4 8664 9221 4880 4020 
4 4114 4973 9308 8753 
4 6368 4599 8189 8997 
4 8774 4952 4093 9329 
4 9240 4001 4861 8683 
4 9243 3998 4858 8686 
4 8777 4949 4090 9332 
4 7978 10022 5613 3975 
4 3153 10027 6201 5615 
4 8613 9170 4931 4071 
4 8661 9218 4883 4023 
4 4117 4976 9305 8750 
4 9260 4162 5021 8705 
4 8616 4928 4068 9173 
4 8658 9215 4886 4026 
4 4120 8747 4979 9302 
4 9263 4159 5018 8708 
4 8619 4925 4065 9176 
4 4123 4982 9299 8744 
4 8655 4889 4029 9212 
4 9266 8711 4156 5015 
4 8622 4922 4062 9179 
4 8652 4892 4032 9209 
4 4126 9296 8741 4985 
4 9269 4153 5012 8714 
4 4895 9206 4035 8649 
4 4059 9182 8625 4919 
4 4056 4916 9185 8628 
4 9203 4038 4898 8646 
4 9197 8640 4044 4904 
4 9200 4041 4901 8643 
4 4047 4907 9194 8637 
4 4050 4910 9191 8634 
4 4144 8723 5003 9278 
4 8729 9284 4997 4138 
4 8732 9287 4994 4135 
4 8735 9290 4991 4132 
4 8738 9293 4988 4129 
4 4053 4913 9188 8631 
4 8720 5006 4147 9275 
4 8726 5000 4141 9281 
4 8717 5009 4150 9272 
4 4166 5025 9256 8701 
4 2850 9414 9413 7213 
4 9599 5674 7931 9598 
4 3298 9337 3299 7560 
4 3204 9248 3205 7467 
4 9429 7228 9428 2820 
4 6512 8923 3432 3428 
4 9601 5672 7933 9600 
4 7139 6697 3770 7878 
4 8663 9220 4881 4021 
4 4115 4974 9307 8752 
4 6698 7134 7879 3771 
4 8412 8411 5090 3631 
4 9169 8612 4072 4932 
4 4024 8660 4884 9217 
4 9304 4118 4977 8749 
4 9259 4163 5022 8704 
4 4069 8615 4929 9172 
4 9262 4160 5019 8707 
4 4027 8657 4887 9214 
4 4121 4980 9301 8746 
4 8618 4926 4066 9175 
4 9265 4157 5016 8710 
4 8654 4890 4030 9211 
4 4124 4983 9298 8743 
4 9178 4923 8621 4063 
4 9268 4154 5013 8713 
4 4893 4033 8651 9208 
4 8740 9295 4986 4127 
4 8719 5007 4148 9274 
4 8722 5004 4145 9277 
4 8728 4998 4139 9283 
4 8737 4130 9292 4989 
4 8624 4920 4060 9181 
4 8734 9289 4992 4133 
4 8731 9286 4995 4136 
4 4057 4917 9184 8627 
4 9196 4045 4905 8639 
4 9202 4039 4899 8645 
4 9205 4036 4896 8648 
4 9199 4042 4902 8642 
4 4142 8725 5001 9280 
4 4048 4908 9193 8636 
4 4051 4911 9190 8633 
4 4054 4914 9187 8630 
4 8716 9271 5010 4151 
4 9866 5467 3826 7945 
4 4706 3713 4707 9743 
4 2876 9400 2877 5281 
4 8773 4953 4094 9328 
4 9239 4002 4862 8682 
4 4091 8776 4950 9331 
4 9242 3999 4859 8685 
4 4946 8780 9335 4087 
4 8689 4855 3995 9246 
4 9939 5466 3825 7946 
4 9456 3126 5402 7263 
4 8779 9334 4947 4088 
4 8688 4856 3996 9245 
4 9033 6456 6455 7070 
4 5372 7293 3067 3066 
4 4414 4527 8239 8906 
4 6742 9828 8471 8141 
4 8772 4954 4095 9327 
4 9238 4003 4863 8681 
4 7721 4640 6612 6613 
4 9924 7944 5468 3827 
4 8775 4951 4092 9330 
4 9241 4000 4860 8684 
4 5502 7910 3861 9869 
4 8778 9333 4948 4089 
4 8687 3997 9244 4857 
4 8601 4847 5817 8081 
4 8082 8602 5818 4848 
4 4666 9793 9794 3633 
4 3153 9443 10027 5615 
4 9774 6720 9772 4743 
4 7754 3736 8970 6686 
4 2994 7329 5336 2995 
4 6815 6983 5722 9727 
4 8239 4526 9098 6268 
4 5633 6814 6982 9639 
4 7084 6441 6442 9061 
4 3724 4713 9547 9738 
4 7711 4644 3420 3426 
4 9168 4073 4933 8611 
4 4164 5023 9258 8703 
4 8614 4930 4070 9171 
4 9261 4161 5020 8706 
4 4067 8617 4927 9174 
4 9264 4158 5017 8709 
4 8620 4924 4064 9177 
4 9267 4155 5014 8712 
4 8623 4921 4061 9180 
4 8721 5005 4146 9276 
4 8650 4894 4034 9207 
4 4049 8635 4909 9192 
4 8659 4885 4025 9216 
4 8653 4891 4031 9210 
4 8662 4882 4022 9219 
4 8656 4888 4028 9213 
4 4052 4912 9189 8632 
4 4055 8629 4915 9186 
4 8730 4137 9285 4996 
4 8733 9288 4993 4134 
4 8739 9294 4987 4128 
4 4058 4918 9183 8626 
4 4143 8724 5002 9279 
4 9201 4040 4900 8644 
4 9204 4037 4897 8647 
4 9195 8638 4046 4906 
4 9198 4043 4903 8641 
4 4131 9291 8736 4990 
4 4984 9297 4125 8742 
4 4140 8727 4999 9282 
4 5011 9270 4152 8715 
4 5008 4149 8718 9273 
4 4119 4978 9303 8748 
4 4122 8745 4981 9300 
4 4116 8751 4975 9306 
4 5651 9622 9621 7954 
4 7921 9588 9589 5684 
4 9021 7065 7062 6461 
4 9129 6408 7118 7116 
4 7061 7059 9015 6464 
4 6630 4657 6632 7687 
4 6679 6681 7587 4707 
4 3097 9471 3096 5387 
4 5505 7907 3864 9952 
4 7897 9564 9565 5708 
4 7898 9565 9566 5707 
4 7930 5675 9597 9598 
4 5472 3831 9958 7940 
4 3656 7791 3654 4748 
4 9223 3230 4220 3229 
4 3325 3326 9310 4313 
4 9483 3073 5375 3072 
4 5471 3830 9880 7941 
4 9473 3093 5385 3092 
4 3837 5478 10019 7934 
4 3012 5345 3013 9513 
4 9887 5597 3959 7994 
4 9555 6968 5717 6990 
4 9411 2854 5270 2855 
4 3493 3496 7630 8847 
4 8943 3414 3412 7724 
4 9766 4686 3673 9768 
4 9835 6744 9833 4791 
4 7171 2934 9371 9372 
4 9090 6427 7097 7098 
4 8690 4854 3994 9247 
4 8781 9336 4945 4086 
4 3790 4818 8566 3773 
4 4647 4646 7707 3429 
4 5671 9601 7934 9602 
4 3411 8947 3408 6498 
4 6380 8986 4612 8183 
4 3815 10000 7956 5456 
4 7920 9587 9588 5685 
4 9564 7896 9563 5709 
4 9841 9843 6747 4797 
4 4765 3622 6731 9802 
4 9086 7096 6429 7095 
4 7148 483 303 9 
4 3403 8959 3399 6492 
4 4077 9165 4936 8607 
4 5368 7296 7297 3058 
4 3492 7627 7629 4685 
4 7282 7283 5382 3086 
4 3977 10027 7977 7976 
4 9587 7919 9586 5686 
4 7707 6617 3429 8922 
4 3064 5371 3065 9487 
4 2992 5335 2993 9523 
4 5027 4169 9254 8698 
4 5386 3095 3094 7279 
4 6802 8097 5817 7883 
4 8098 6803 7884 5818 
4 9861 5469 3828 7943 
4 4535 8232 6282 9083 
4 9563 7895 9562 5710 
4 6262 4520 8242 9104 
4 9583 9584 7916 5689 
4 5470 3829 9936 7942 
4 7029 3622 3624 9802 
4 5366 3054 3055 9492 
4 9099 6423 7103 7101 
4 9567 7899 9566 5706 
4 4096 8771 4955 9326 
4 9237 4004 4864 8680 
4 8769 4957 4098 9324 
4 9235 4006 4866 8678 
4 4097 8770 4956 9325 
4 9236 4005 4865 8679 
4 7603 4698 4699 9753 
4 8767 4959 4100 9322 
4 9233 4008 4868 8676 
4 8768 9323 4958 4099 
4 9234 4007 4867 8677 
4 9320 8765 4102 4961 
4 8674 4010 9231 4870 
4 8766 4960 4101 9321 
4 4009 9232 8675 4869 
4 8673 9230 4871 4011 
4 8672 9229 4872 4012 
4 9318 4104 4963 8763 
4 4962 9319 4103 8764 
4 8670 9227 4874 4014 
4 8671 9228 4873 4013 
4 9317 4105 4964 8762 
4 9316 4106 4965 8761 
4 4967 9314 4108 8759 
4 9315 4107 4966 8760 
4 8669 9226 4875 4015 
4 8668 9225 4876 4016 
4 8667 9224 4877 4017 
4 9312 4110 4969 8757 
4 9313 4109 4968 8758 
4 9311 4111 4970 8756 
4 5037 9344 9158 7131 
4 7894 9561 9562 5711 
4 3682 3502 7616 7622 
4 9478 3082 5380 3083 
4 3658 7644 3482 7640 
4 9568 7900 9567 5705 
4 5358 7307 3036 3038 
4 4665 4666 3458 7667 
4 7918 9585 9586 5687 
4 7890 9557 9558 5715 
4 9998 5606 3968 7985 
4 9595 9596 7928 5677 
4 3789 3775 4817 8565 
4 7901 9568 9569 5704 
4 9582 9583 7915 5690 
4 6394 7043 6482 8979 
4 9818 4779 9820 6738 
4 5352 3026 7313 9506 
4 3749 3739 2781 7833 
4 9561 7893 9560 5712 
4 7823 3572 4790 3570 
4 10003 5609 3971 7982 
4 5676 9596 7929 9597 
4 3422 6505 3418 8930 
4 6746 9839 4795 3562 
4 4589 8197 6352 9014 
4 7615 4691 4692 9760 
4 4705 7591 4704 9745 
4 9960 5463 3822 7949 
4 9581 9582 7914 5691 
4 7676 3454 7680 3622 
4 9580 9581 7913 5692 
4 9644 5805 9645 7979 
4 6697 3770 7878 8552 
4 9821 7711 4645 4644 
4 9594 9595 7927 5678 
4 8551 6698 7879 3771 
4 3111 9465 7271 3109 
4 483 6799 7031 7151 
4 581 7149 6798 7030 
4 9560 7892 9559 5713 
4 11 483 7148 9 
4 10 7150 8 581 
4 9401 7201 2875 5280 
4 9979 5610 3972 7981 
4 9639 5633 9640 7972 
4 5652 9621 9620 7953 
4 3966 9969 5604 7987 
4 7154 2967 2968 9355 
4 3974 10022 5612 7979 
4 6668 8828 3506 7609 
4 9417 2842 5264 2843 
4 9579 9580 7912 5693 
4 7633 3485 4683 4682 
4 9733 9730 3886 5809 
4 7865 7880 8549 3772 
4 7863 8550 3769 7877 
4 7902 9569 9570 5703 
4 8145 8481 9816 6737 
4 10023 7978 5613 3975 
4 6426 9094 7100 7099 
4 7661 4668 9791 4667 
4 3809 7962 9987 5450 
4 9990 5462 3821 7950 
4 3552 8458 9845 6748 
4 7917 9584 9585 5688 
4 7048 7047 6478 8990 
4 9336 3300 3299 7559 
4 3205 9247 3206 7466 
4 5474 3833 10002 7938 
4 5520 9937 7892 3879 
4 5670 7935 9603 9602 
4 5702 7903 9571 9570 
4 8201 4584 4453 4452 
4 3820 9900 5461 7951 
4 3520 7599 4700 4701 
4 2828 9424 2829 5257 
4 3806 7965 9994 5447 
4 7281 9474 5384 3090 
4 7853 580 401 581 
4 9458 3125 3123 7264 
4 7908 3863 5504 9875 
4 3470 4754 7658 7654 
4 7688 7682 3446 4768 
4 9907 5608 3970 7983 
4 7081 7083 6442 9059 
4 9904 5605 3967 7986 
4 4680 7641 4679 9775 
4 6546 3476 3478 8867 
4 9590 7922 9589 5683 
4 3709 8110 9745 8373 
4 7295 9488 5370 3062 
4 9622 5650 9623 7955 
4 7960 3811 5452 9882 
4 9539 7338 9354 2977 
4 3135 7259 5406 3133 
4 8158 9778 6722 7006 
4 3671 5111 8391 8392 
4 7004 6716 9762 8163 
4 4402 6505 4510 8251 
4 8962 4386 8267 4484 
4 7936 5669 9603 9604 
4 7984 5607 9971 3969 
4 4824 2771 7351 7140 
4 7331 5334 2990 9524 
4 7337 5328 5048 8173 
4 9947 3810 7961 5451 
4 7906 3865 5506 9888 
4 9648 9649 7983 5801 
4 5473 3832 9894 7939 
4 7390 3281 3282 9171 
4 3375 7484 3374 9261 
4 3279 7393 3278 9174 
4 7487 3371 3372 9264 
4 3276 7396 3275 9177 
4 9210 7429 3243 3242 
4 7520 9297 3338 3339 
4 7490 3368 3369 9267 
4 7399 3272 3273 9180 
4 9294 3342 3341 7517 
4 7426 3246 9207 3245 
4 3366 7493 3365 9270 
4 3362 9273 3363 7496 
4 3344 9291 3345 7514 
4 3254 3255 7417 9198 
4 3359 9276 3360 7499 
4 7402 3269 3270 9183 
4 7414 3257 3258 9195 
4 7411 3260 3261 9192 
4 3251 3252 7420 9201 
4 3248 3249 7423 9204 
4 7405 3266 3267 9186 
4 9279 3357 3356 7502 
4 7408 3263 3264 9189 
4 9288 3348 3347 7511 
4 3350 9285 3351 7508 
4 3353 9282 3354 7505 
4 7432 9213 3239 3240 
4 7523 3335 3336 9300 
4 7526 3332 3333 9303 
4 7435 9216 3236 3237 
4 6120 3896 5534 9855 
4 9629 5643 9630 7962 
4 5642 9631 9630 7963 
4 3330 7529 3329 9306 
4 9219 7438 3234 3233 
4 5639 9634 9633 7966 
4 9572 5701 7904 9571 
4 9638 5634 9639 7971 
4 7334 9527 9528 2985 
4 9915 7980 5611 3973 
4 8452 8453 9846 3549 
4 9864 6137 5551 3913 
4 4497 4396 8257 8944 
4 9828 7726 4787 3417 
4 9858 3932 6156 5570 
4 9651 9652 7986 5798 
4 6170 3946 5584 9862 
4 3453 3447 7675 8894 
4 7534 3324 3325 9311 
4 9224 3229 3228 7443 
4 7905 3866 5507 9989 
4 3440 3443 6521 8902 
4 7321 5344 3010 9514 
4 4632 4631 7735 3400 
4 3936 5574 6160 9878 
4 9484 3070 5374 7291 
4 7657 9788 4671 9786 
4 9910 7922 5490 3849 
4 6119 3895 5533 9919 
4 6130 3906 5544 9874 
4 9648 7982 9647 5802 
4 9927 6136 5550 3912 
4 7003 6718 9767 8161 
4 9593 9594 7926 5679 
4 9650 5799 9651 7985 
4 3497 8836 3500 6561 
4 3924 9931 5562 6148 
4 9632 5640 9633 7965 
4 9466 3107 7273 5392 
4 3892 3893 6117 9920 
4 7905 9572 9573 5700 
4 5510 9959 7902 3869 
4 4169 5028 9253 8698 
4 7142 7349 2769 4823 
4 9646 9647 7981 5803 
4 9923 3901 6125 5539 
4 9922 3931 6155 5569 
4 6169 3945 5583 9925 
4 9164 4077 4937 8607 
4 3899 5537 6123 9917 
4 9636 9635 5637 7968 
4 7911 3860 5501 9942 
4 9604 5668 9605 7937 
4 3935 5573 6159 9934 
4 5667 9606 9605 7938 
4 9650 7984 9649 5800 
4 8128 8431 9817 3593 
4 3223 9229 3224 7448 
4 3320 7539 3319 9316 
4 5508 9948 7904 3867 
4 3227 9225 3228 7444 
4 3324 7535 3323 9312 
4 5644 9629 9628 7961 
4 5641 9632 9631 7964 
4 9879 6139 5553 3915 
4 7959 3812 5453 9957 
4 9635 7967 9634 5638 
4 5554 3916 9955 6140 
4 9652 9653 7987 5797 
4 3008 7322 9516 9515 
4 9578 9579 7911 5694 
4 3803 7968 9995 5444 
4 7988 9653 9654 5796 
4 7324 9518 3004 9517 
4 7955 3816 5457 9912 
4 3905 9932 5543 6129 
4 8549 7880 6700 3772 
4 3808 7963 9899 5449 
4 3759 4818 3773 7847 
4 8782 9337 4944 4085 
4 8691 4853 3993 9248 
4 3805 7966 9901 5446 
4 3769 8550 6699 7877 
4 9949 6150 5564 3926 
4 7925 5487 9905 3846 
4 5323 7158 2958 9359 
4 5509 9883 7903 3868 
4 6581 8802 3526 3529 
4 9636 5636 9637 7969 
4 5635 9638 9637 7970 
4 9873 6149 5563 3925 
4 5478 3837 10021 7934 
4 8866 7647 3471 3477 
4 3000 7326 9520 9519 
4 3116 9462 9461 7268 
4 6124 3900 5538 9853 
4 9333 3303 3302 7556 
4 3208 9244 3209 7463 
4 7909 3862 5503 9929 
4 3215 9237 3216 7456 
4 3309 9326 3310 7549 
4 3321 7538 3320 9315 
4 3224 9228 3225 7447 
4 3225 9227 3226 7446 
4 3322 7537 3321 9314 
4 2800 9438 2801 5243 
4 3775 7845 4817 8565 
4 7332 9525 9526 2988 
4 6112 5526 9355 7886 
4 9859 3902 6126 5540 
4 7301 9495 3050 9494 
4 7536 3322 3323 9313 
4 3226 9226 3227 7445 
4 3701 9750 8377 8111 
4 3807 7964 9964 5448 
4 5477 3836 10019 7935 
4 9627 5645 9628 7960 
4 7478 3380 3381 9255 
4 3819 9965 5460 7952 
4 9970 7926 5486 3845 
4 3285 7387 3284 9168 
4 6692 9547 8106 8544 
4 6501 3413 3416 8936 
4 7980 9645 9646 5804 
4 5646 7959 9627 9626 
4 3903 5541 6127 9928 
4 9844 9846 4625 3549 
4 5519 9872 7893 3878 
4 3307 9328 3308 7551 
4 3213 9239 3214 7458 
4 7916 3855 5496 9977 
4 3893 5531 6117 9920 
4 9327 3309 3308 7550 
4 3214 9238 3215 7457 
4 8793 3537 4472 3540 
4 9330 3306 3305 7553 
4 9241 3212 3211 7460 
4 7967 3804 5445 9966 
4 7481 3377 3378 9258 
4 9619 5653 9620 7952 
4 3304 9331 3305 7554 
4 9242 3211 3210 7461 
4 9324 3312 3311 7547 
4 9235 7454 3218 3217 
4 10013 7921 5491 3850 
4 7704 3435 4777 9816 
4 7891 9558 9559 5714 
4 3219 9233 3220 7452 
4 3313 9322 3314 7545 
4 3316 7543 3315 9320 
4 7978 9643 9644 5806 
4 3652 7793 3650 4750 
4 7152 7845 2972 2784 
4 9486 9485 3068 7292 
4 3847 5488 7924 9999 
4 7323 5342 3006 9516 
4 5475 3834 9978 7937 
4 3221 9231 3222 7450 
4 7541 3317 3318 9318 
4 3897 9918 5535 6121 
4 9926 6157 5571 3933 
4 7542 9319 3316 3317 
4 9321 3314 7544 3315 
4 3221 9232 7451 3220 
4 3312 9323 3313 7546 
4 3218 9234 3219 7453 
4 3947 5585 6171 9933 
4 4818 8566 3773 7847 
4 7328 9522 2996 9521 
4 3060 7296 9490 9489 
4 10027 6201 3977 3976 
4 9476 9475 3088 7282 
4 8187 6372 4604 8994 
4 3478 3476 7648 8867 
4 7005 6743 9831 8140 
4 9463 3112 9464 7270 
4 9325 3311 3310 7548 
4 9236 7455 3217 3216 
4 5722 8062 9728 9727 
4 3904 5542 6128 9860 
4 9518 3002 5340 7325 
4 7936 3835 5476 9914 
4 9482 3075 5376 7289 
4 7269 9462 5396 3114 
4 7923 9590 9591 5682 
4 3948 5586 6172 9877 
4 9419 2839 5262 2838 
4 6203 6021 7153 8071 
4 7132 7130 6393 9156 
4 5338 2998 7327 9520 
4 9038 6328 8209 4573 
4 4808 8549 6700 3772 
4 9505 7311 9504 3031 
4 3301 9334 3302 7557 
4 3207 9245 3208 7464 
4 9468 3105 3103 7274 
4 3319 7540 3318 9317 
4 9230 7449 3223 3222 
4 9548 3547 6691 3545 
4 8503 3642 4754 7658 
4 10012 5458 3817 7954 
4 8550 4807 3769 6699 
4 3894 5532 6118 9856 
4 7688 4768 3614 8489 
4 5649 9624 9623 7956 
4 8188 4604 4466 4465 
4 9399 2879 9400 7199 
4 9332 3304 3303 7555 
4 9243 3210 3209 7462 
4 3749 6689 7572 7855 
4 7180 9380 9381 2916 
4 3300 9335 3301 7558 
4 9246 3207 3206 7465 
4 3291 9341 7380 5233 
4 9758 4694 7609 9757 
4 7385 3286 3287 9166 
4 6994 5141 8540 7334 
4 9574 7906 9573 5699 
4 9329 3307 3306 7552 
4 3212 9240 3213 7459 
4 9790 8409 9791 3635 
4 5666 9607 9606 7939 
4 7581 4708 4709 9741 
4 9592 9593 7925 5680 
4 9935 6138 5552 3914 
4 9416 2845 5265 2844 
4 7920 5492 10008 3851 
4 7094 7092 9081 6431 
4 7894 5518 9945 3877 
4 3135 9453 7259 3133 
4 5511 9908 7901 3870 
4 7910 5695 9577 9578 
4 3802 5443 7969 9902 
4 6132 3908 5546 9886 
4 5325 7156 2965 9356 
4 9890 3938 6162 5576 
4 3898 5536 6122 9854 
4 6158 9863 3934 5572 
4 3659 9775 8398 8118 
4 3645 8405 8120 9784 
4 7989 9654 9655 5795 
4 5479 3838 10020 7933 
4 7907 9574 9575 5698 
4 9607 5665 9608 7940 
4 3147 5412 3144 7253 
4 3281 7391 3280 9172 
4 7485 3373 3374 9262 
4 7436 9217 3235 3236 
4 7527 3332 9304 3331 
4 6661 8840 6659 7623 
4 7394 3277 3278 9175 
4 7524 3334 3335 9301 
4 7433 9214 3238 3239 
4 3371 7488 3370 9265 
4 7430 9211 3241 3242 
4 7521 3337 3338 9298 
4 7397 9178 3274 3275 
4 9295 3341 3340 7518 
4 3244 7427 9208 3245 
4 3368 7491 3367 9268 
4 3272 7400 3271 9181 
4 3343 9292 3344 7515 
4 3247 3248 7424 9205 
4 7494 9271 3364 3365 
4 3256 3257 7415 9196 
4 3250 3251 7421 9202 
4 9289 3347 3346 7512 
4 9286 3350 3349 7509 
4 7412 3259 3260 9193 
4 3361 9274 3362 7497 
4 3266 7406 3265 9187 
4 3269 7403 3268 9184 
4 7418 9199 3253 3254 
4 3263 7409 3262 9190 
4 3355 9280 3356 7503 
4 3358 9277 3359 7500 
4 9283 3353 3352 7506 
4 3852 7919 9972 5493 
4 7731 6605 3409 8946 
4 9431 2815 5250 2814 
4 3775 7845 3761 4817 
4 9608 5664 9609 7941 
4 7315 9508 9509 3022 
4 5663 9610 9609 7942 
4 8021 9686 9687 5763 
4 8020 9685 9686 5764 
4 5730 9719 8054 9720 
4 8055 5729 9720 9721 
4 9688 8022 9687 5762 
4 8041 9706 9707 5743 
4 5776 8008 9674 9673 
4 5765 9685 9684 8019 
4 5662 9610 7943 9611 
4 9706 8040 9705 5744 
4 5777 8007 9673 9672 
4 5728 8056 9722 9721 
4 5731 8053 9719 9718 
4 9591 9592 7924 5681 
4 8018 5766 9683 9684 
4 8039 9704 9705 5745 
4 5778 8006 9672 9671 
4 5727 8057 9723 9722 
4 9694 9695 8029 5755 
4 9661 5788 9662 7996 
4 8052 5732 9717 9718 
4 5736 8048 9714 9713 
4 3937 5575 6161 9954 
4 6131 3907 5545 9950 
4 3284 7388 3283 9169 
4 9693 9694 8028 5756 
4 9661 9660 5789 7995 
4 7341 8555 5435 6005 
4 9974 7923 5489 3848 
4 9885 6151 5565 3927 
4 9682 5767 9683 8017 
4 5746 9703 8038 9704 
4 8005 5779 9670 9671 
4 8600 3158 7344 7246 
4 8047 5737 9712 9713 
4 9507 7313 9506 3027 
4 5735 9715 9714 8049 
4 8058 5726 9723 9724 
4 9496 7303 3046 9497 
4 7944 5661 9611 9612 
4 8023 9688 9689 5761 
4 9708 8042 9707 5742 
4 5775 8009 9675 9674 
4 7306 3041 5359 9499 
4 9220 3232 7439 3233 
4 3329 7530 3328 9307 
4 9662 5787 9663 7997 
4 9695 9696 8030 5754 
4 6322 9044 4566 8212 
4 3841 9975 5482 7930 
4 7958 5647 9625 9626 
4 3818 10006 5459 7953 
4 7320 3013 9513 9514 
4 8995 7051 7049 6474 
4 5517 10005 7895 3876 
4 7479 3379 3380 9256 
4 5383 9475 3088 3089 
4 9656 7990 9655 5794 
4 9484 9483 3073 7290 
4 7017 6746 9839 8138 
4 3061 5369 3060 9489 
4 9692 9693 8027 5757 
4 9711 5738 9712 8046 
4 9660 7994 9659 5790 
4 5768 9682 9681 8016 
4 9703 8037 9702 5747 
4 5780 8004 9670 9669 
4 7482 3376 3377 9259 
4 5632 9640 7973 9641 
4 3984 8094 9551 8070 
4 5733 9716 8051 9717 
4 4410 4520 8243 8914 
4 9550 8093 8069 3983 
4 5495 7917 3854 10001 
4 8059 5725 9724 9725 
4 9715 5734 9716 8050 
4 7912 10004 3859 5500 
4 5514 9973 7898 3873 
4 3379 7480 3378 9257 
4 9692 8026 9691 5758 
4 5739 9711 9710 8045 
4 7993 9658 9659 5791 
4 7068 6457 7066 9029 
4 9680 5769 9681 8015 
4 5781 9668 8003 9669 
4 9701 9702 8036 5748 
4 9556 9555 6968 5717 
4 8816 3520 3514 4460 
4 8411 8410 5091 3633 
4 9156 9154 5031 8359 
4 10007 7927 5485 3844 
4 3036 7307 9501 3038 
4 2869 9404 2868 5277 
4 5648 9625 9624 7957 
4 5659 7946 9614 9613 
4 5347 7318 3017 9511 
4 5773 9676 8011 9677 
4 5785 9665 9664 7999 
4 9698 5752 8032 9697 
4 7945 5660 9612 9613 
4 9676 5774 8010 9675 
4 9663 5786 9664 7998 
4 8031 9696 9697 5753 
4 7947 5658 9614 9615 
4 8012 5772 9677 9678 
4 9665 5784 9666 8000 
4 9698 9699 8033 5751 
4 2963 5324 2962 9357 
4 9690 8024 9689 5760 
4 9709 8043 9708 5741 
4 9538 9353 2791 7243 
4 9657 7991 9656 5793 
4 10027 10023 5614 7977 
4 4674 3649 4675 9782 
4 8228 4541 9075 6290 
4 6416 9111 7107 7109 
4 5654 9619 9618 7951 
4 3116 5397 9461 3117 
4 7948 9616 5657 9615 
4 7237 2802 9437 9438 
4 9679 5771 8013 9678 
4 5783 9666 8001 9667 
4 9699 9700 8034 5750 
4 8060 5724 9725 9726 
4 9347 6022 5424 8073 
4 9691 8025 9690 5759 
4 9710 8044 9709 5740 
4 9658 7992 9657 5792 
4 7909 9576 9577 5696 
4 5499 10016 7913 3858 
4 8579 7135 6390 2671 
4 5516 10011 7896 3875 
4 3429 4406 3424 8924 
4 6374 8186 6372 4606 
4 6238 9128 4503 8254 
4 9617 5655 9618 7950 
4 5770 9680 9679 8014 
4 9668 5782 8002 9667 
4 9700 9701 8035 5749 
4 9791 7661 4667 7665 
4 5481 3840 10010 7931 
4 8840 8206 4575 4447 
4 5515 9909 7897 3874 
4 4669 7663 4668 9790 
4 7193 9393 9394 2890 
4 10000 5455 3814 7957 
4 5723 8061 9727 9726 
4 9451 3136 7258 5407 
4 2809 5247 2808 9434 
4 7788 3668 4742 3666 
4 3230 7441 9222 3231 
4 7532 3326 3327 9309 
4 9087 6428 7098 7095 
4 3798 5632 7973 9641 
4 9911 7929 5483 3842 
4 7908 9575 9576 5697 
4 7531 3327 3328 9308 
4 9221 3232 3231 7440 
4 5333 2989 9525 2988 
4 9906 7918 5494 3853 
4 2876 9401 9400 7200 
4 3093 9474 9473 7280 
4 9986 6145 5559 3921 
4 3286 7386 3285 9167 
4 3009 5343 3008 9515 
4 9976 3815 7956 5456 
4 7029 6731 9802 8150 
4 4824 7351 7867 7140 
4 7978 5805 3975 5806 
4 6814 7469 9639 9640 
4 7330 9524 2993 9523 
4 8093 9550 6015 3983 
4 3984 8094 6016 9551 
4 7562 6815 9728 9727 
4 7389 9170 3282 3283 
4 8265 6216 6214 9149 
4 7294 9488 3065 9487 
4 3942 5580 6166 9982 
4 3331 7528 3330 9305 
4 7437 9218 3234 3235 
4 7483 3375 3376 9260 
4 3077 9481 5377 7288 
4 5555 9891 6141 3917 
4 9387 7186 9386 2904 
4 7392 3279 3280 9173 
4 3334 7525 3333 9302 
4 9215 7434 3238 3237 
4 9212 7431 3241 3240 
4 3337 7522 3336 9299 
4 7395 3276 3277 9176 
4 7489 3369 3370 9266 
4 3339 9296 3340 7519 
4 3244 9209 7428 3243 
4 3274 7398 3273 9179 
4 7492 3366 3367 9269 
4 3342 9293 3343 7516 
4 3246 3247 7425 9206 
4 3271 7401 3270 9182 
4 3363 9272 3364 7495 
4 9278 3358 3357 7501 
4 3268 7404 3267 9185 
4 9275 3361 3360 7498 
4 7407 3264 3265 9188 
4 3259 7413 3258 9194 
4 3262 7410 3261 9191 
4 3255 3256 7416 9197 
4 3345 9290 3346 7513 
4 3351 9284 3352 7507 
4 3348 9287 3349 7510 
4 3250 7422 3249 9203 
4 7419 3252 3253 9200 
4 9281 3355 3354 7504 
4 3373 9263 7486 3372 
4 10014 7928 5484 3843 
4 9485 3069 3068 5373 
4 9007 8194 4594 6358 
4 2845 7216 9417 9416 
4 3801 7970 9967 5442 
4 9434 2808 9435 7234 
4 5480 3839 10017 7932 
4 6548 3479 3481 8863 
4 9984 6133 5547 3909 
4 4440 4441 4566 8213 
4 7655 7653 3469 4672 
4 8840 4575 4448 4447 
4 5566 9983 6152 3928 
4 8225 6296 4545 9069 
4 6723 8157 9780 7024 
4 7869 7349 7142 4823 
4 7729 3409 3404 8948 
4 9419 2839 9420 7219 
4 3005 5341 3004 9517 
4 5331 2984 9527 2985 
4 3000 3001 5339 9519 
4 5048 5328 5138 8173 
4 4682 4681 3663 9773 
4 8874 7657 3467 6644 
4 7014 6719 9770 8160 
4 9463 3112 5395 3113 
4 9993 6142 5556 3918 
4 5549 9868 6135 3911 
4 5561 9871 6147 3923 
4 9898 3920 6144 5558 
4 5568 9865 6154 3930 
4 6168 3944 5582 9867 
4 9616 5656 9617 7949 
4 8828 3503 3506 7613 
4 7958 3813 5454 9893 
4 9003 7055 7053 6470 
4 8182 4613 8793 6588 
4 2997 5337 2996 9521 
4 9441 9440 2797 7240 
4 7914 3857 5498 10018 
4 9431 9432 7231 2815 
4 4694 9758 3689 9757 
4 5672 5673 3839 7932 
4 7733 4633 3406 3404 
4 3501 6563 3499 8839 
4 3799 3798 9968 6026 
4 9992 3939 6163 5577 
4 3673 9766 8391 8390 
4 4825 3169 8560 8573 
4 8574 8562 3171 4826 
4 9067 7085 6438 7087 
4 3491 6555 3489 8851 
4 9774 4744 7634 7638 
4 7830 8792 3392 3391 
4 4626 4625 7749 3394 
4 4530 8235 6276 9090 
4 3941 5579 6165 9896 
4 8268 8966 4385 6485 
4 8224 4550 4430 4429 
4 5513 10009 7899 3872 
4 2771 4824 7867 7140 
4 4490 8263 6220 9146 
4 3127 9457 9456 7263 
4 3097 9472 9471 7278 
4 3977 10027 3976 7977 
4 7915 9913 3856 5497 
4 6389 8580 7138 2668 
4 5673 5674 3840 7931 
4 9729 5721 8063 9728 
4 6544 3472 3474 8871 
4 6240 6238 4507 8253 
4 5512 10015 7900 3871 
4 5301 2917 7180 9380 
4 6591 8360 8790 8361 
4 3890 3891 6115 9921 
4 5299 2912 9382 2913 
4 6661 4687 7625 7623 
4 10023 6200 5614 7977 
4 2992 5335 7330 5145 
4 8461 8462 3560 5220 
4 5185 5375 3072 7290 
4 8899 3450 3448 6527 
4 5671 5672 3838 7933 
4 9447 3147 3144 7253 
4 8203 6338 6340 4582 
4 5371 7294 3064 5181 
4 4184 7884 4376 5622 
4 5621 4183 4375 7883 
4 5650 5651 3817 7954 
4 7921 3850 5684 5683 
4 3541 3539 7760 6801 
4 9458 9457 3125 7264 
4 2967 2966 2968 9355 
4 3121 9459 5399 7266 
4 7074 7076 6449 9045 
4 9770 7632 3670 7630 
4 8156 9783 6724 7028 
4 9738 6750 8543 8173 
4 5621 7883 9159 7368 
4 7884 7369 9160 5622 
4 6810 5718 6990 7384 
4 3092 5385 7280 5195 
4 8411 8410 7199 5091 
4 3881 7890 5714 5715 
4 7197 9397 9398 2882 
4 9401 2874 9402 7201 
4 3434 6513 3431 8916 
4 4646 7709 7705 3424 
4 6734 4771 9809 3608 
4 7869 7142 2769 4823 
4 4773 9812 6735 3604 
4 5316 2946 9365 2947 
4 4427 8226 8880 4545 
4 4576 8207 4446 6557 
4 5674 5675 3841 7930 
4 3158 2786 7246 7847 
4 4699 7601 9753 9751 
4 9549 7473 3385 5628 
4 9846 9844 4625 7747 
4 6300 9066 4550 8223 
4 6246 9119 6244 8250 
4 6505 4510 8251 8930 
4 2797 9440 2796 5241 
4 3096 5387 7278 5197 
4 9644 9643 7478 6969 
4 9821 9819 4645 7709 
4 9018 7063 9019 2744 
4 5521 9884 7891 3880 
4 3874 7897 5707 5708 
4 8247 4512 9113 6252 
4 9464 3111 9465 7271 
4 3464 8874 7659 3467 
4 4717 9742 6707 3716 
4 9797 9796 4664 7671 
4 2831 9423 2830 5258 
4 9837 6745 3564 8464 
4 2870 5278 9403 2871 
4 4719 6708 3712 9744 
4 3873 7898 5706 5707 
4 4721 9747 6709 3708 
4 4757 9792 6727 3636 
4 6728 3632 4759 9795 
4 4558 8868 6542 4434 
4 5291 2896 9390 2897 
4 3584 6740 9825 4783 
4 4729 9756 6713 3692 
4 5567 9938 6153 3929 
4 3514 7597 7601 4700 
4 3101 9469 5389 7276 
4 3943 9940 5581 6167 
4 8196 4591 6352 6354 
4 9223 3230 3229 7442 
4 7533 3325 3326 9310 
4 7010 5217 8464 7258 
4 9542 7136 9343 6012 
4 5670 5671 3837 7934 
4 8826 8199 4586 4454 
4 580 7852 8097 6007 
4 6008 484 8098 7854 
4 8947 3411 3408 7732 
4 7920 3851 5685 5684 
4 7896 3875 5709 5708 
4 3799 3798 7973 9968 
4 2765 7041 6394 8976 
4 6270 8238 9095 6268 
4 9368 5313 2941 2940 
4 3890 9729 5721 8063 
4 4769 6733 3612 9807 
4 7852 8097 6007 5427 
4 8098 6008 7854 5428 
4 8834 8203 4580 4450 
4 6726 9789 3640 4755 
4 6164 3940 5578 9962 
4 8900 4417 8236 4530 
4 7223 9424 2831 9423 
4 8800 8186 4605 4467 
4 9493 3052 7299 5366 
4 9749 4723 3704 6710 
4 3797 3798 7973 9641 
4 9422 2832 5259 2833 
4 4727 9754 6712 3696 
4 9793 9791 3633 4667 
4 7919 3852 5686 5685 
4 4400 4505 8253 8934 
4 9752 4725 3700 6711 
4 6244 9121 4508 8251 
4 8923 7708 3432 3428 
4 3479 7646 3481 8863 
4 7179 5111 8391 8390 
4 7655 7653 4672 9784 
4 3628 4761 6729 9798 
4 7170 2935 5311 9371 
4 9793 9791 4667 7665 
4 9642 6811 7477 5807 
4 6805 3758 7858 7347 
4 3756 7856 6804 7346 
4 2899 9389 5292 2898 
4 3876 7895 5709 5710 
4 3149 9445 5413 7252 
4 5317 2949 9364 2948 
4 7928 5676 3843 5677 
4 5155 7320 8526 7023 
4 9963 6143 5557 3919 
4 7297 3059 9490 9491 
4 3872 7899 5705 5706 
4 9477 7283 9476 3087 
4 9047 7077 7076 6449 
4 4780 7710 9820 8477 
4 7916 3855 5689 5688 
4 8842 8207 4576 6557 
4 8792 4384 3392 3391 
4 7025 5187 8494 7288 
4 7894 3877 5711 5710 
4 9404 2869 9405 7204 
4 5676 7929 3842 5675 
4 4781 9822 6739 3588 
4 9391 7190 9390 2897 
4 3853 7918 5686 5687 
4 7620 3501 3499 8839 
4 6328 6330 9035 8208 
4 3891 8062 3892 9857 
4 7314 5351 3024 9507 
4 7900 3871 5705 5704 
4 2864 2865 9406 5275 
4 7915 3856 5690 5689 
4 6696 9354 6024 3164 
4 3844 7927 5677 5678 
4 6286 8229 6288 9077 
4 3891 5529 6115 9921 
4 9366 7165 9365 2947 
4 3742 7836 3750 7858 
4 7834 3741 7856 3748 
4 4586 8826 4454 4455 
4 3857 7914 5690 5691 
4 5289 2892 9392 2893 
4 9384 7183 9383 2910 
4 7913 3858 5692 5691 
4 5548 9941 6134 3910 
4 7893 3878 5712 5711 
4 7381 3291 7380 5233 
4 5560 9944 6146 3922 
4 5805 9645 5804 6961 
4 3564 7017 9839 8463 
4 7901 3870 5704 5703 
4 9510 7316 9509 3021 
4 3045 7304 9498 9497 
4 7110 9113 6416 7109 
4 9433 2811 5248 2810 
4 3495 8842 6557 7627 
4 6364 8190 6366 8999 
4 5350 3023 9508 3022 
4 3818 5651 5652 7953 
4 3849 7922 5682 5683 
4 3859 7912 5692 5693 
4 3816 5649 5650 7955 
4 9400 7200 2877 5281 
4 9153 6210 6209 6395 
4 7574 7372 7857 6690 
4 4671 9788 3643 9786 
4 4387 8962 8266 4484 
4 6533 4426 8227 4546 
4 8458 7252 7001 5223 
4 3684 7004 9762 8523 
4 3879 7892 5712 5713 
4 7801 4663 3451 7673 
4 5298 2911 9383 2910 
4 5166 3668 8516 8515 
4 9557 6959 5715 5716 
4 8083 9161 4939 8603 
4 7917 3854 5688 5687 
4 9868 5548 6135 3910 
4 9871 5560 6147 3922 
4 3974 5805 7979 5804 
4 5669 5670 3836 7935 
4 7710 7706 4780 9820 
4 6485 3390 3394 8964 
4 8959 7744 3403 3399 
4 7902 5702 3869 5703 
4 7278 5196 7000 5197 
4 4798 9843 7746 7742 
4 7880 7134 6700 3772 
4 5214 3572 8468 8467 
4 9115 8248 6248 6250 
4 5702 5701 7903 3868 
4 6699 3769 7877 7139 
4 3839 6067 5480 10017 
4 4544 8227 6292 9073 
4 9865 5567 6154 3929 
4 3943 6168 5581 9867 
4 6382 8983 4610 8182 
4 9824 7713 9823 4642 
4 4792 9835 7734 7730 
4 6992 7148 303 9 
4 5635 5636 3802 7969 
4 8565 3775 7144 6704 
4 9941 5547 6134 3909 
4 9778 8511 3660 7006 
4 7936 5669 5668 3835 
4 9944 5559 6146 3921 
4 3892 8061 5530 9857 
4 5481 3840 6068 10010 
4 8693 4851 3991 9250 
4 8784 9339 4942 4083 
4 3487 8852 3483 7637 
4 5194 7016 7280 5195 
4 5144 7009 7330 5145 
4 7739 3402 3398 8954 
4 7926 3845 5679 5678 
4 9534 4473 3539 3540 
4 7595 3518 4702 7773 
4 5636 5637 3803 7968 
4 9770 7632 4741 3670 
4 3838 6066 5479 10020 
4 9137 6226 6228 8259 
4 3970 7983 5800 5801 
4 9846 4624 7751 7747 
4 7294 5181 5180 7015 
4 7645 3475 4677 7792 
4 5638 5639 3805 7966 
4 8872 4551 4432 4431 
4 6302 6300 4552 8222 
4 6258 6256 8244 9107 
4 5641 5642 3808 7963 
4 5643 3809 5642 7962 
4 3891 8062 5529 9921 
4 3967 7986 5797 5798 
4 9478 3082 7285 5380 
4 7309 9503 3032 5356 
4 3485 7635 7633 4683 
4 7911 3860 5694 5693 
4 5634 5635 3801 7970 
4 5701 7904 3867 5700 
4 7052 7051 8997 6474 
4 3971 7982 5801 5802 
4 4633 7824 7733 3406 
4 7299 3054 5366 9492 
4 3968 5799 7985 5798 
4 5639 5640 3806 7965 
4 3866 7905 5699 5700 
4 7981 3972 5803 5802 
4 5183 6999 5182 7292 
4 3409 4394 3404 8948 
4 4505 4401 8252 8934 
4 6639 3461 7665 8882 
4 7132 7130 2676 6393 
4 8410 8409 5092 3635 
4 5666 5667 3833 7938 
4 6998 7328 5146 5147 
4 5637 7967 5638 3804 
4 5667 5668 3834 7937 
4 5522 9980 7890 3881 
4 7984 5799 3969 5800 
4 6533 8227 8882 4546 
4 3624 7029 9802 8493 
4 8262 6222 4492 6220 
4 5640 5641 3807 7964 
4 3143 9448 5410 7255 
4 5142 5143 6995 7332 
4 7088 9072 9070 2718 
4 6636 3456 7671 8888 
4 7988 3965 5796 5795 
4 7923 3848 5682 5681 
4 6811 6991 7477 5807 
4 5585 3947 6172 9877 
4 8564 7339 7345 6706 
4 3966 7987 5796 5797 
4 8836 8204 4582 6561 
4 4420 6525 8896 4537 
4 6310 9055 6308 8218 
4 5643 5644 3810 7961 
4 4391 3402 8952 8954 
4 8241 6262 9101 6264 
4 8860 7643 3480 6650 
4 8211 4570 6322 6324 
4 4372 4846 7882 8084 
4 5535 3897 6122 9854 
4 6158 9863 5571 3933 
4 5648 5649 3815 7956 
4 4392 4495 8261 8950 
4 3880 7891 5713 5714 
4 3778 3756 7346 7860 
4 7737 4632 7735 3400 
4 8378 5124 3699 8377 
4 5150 7324 5151 7018 
4 7980 3973 5804 5803 
4 5152 7322 5153 7020 
4 9918 3896 5534 6121 
4 8810 3523 6674 7593 
4 9020 6346 8200 4584 
4 3932 9926 6157 5570 
4 5584 3946 6171 9933 
4 8822 6570 8197 4591 
4 5653 3819 5652 7952 
4 8211 6322 9041 6324 
4 7011 7326 5148 5149 
4 7268 5206 7019 5207 
4 3657 8399 5103 8398 
4 8432 3591 8431 5070 
4 8405 8406 3643 5096 
4 8262 6222 6220 9143 
4 6145 3920 9986 5558 
4 6138 9935 5551 3913 
4 9938 5566 6153 3928 
4 6705 7343 7244 8563 
4 8378 5124 8377 7166 
4 2765 7042 8976 6014 
4 5580 9940 3942 6167 
4 7013 7270 5204 5205 
4 4375 5621 7883 9159 
4 7884 9160 4376 5622 
4 6143 9963 5556 3918 
4 3487 8852 8850 4442 
4 3908 6133 5546 9984 
4 3890 8063 3891 9921 
4 5574 3936 6161 9954 
4 5103 8399 7187 8398 
4 7220 8432 8431 5070 
4 8061 3892 5530 9920 
4 2979 2978 9530 2981 
4 4418 8900 8235 4530 
4 3906 6131 5544 9950 
4 9063 6300 6302 8222 
4 4582 8204 4449 6561 
4 3938 9992 6163 5576 
4 9993 5555 6142 3917 
4 7973 3798 10026 5439 
4 7144 7859 6704 2774 
4 8405 8406 5096 7194 
4 4368 4168 9254 9255 
4 8902 6521 8237 4531 
4 8800 4605 8185 4468 
4 5128 3707 8374 8373 
4 8059 5725 5724 3894 
4 8187 6581 4606 8802 
4 5578 3940 6165 9896 
4 3939 6164 5577 9962 
4 5185 7012 5184 7290 
4 7146 8566 3773 6703 
4 5579 3941 6166 9982 
4 9049 6314 6316 8215 
4 9393 5289 7192 9392 
4 9419 5262 7219 2838 
4 3846 7925 5679 5680 
4 5644 5645 3811 7960 
4 3916 5554 9891 6141 
4 7906 3865 5699 5698 
4 5665 5666 3832 7939 
4 9434 9433 5248 7233 
4 3893 6118 5531 9856 
4 6152 9983 5565 3927 
4 3890 9729 8063 3889 
4 7603 4698 7776 3510 
4 5726 5725 8058 3895 
4 6144 9898 5557 3919 
4 7861 7146 2773 6703 
4 6014 4842 4479 8180 
4 5645 7959 5646 3812 
4 5695 7910 3861 5694 
4 9767 7628 3674 7624 
4 6020 7041 8980 2764 
4 7309 3034 5356 9502 
4 9443 3153 9444 7250 
4 6570 8197 4591 4456 
4 2935 5310 2934 9371 
4 3964 7989 5794 5795 
4 3847 7924 5680 5681 
4 3864 7907 5697 5698 
4 6501 4507 8254 8936 
4 3831 5664 5665 7940 
4 7752 3550 7748 3395 
4 8374 5128 8373 7162 
4 5727 5726 8057 3896 
4 4482 8359 8357 6486 
4 2826 9425 2827 5256 
4 2825 9426 2824 5255 
4 8107 4809 8594 6207 
4 5663 5664 3830 7941 
4 5728 5727 8056 3897 
4 5663 3829 5662 7942 
4 6730 3624 9800 8494 
4 5728 8055 5729 3898 
4 5730 5729 8054 3899 
4 8021 3932 5763 5762 
4 3933 8020 5763 5764 
4 3931 8022 5761 5762 
4 3912 8041 5742 5743 
4 5776 5775 8008 3945 
4 5661 5662 3828 7943 
4 5765 5764 8019 3934 
4 8040 3913 5744 5743 
4 5777 5776 8007 3946 
4 8053 5731 5730 3900 
4 8018 5766 5765 3935 
4 3914 8039 5744 5745 
4 8006 5778 5777 3947 
4 8029 3924 5755 5754 
4 5788 5787 7996 3957 
4 6119 5532 3894 9919 
4 3895 6120 5533 9855 
4 5732 5731 8052 3901 
4 9025 8203 6338 6340 
4 8028 3925 5756 5755 
4 3958 5788 5789 7995 
4 5767 5766 8017 3936 
4 3915 5746 8038 5745 
4 3948 5778 5779 8005 
4 4080 8083 4939 4845 
4 8047 3906 5737 5736 
4 7944 5661 5660 3827 
4 8023 3930 5761 5760 
4 3911 8042 5741 5742 
4 5775 5774 8009 3944 
4 5787 5786 7997 3956 
4 8030 3923 5754 5753 
4 7816 7711 4644 3420 
4 6137 9864 5550 3912 
4 6659 8842 3495 7623 
4 7231 9431 5250 2814 
4 5724 5723 8060 3893 
4 9418 2840 5263 2841 
4 8048 5735 3905 5736 
4 3945 6170 5583 9862 
4 3931 9858 6156 5569 
4 9393 5288 2891 2890 
4 3926 8027 5756 5757 
4 5789 3959 7994 5790 
4 3963 7990 5793 5794 
4 5573 3935 6160 9878 
4 5768 5767 8016 3937 
4 5780 5779 8004 3949 
4 5746 3916 8037 5747 
4 5738 5737 8046 3907 
4 2984 7333 5141 5331 
4 7216 9416 5265 2844 
4 9927 5549 6136 3911 
4 5536 3898 6123 9917 
4 3443 3440 7685 8902 
4 9931 5561 6148 3923 
4 5572 3934 6159 9934 
4 5227 4809 8107 6207 
4 3924 9873 6149 5562 
4 4415 4416 4529 8238 
4 5537 3899 6124 9853 
4 7306 5169 6721 8512 
4 5733 5732 8051 3902 
4 8026 3927 5758 5757 
4 3960 7993 5790 5791 
4 5739 5738 8045 3908 
4 9955 5553 6140 3915 
4 8186 8991 6374 6372 
4 9544 9733 3887 5809 
4 5769 5768 8015 3938 
4 5781 5780 8003 3950 
4 3917 8036 5747 5748 
4 6139 9879 5552 3914 
4 6155 9922 5568 3930 
4 3944 6169 5582 9925 
4 5647 5648 3814 7957 
4 3901 9859 6126 5539 
4 7083 7084 6442 9061 
4 3841 9975 6069 5482 
4 9826 8437 4640 7721 
4 5543 3905 6130 9874 
4 9766 7627 4686 9768 
4 5657 5658 3824 7947 
4 5772 5771 8012 3941 
4 5784 5783 8000 3953 
4 3920 8033 5750 5751 
4 5658 5659 3825 7946 
4 5773 5772 8011 3942 
4 5785 3954 5784 7999 
4 3921 5752 8032 5751 
4 9406 9407 7206 5275 
4 8412 5090 8413 3629 
4 2938 5312 2939 9369 
4 7958 5647 5646 3813 
4 5659 5660 3826 7945 
4 3943 5773 5774 8010 
4 5786 5785 7998 3955 
4 8031 5752 3922 5753 
4 4588 8828 8200 6566 
4 3929 8024 5759 5760 
4 8043 3910 5741 5740 
4 3962 7991 5792 5793 
4 3820 5653 5654 7951 
4 3900 9923 6125 5538 
4 9467 3105 9468 7274 
4 9454 3131 7261 5404 
4 4413 8908 4414 8240 
4 8025 3928 5759 5758 
4 5739 3909 8044 5740 
4 7992 3961 5792 5791 
4 7948 5657 5656 3823 
4 5735 5734 8049 3904 
4 5242 2798 2799 9439 
4 5771 5770 8013 3940 
4 5783 5782 8001 3952 
4 8034 3919 5750 5749 
4 5770 5769 8014 3939 
4 5782 5781 8002 3951 
4 3918 8035 5748 5749 
4 6150 9949 5563 3925 
4 5540 3902 6127 9928 
4 7304 8158 5171 5170 
4 4428 4427 8880 4545 
4 5207 5397 3117 7267 
4 5654 5655 3821 7950 
4 3937 9890 6162 5575 
4 3907 6132 5545 9886 
4 2847 9415 5266 2846 
4 6151 9885 5564 3926 
4 8836 3497 3500 7619 
4 5734 5733 8050 3903 
4 9430 2816 5251 2817 
4 5163 5164 8517 7311 
4 6581 8187 4606 4466 
4 7909 5695 3862 5696 
4 4570 8852 8212 6551 
4 7908 3863 5697 5696 
4 5541 3903 6128 9860 
4 3591 9819 9817 4646 
4 9554 9555 3884 5718 
4 8954 6491 8263 4492 
4 3699 9750 4700 9751 
4 7311 5354 3030 9504 
4 3891 3892 6116 9857 
4 3837 6065 5478 10021 
4 6751 305 10031 306 
4 3140 9450 9449 7256 
4 4672 3643 9784 9786 
4 4441 4570 8212 6551 
4 7636 3491 3489 8851 
4 5178 7296 5179 7007 
4 9419 9418 5263 7218 
4 4588 8200 4453 6566 
4 7709 3424 3426 8926 
4 4678 7645 4677 9779 
4 5192 5193 7008 7282 
4 9415 5266 9416 7215 
4 8802 3526 3529 7585 
4 7230 9430 9431 5251 
4 3859 10004 6087 5500 
4 9932 3904 5542 6129 
4 7595 4702 4703 9748 
4 9249 9250 3203 4193 
4 9338 4284 9339 3297 
4 5295 2905 9386 2904 
4 6521 4416 8237 4531 
4 8514 9774 8159 3664 
4 3474 3472 7656 8871 
4 8144 7271 5203 5204 
4 5642 5641 6964 9631 
4 9719 5731 6965 5730 
4 6491 4390 8263 4492 
4 4399 6501 4507 8254 
4 5143 2989 7331 5333 
4 3974 10022 6199 5612 
4 9831 3574 7724 7728 
4 3413 7719 3416 8936 
4 440 7349 7032 2769 
4 9075 6435 7091 7090 
4 8822 3508 3512 7605 
4 2802 9437 2803 5244 
4 6214 6216 6398 9149 
4 5364 3051 7301 9494 
4 5655 5656 3822 7949 
4 5641 5640 6966 9632 
4 4520 4411 8242 8914 
4 8454 9848 8453 3547 
4 5643 5642 6962 9630 
4 5729 6967 5730 9720 
4 5731 6963 5732 9718 
4 9404 7204 2868 5277 
4 5649 6821 5650 9623 
4 6894 9709 5741 5740 
4 5652 5651 6823 9621 
4 2809 5247 9434 7234 
4 5750 9700 5749 6903 
4 6830 5659 5658 9614 
4 9711 5738 5739 6892 
4 9707 6896 5742 5743 
4 5640 5639 6970 9633 
4 5728 6971 5729 9721 
4 3860 6088 5501 9942 
4 9084 7094 2712 9082 
4 5647 6819 5648 9625 
4 3679 4690 4689 9763 
4 7321 3009 5343 5153 
4 5737 5736 6890 9713 
4 5138 6750 3724 8173 
4 9599 5674 6845 5673 
4 9634 5638 5639 6972 
4 5706 9566 6878 5707 
4 6857 9587 5686 5685 
4 9558 6886 5714 5715 
4 6820 5649 5648 9624 
4 5739 9710 6893 5740 
4 5659 6831 5660 9613 
4 9649 5800 5801 6954 
4 6822 5651 5650 9622 
4 9593 5679 5680 6851 
4 9578 5695 6866 5694 
4 9560 6884 5712 5713 
4 9590 6854 5682 5683 
4 9652 6951 5797 5798 
4 6936 5783 5782 9667 
4 6924 5771 5770 9679 
4 5670 6842 5671 9602 
4 5692 9581 5691 6863 
4 5786 5785 6939 9664 
4 9676 6927 5773 5774 
4 5738 5737 6891 9712 
4 9708 6895 5741 5742 
4 9563 6881 5709 5710 
4 9699 5750 5751 6904 
4 9559 6885 5713 5714 
4 9701 5748 5749 6902 
4 6973 5728 5727 9722 
4 5689 9584 5688 6860 
4 5668 5667 6839 9605 
4 5759 9691 5758 6912 
4 9572 5701 6872 5700 
4 6945 9658 5792 5791 
4 6829 5658 5657 9615 
4 5654 5653 6825 9619 
4 9596 5676 5677 6848 
4 9072 7089 9074 2717 
4 5704 9569 5703 6875 
4 9655 6948 5794 5795 
4 5665 5664 6836 9608 
4 6909 9694 5756 5755 
4 6933 5780 5779 9670 
4 6921 5768 5767 9682 
4 9688 5761 5762 6915 
4 9575 6869 5697 5698 
4 9661 5788 5789 6942 
4 5764 9685 6918 5765 
4 5776 6930 5777 9673 
4 9705 6898 5744 5745 
4 5637 9635 6974 5638 
4 5672 6844 5673 9600 
4 6883 9561 5712 5711 
4 5694 9579 5693 6865 
4 6240 9125 6238 8253 
4 5679 9594 5678 6850 
4 5726 6975 5727 9723 
4 6847 5676 5675 9597 
4 6828 9616 5657 5656 
4 5655 5654 6826 9618 
4 6856 9588 5685 5684 
4 9567 5705 5706 6877 
4 9650 5799 5800 6953 
4 6853 9591 5682 5681 
4 5785 5784 6938 9665 
4 5772 6926 5773 9677 
4 9653 5796 5797 6950 
4 6935 9668 5782 5781 
4 5769 6923 5770 9680 
4 9704 5746 6899 5745 
4 6841 5670 5669 9603 
4 9582 5690 5691 6862 
4 5656 5655 6827 9617 
4 6880 9564 5709 5708 
4 9585 5688 6859 5687 
4 9702 5747 5748 6901 
4 3892 5530 6116 9857 
4 9570 5702 5703 6874 
4 9656 6947 5793 5794 
4 5761 9689 5760 6914 
4 5667 5666 6838 9606 
4 9573 6871 5699 5700 
4 9659 6944 5790 5791 
4 5758 9692 5757 6911 
4 9452 3135 9453 7259 
4 6868 9576 5697 5696 
4 5788 5787 6941 9662 
4 6929 5776 5775 9674 
4 5766 6920 5767 9683 
4 5778 6932 5779 9671 
4 9686 6917 5763 5764 
4 9703 5746 5747 6900 
4 6818 5647 5646 9626 
4 5735 6889 5736 9714 
4 2771 475 7039 7351 
4 9644 5805 5806 6969 
4 5755 9695 5754 6908 
4 3979 9549 9552 5810 
4 5664 5663 6835 9609 
4 5636 5635 6978 9637 
4 5643 9629 6958 5644 
4 5803 9647 5802 6956 
4 7333 2986 9526 2987 
4 6979 5725 5724 9725 
4 6960 5733 5732 9717 
4 5637 9636 5636 6976 
4 9165 9166 4277 4076 
4 5725 6977 5726 9724 
4 5653 5652 6824 9620 
4 4477 8361 6019 9158 
4 5801 9648 6955 5802 
4 9439 5242 9440 7239 
4 8818 3516 3514 7601 
4 6897 9706 5744 5743 
4 6843 9601 5672 5671 
4 9580 5692 5693 6864 
4 5674 6846 5675 9598 
4 6882 9562 5711 5710 
4 9565 6879 5707 5708 
4 9586 6858 5686 5687 
4 5669 5668 6840 9604 
4 5690 9583 5689 6861 
4 5701 5702 9571 6873 
4 9657 6946 5792 5793 
4 9690 5759 5760 6913 
4 9595 5677 5678 6849 
4 6855 9589 5684 5683 
4 5799 9651 5798 6952 
4 9592 5680 5681 6852 
4 5784 5783 6937 9666 
4 6925 5772 5771 9678 
4 5705 9568 5704 6876 
4 5695 9577 6867 5696 
4 5787 5786 6940 9663 
4 5774 6928 5775 9675 
4 9654 5796 6949 5795 
4 5780 6934 5781 9669 
4 6922 5769 5768 9681 
4 5666 9607 5665 6837 
4 9693 5756 5757 6910 
4 6870 9574 5699 5698 
4 5789 9660 6943 5790 
4 6919 5766 5765 9684 
4 6931 5778 5777 9672 
4 5763 9687 5762 6916 
4 5752 9698 5751 6905 
4 6832 5661 5660 9612 
4 7845 7140 3768 2784 
4 5754 9696 5753 6907 
4 9610 5663 6834 5662 
4 4838 8174 9343 6012 
4 8899 8323 8325 6527 
4 4424 4423 8888 4543 
4 9970 5486 6073 3845 
4 3991 4850 9251 4192 
4 4941 9340 4083 4283 
4 9425 9426 7225 5256 
4 6352 8196 6354 9011 
4 9844 8451 4626 7749 
4 9697 5752 5753 6906 
4 5661 6833 5662 9611 
4 5645 6817 5646 9627 
4 5735 5734 6888 9715 
4 8097 8601 6806 5817 
4 6957 9646 5804 5803 
4 4552 8874 8223 6538 
4 6234 9131 6232 8256 
4 6212 9152 6214 6397 
4 2997 5337 7327 5147 
4 9848 8453 3547 3549 
4 9033 7069 6456 7070 
4 4771 4772 9809 3608 
4 4773 4774 9812 3604 
4 6198 9915 5611 3973 
4 9965 3819 5460 6047 
4 3650 9783 7652 7648 
4 9910 5490 6077 3849 
4 4718 9742 4717 3716 
4 4398 4399 4503 8255 
4 8507 7301 5173 5174 
4 9980 5522 6109 3881 
4 6982 7468 9638 9639 
4 7561 6983 9727 9726 
4 9629 7458 6958 9628 
4 6960 7551 9716 9717 
4 7661 6641 4667 7665 
4 7306 3039 5359 9500 
4 8509 7303 5171 5172 
4 7323 3005 5341 5151 
4 6208 3156 3157 7247 
4 3001 5339 7325 5149 
4 4720 4719 3712 9744 
4 3584 9825 4784 4783 
4 6593 8552 9851 7864 
4 5634 6980 5635 9638 
4 4730 9756 4729 3692 
4 5723 6981 5724 9726 
4 4759 3632 4760 9795 
4 6816 5645 5644 9628 
4 6304 9061 4551 8221 
4 6688 5422 4808 8549 
4 4628 9842 7741 7745 
4 5734 5733 6887 9716 
4 7591 4705 8372 9745 
4 5457 3816 6044 9912 
4 8814 8193 4597 4460 
4 8550 6687 4807 5421 
4 7880 7865 469 3772 
4 7863 3769 446 7877 
4 6064 5477 3836 10019 
4 5499 10016 3858 6086 
4 4757 9792 3636 4758 
4 9747 4721 4722 3708 
4 7684 8899 3450 3448 
4 5514 6101 9973 3873 
4 3516 8818 3514 4459 
4 9557 9558 6886 7387 
4 3852 9972 6080 5493 
4 8788 4382 4846 7882 
4 4552 8223 4430 6538 
4 6968 9556 5717 5716 
4 6816 7457 9627 9628 
4 8860 4564 4438 4437 
4 6887 7550 9715 9716 
4 4406 4407 4516 8922 
4 5591 3953 6178 9985 
4 7307 9500 9501 3038 
4 9785 4753 9787 6725 
4 9479 3081 9480 7286 
4 4770 4769 3612 9807 
4 6211 4482 5031 8359 
4 3640 9789 4756 4755 
4 4727 4728 9754 3696 
4 7270 7271 5394 3110 
4 4725 4726 9752 3700 
4 4723 4724 9749 3704 
4 3461 6533 7667 8882 
4 7460 6964 9631 9630 
4 3067 7293 9486 3066 
4 6965 9719 7553 9718 
4 5167 8514 8159 3664 
4 10008 5492 6079 3851 
4 7182 5299 9382 9383 
4 7459 9629 6962 9630 
4 6963 7552 9717 9718 
4 6696 9539 3164 3163 
4 9522 7329 2994 2995 
4 5234 7474 3384 9162 
4 5112 3675 8390 8116 
4 7456 6817 9627 9626 
4 7549 6888 9715 9714 
4 8599 3789 4817 8565 
4 4767 6732 9805 9804 
4 4424 8229 8886 4541 
4 9068 7087 9070 2719 
4 7461 6966 9632 9631 
4 9719 6967 7554 9720 
4 6046 3818 10006 5459 
4 5420 9539 2975 9346 
4 2958 5322 2959 9359 
4 6970 7462 9632 9633 
4 3095 9472 3094 7279 
4 6971 7555 9720 9721 
4 4781 4782 9822 3588 
4 6685 6592 7577 8789 
4 2766 7136 6014 2670 
4 3382 3381 4369 9254 
4 6991 9643 7477 5807 
4 7548 6889 9714 9713 
4 6818 7455 9625 9626 
4 9440 2796 5241 7240 
4 9558 9559 6885 7388 
4 9634 7463 6972 9633 
4 4590 8195 6356 9010 
4 4184 6803 8576 5428 
4 4183 8575 5427 6802 
4 7556 6973 9722 9721 
4 9996 3800 7971 5441 
4 5518 6105 9945 3877 
4 5515 6102 9909 3874 
4 2969 7154 5327 2968 
4 3469 7655 4672 4673 
4 9560 6884 9559 7389 
4 6890 7547 9712 9713 
4 7454 6819 9625 9624 
4 9599 7428 6845 9598 
4 9649 9648 7483 6954 
4 9577 9578 6866 7407 
4 9586 9587 6857 7416 
4 9565 7395 9566 6878 
4 7422 9593 9592 6851 
4 6821 7452 9622 9623 
4 6927 9676 7510 9675 
4 6939 7498 9663 9664 
4 9709 9708 7543 6894 
4 7513 6924 9679 9678 
4 6936 7501 9666 9667 
4 9652 6951 9651 7486 
4 6854 9590 7419 9589 
4 10013 5491 6078 3850 
4 7413 9584 9583 6860 
4 9691 9690 7525 6912 
4 9658 9657 7492 6945 
4 7401 9572 9571 6872 
4 6839 7434 9604 9605 
4 7528 6909 9694 9693 
4 7437 9607 6836 9608 
4 7392 9563 9562 6881 
4 7450 6823 9621 9620 
4 9595 9596 6848 7425 
4 9580 9581 6863 7410 
4 7431 9601 6842 9602 
4 9688 9687 7522 6915 
4 9707 9706 7541 6896 
4 6918 9685 7519 9684 
4 7507 6930 9673 9672 
4 9660 9661 6942 7495 
4 9574 9575 6869 7404 
4 9655 9654 7489 6948 
4 6892 9711 7545 9710 
4 9568 9569 6875 7398 
4 7516 6921 9682 9681 
4 7504 6933 9670 9669 
4 9700 9699 7534 6903 
4 6831 7442 9612 9613 
4 7477 3381 3382 9254 
4 9635 9634 7464 6974 
4 3545 9548 4623 9541 
4 7443 6830 9614 9613 
4 7557 6975 9723 9722 
4 9897 3952 5590 6177 
4 9699 9698 7533 6904 
4 9787 8503 4754 7658 
4 7113 2693 9122 9120 
4 7390 9561 9560 6883 
4 7453 6820 9624 9623 
4 9711 6891 7546 9712 
4 9578 9579 6865 7408 
4 6072 10007 5485 3844 
4 9599 6844 7429 9600 
4 9593 9594 6850 7423 
4 9596 6847 7426 9597 
4 9710 9709 7544 6893 
4 9708 9707 7542 6895 
4 7451 6822 9622 9621 
4 9650 9649 7484 6953 
4 9689 9688 7523 6914 
4 9676 6926 7511 9677 
4 7499 6938 9665 9664 
4 9656 6947 9655 7490 
4 9569 9570 6874 7399 
4 9590 9591 6853 7420 
4 9653 9652 7487 6950 
4 7514 6923 9680 9679 
4 6935 9668 7502 9667 
4 9584 9585 6859 7414 
4 9587 9588 6856 7417 
4 9566 9567 6877 7396 
4 9563 9564 6880 7393 
4 9581 9582 6862 7411 
4 7432 6841 9603 9602 
4 7508 6929 9674 9673 
4 9661 6941 7496 9662 
4 9575 9576 6868 7405 
4 6917 7520 9685 9686 
4 6920 7517 9682 9683 
4 6932 7505 9670 9671 
4 7526 9692 9691 6911 
4 9659 9658 7493 6944 
4 6871 9572 9573 7402 
4 7435 6838 9606 9605 
4 7448 6825 9619 9618 
4 9701 9700 7535 6902 
4 6829 7444 9614 9615 
4 6898 9704 9705 7539 
4 9733 9730 7885 3886 
4 9694 7529 9695 6908 
4 6835 7438 9608 9609 
4 4768 7688 9805 8489 
4 6826 7447 9617 9618 
4 9616 7445 6828 9615 
4 3424 4405 3426 8926 
4 9704 9703 7538 6899 
4 2793 2792 5239 7242 
4 9648 9647 7482 6955 
4 8810 4462 4600 4463 
4 7446 9616 6827 9617 
4 9702 9701 7536 6901 
4 9703 9702 7537 6900 
4 9647 9646 7481 6956 
4 9538 3159 3160 6695 
4 5285 2884 2885 9396 
4 10003 5609 6196 3971 
4 9561 9562 6882 7391 
4 6846 7427 9597 9598 
4 9585 9586 6858 7415 
4 9564 9565 6879 7394 
4 7062 9022 9019 2743 
4 9579 9580 6864 7409 
4 7273 9466 5392 3106 
4 9601 7430 6843 9600 
4 9690 9689 7524 6913 
4 9657 9656 7491 6946 
4 9570 9571 6873 7400 
4 6840 7433 9603 9604 
4 9582 9583 6861 7412 
4 7509 6928 9675 9674 
4 6940 7497 9662 9663 
4 9576 9577 6867 7406 
4 9636 9635 7465 6976 
4 9650 7485 9651 6952 
4 6925 7512 9677 9678 
4 6937 7500 9665 9666 
4 9591 9592 6852 7421 
4 9594 9595 6849 7424 
4 6977 7558 9723 9724 
4 9588 7418 9589 6855 
4 9687 9686 7521 6916 
4 6919 7518 9683 9684 
4 7506 6931 9672 9671 
4 7527 9693 9692 6910 
4 9607 7436 6837 9606 
4 7494 9660 9659 6943 
4 9573 9574 6870 7403 
4 9654 9653 7488 6949 
4 6922 7515 9680 9681 
4 9668 6934 7503 9669 
4 9567 9568 6876 7397 
4 9385 7185 5296 9386 
4 7873 7358 4820 8178 
4 7875 8179 7361 4819 
4 6957 9645 9646 7480 
4 3287 3288 9165 4278 
4 6824 7449 9619 9620 
4 5517 6104 10005 3876 
4 8892 4421 8232 4540 
4 7142 2786 3767 7847 
4 7466 9636 6978 9637 
4 6832 7441 9611 9612 
4 7532 9698 9697 6905 
4 9706 9705 7540 6897 
4 7646 9780 3654 7650 
4 5245 9437 9436 7236 
4 6979 7559 9724 9725 
4 9696 9695 7530 6907 
4 9610 7439 6834 9609 
4 3820 9900 6048 5461 
4 8137 7253 5221 5222 
4 5140 6994 8172 7334 
4 7467 6980 9638 9637 
4 6981 7560 9725 9726 
4 10012 5458 6045 3817 
4 8794 8793 3533 6588 
4 4699 4698 3697 9753 
4 8238 4527 8239 6268 
4 9793 4666 9794 7667 
4 4623 7754 6595 6686 
4 5317 7164 9365 9364 
4 9697 9696 7531 6906 
4 4390 4389 8264 4490 
4 7574 3747 3196 6690 
4 8361 8268 4481 9155 
4 2946 7165 5316 9365 
4 7440 9610 6833 9611 
4 5516 6103 10011 3875 
4 3589 9821 4645 4644 
4 5278 9404 9403 7203 
4 3657 4679 9777 9775 
4 9423 9422 5259 7222 
4 5292 9389 7189 9390 
4 9767 7628 4739 3674 
4 8215 4562 8858 4438 
4 9998 5606 6193 3968 
4 3847 5488 9999 6075 
4 3288 7384 3287 9165 
4 8844 8208 4574 4445 
4 4599 8808 8190 4463 
4 9911 5483 6070 3842 
4 3835 6063 5476 9914 
4 9974 5489 6076 3848 
4 8818 8195 4594 4458 
4 5526 9352 9355 7886 
4 7242 8454 8453 5047 
4 4516 4406 8922 8247 
4 471 7879 3745 7866 
4 9797 9796 3629 4664 
4 9895 5464 6051 3823 
4 8452 8135 5050 3551 
4 8202 8834 4580 4451 
4 4754 9787 7658 7654 
4 9904 5605 6192 3967 
4 444 7878 3744 7864 
4 8207 9033 6332 4574 
4 7688 7682 4768 9805 
4 3806 9994 6034 5447 
4 9905 5487 6074 3846 
4 3857 6085 5498 10018 
4 5215 5216 8139 7259 
4 3992 8692 4852 9249 
4 8783 9338 4943 4084 
4 5308 7173 9374 9373 
4 6195 9907 5608 3970 
4 6200 10023 5613 3975 
4 2896 7190 5291 9390 
4 5163 5164 3672 8517 
4 9981 5465 6052 3824 
4 3574 9831 4789 7728 
4 6715 8525 5156 5157 
4 9979 5610 6197 3972 
4 7873 4820 4615 8178 
4 7875 4616 8179 4819 
4 6081 9906 5494 3853 
4 9423 7223 2830 5258 
4 5284 2883 9397 2882 
4 4167 4367 9256 9255 
4 5313 9368 7168 9369 
4 9153 6396 6395 7128 
4 3402 7735 8952 8954 
4 3726 6692 9547 8106 
4 6100 10009 5513 3872 
4 4762 4761 3628 9798 
4 9899 3808 5449 6036 
4 2675 7132 6393 9156 
4 4704 3707 9745 9746 
4 5496 3855 6083 9977 
4 5592 3954 6179 9943 
4 4513 4404 8926 8249 
4 8360 4477 9344 9158 
4 6744 9835 9833 8466 
4 9824 9823 3585 4642 
4 9987 3809 5450 6037 
4 4774 3602 9812 3604 
4 4682 7633 9773 9771 
4 5310 2935 7171 9371 
4 7643 4678 9777 9779 
4 5348 3018 7317 3019 
4 3805 9901 6033 5446 
4 4703 7593 9748 9746 
4 3951 6176 5589 9961 
4 6186 9946 5599 3961 
4 8852 3487 8850 7633 
4 4075 9167 9166 4276 
4 6049 9990 5462 3821 
4 5495 3854 6082 10001 
4 9783 4751 3650 7652 
4 3950 6175 5588 9991 
4 4772 3606 9809 3608 
4 9248 9249 3204 4194 
4 9338 3298 9337 4285 
4 9976 3815 5456 6043 
4 9556 9557 6959 7386 
4 5032 4613 8181 8182 
4 9838 9836 4631 7735 
4 10014 5484 6071 3843 
4 7763 3537 7762 4712 
4 2804 5245 9436 2805 
4 6260 4522 8243 9105 
4 9167 9168 4275 4074 
4 9446 3147 9447 7253 
4 407 7038 3780 2778 
4 2776 297 3778 7033 
4 9848 9846 4624 7751 
4 4646 4645 7709 3424 
4 5360 3042 7305 3043 
4 9843 8460 9841 6747 
4 6096 9883 5509 3868 
4 4624 9846 4625 7747 
4 6190 9997 5603 3965 
4 8062 3891 5529 9857 
4 6187 9881 5600 3962 
4 7360 4179 3177 8068 
4 5502 3861 6089 9869 
4 5218 5219 8138 7256 
4 7809 6627 4653 7695 
4 3803 9995 6031 5444 
4 4760 3632 3630 9795 
4 4180 3180 7359 8067 
4 9889 3949 5587 6174 
4 3584 9825 3582 4784 
4 9756 4730 3690 3692 
4 7383 3288 3289 9164 
4 8484 7278 8485 7000 
4 9913 3856 5497 6084 
4 9988 5598 6185 3960 
4 2907 9385 5296 2906 
4 3654 9780 4749 7650 
4 2931 5308 2930 9373 
4 5593 3955 6180 9870 
4 7016 7280 8486 8487 
4 7009 7330 8536 8537 
4 9645 9644 7479 6961 
4 6188 9956 5601 3963 
4 8500 7294 8501 7015 
4 5521 6108 9884 3880 
4 3710 4720 3712 9744 
4 7476 3382 3383 9253 
4 9792 3636 4758 3634 
4 3706 9747 4722 3708 
4 8525 7318 5157 8524 
4 8890 4422 8231 4538 
4 8136 9847 6749 7027 
4 3714 9742 4718 3716 
4 4436 4559 8217 8862 
4 5586 3948 6173 9953 
4 6189 9892 5602 3964 
4 4093 4293 9330 9329 
4 9240 9241 4202 4001 
4 3802 5443 9902 6030 
4 4292 4092 9330 9331 
4 9241 9242 4201 4000 
4 9947 3810 5451 6038 
4 9872 5519 6106 3878 
4 9971 5607 6194 3969 
4 5523 6110 9916 3882 
4 9024 6342 8202 4580 
4 7663 7661 6642 4668 
4 4394 4395 4498 8946 
4 4365 4165 9257 9258 
4 7661 4668 9790 9791 
4 9443 3154 9852 5615 
4 4680 7641 9775 8397 
4 2793 9442 2792 7242 
4 4295 4095 9327 9328 
4 9238 9239 4204 4003 
4 3610 4770 3612 9807 
4 7601 3514 4700 4699 
4 3640 9789 3638 4756 
4 2911 7183 5298 9383 
4 4728 3694 9754 3696 
4 8526 7320 8527 7023 
4 8497 7012 8496 7290 
4 4724 3702 9749 3704 
4 4726 3698 9752 3700 
4 9969 3966 5604 6191 
4 6050 9960 5463 3822 
4 9251 9250 3202 7470 
4 9339 3296 9340 7563 
4 9939 5466 6053 3825 
4 3799 7972 9903 5440 
4 8478 9818 9820 6738 
4 8599 3789 6017 4817 
4 7306 6721 8513 8512 
4 578 398 579 8601 
4 8499 6999 8498 7292 
4 3051 3053 5365 7300 
4 3637 8409 5093 8121 
4 7328 8535 8534 6998 
4 9408 2860 5273 2861 
4 6720 8514 9774 9772 
4 8539 6995 8538 7332 
4 5455 10000 3814 6042 
4 8818 4594 4459 4458 
4 8579 8067 5422 4836 
4 5421 8068 4835 8580 
4 5295 2905 7186 9386 
4 5285 7196 9397 9396 
4 4290 9333 4090 9332 
4 9244 4199 9243 3998 
4 8530 7324 8531 7018 
4 3026 5353 7312 3028 
4 5155 7320 5345 3012 
4 8528 7322 8529 7020 
4 8475 7268 7019 8474 
4 4412 4524 8241 8910 
4 4397 8940 4502 8256 
4 9333 4089 9334 4289 
4 3997 4198 9245 9244 
4 8532 7326 8533 7011 
4 4782 3586 9822 3588 
4 6035 3807 9964 5448 
4 8958 4388 8265 4488 
4 9221 9222 4221 4020 
4 9308 4114 9309 4314 
4 2692 7115 9122 9123 
4 3804 6032 5445 9966 
4 10015 5512 6099 3871 
4 4274 9168 9169 4073 
4 6095 9948 5508 3867 
4 9887 5597 6184 3959 
4 8812 8192 4596 4461 
4 3676 5161 5162 8519 
4 7854 8574 5428 3787 
4 7852 5427 3785 8573 
4 9908 5511 6098 3870 
4 3576 5211 5212 8469 
4 3834 6062 5475 9978 
4 7193 9393 5288 2891 
4 7361 7365 8972 6009 
4 6010 7358 8971 7362 
4 9258 4164 9259 4364 
4 7302 3047 5363 3049 
4 4578 8204 8205 4449 
4 3656 8509 5171 5172 
4 5306 2927 9375 2926 
4 7653 7657 6646 4671 
4 9959 5510 6097 3869 
4 5633 5634 3800 7971 
4 6689 7370 7572 7855 
4 3652 8507 5173 5174 
4 5520 6107 9937 3879 
4 5328 5138 8173 7336 
4 3811 6039 5452 9882 
4 4713 9540 3726 9547 
4 9219 4022 9220 4223 
4 4316 4116 9306 9307 
4 4403 3422 3420 8928 
4 4070 4271 9172 9171 
4 9304 4119 4319 9303 
4 4025 4226 9217 9216 
4 9833 4791 3570 7732 
4 9262 9261 4161 4361 
4 4229 4028 9213 9214 
4 4122 4322 9301 9300 
4 9297 4325 4125 9298 
4 4232 4031 9210 9211 
4 9294 9295 4328 4128 
4 4034 4235 9208 9207 
4 4140 4340 9283 9282 
4 4131 9291 4331 9292 
4 4149 4349 9274 9273 
4 9285 4137 9286 4337 
4 9288 9289 4334 4134 
4 9204 9205 4238 4037 
4 4055 4256 9187 9186 
4 4058 4259 9184 9183 
4 4250 4049 9192 9193 
4 9201 9202 4241 4040 
4 4247 9195 9196 4046 
4 9199 9198 4043 4244 
4 4253 4052 9189 9190 
4 4146 4346 9277 9276 
4 4143 4343 9280 9279 
4 9270 9271 4352 4152 
4 4262 4061 9180 9181 
4 9267 9268 4355 4155 
4 9178 4064 4265 9177 
4 4358 9264 9265 4158 
4 4268 4067 9174 9175 
4 7577 9540 4713 9547 
4 3126 5212 5402 7263 
4 8482 7276 6996 5199 
4 9437 7237 2803 5244 
4 6061 5474 3833 10002 
4 4117 4317 9306 9305 
4 9218 4224 4023 9219 
4 9832 8442 4635 7731 
4 4071 9170 4272 9171 
4 9261 9260 4162 4362 
4 9215 4227 4026 9216 
4 4320 4120 9302 9303 
4 4123 4323 9300 9299 
4 4029 4230 9213 9212 
4 9297 4126 4326 9296 
4 4233 4032 9209 9210 
4 9293 9294 4329 4129 
4 9206 4236 4035 9207 
4 4141 4341 9282 9281 
4 4344 4144 9278 9279 
4 4147 4347 9276 9275 
4 4350 4150 9272 9273 
4 9284 9285 4338 4138 
4 9290 9291 4332 4132 
4 9288 4335 9287 4135 
4 4056 4257 9186 9185 
4 9200 4041 9201 4242 
4 9203 9204 4239 4038 
4 9194 4047 9195 4248 
4 9198 9197 4044 4245 
4 4254 4053 9188 9189 
4 4251 4050 9191 9192 
4 4260 4059 9182 9183 
4 9269 9270 4353 4153 
4 4062 4263 9180 9179 
4 9266 9267 4356 4156 
4 4266 4065 9176 9177 
4 9263 4159 9264 4359 
4 4068 4269 9174 9173 
4 9819 9817 4646 7705 
4 7022 5209 8472 7266 
4 3026 5162 5352 7313 
4 3081 5578 9896 9480 
4 9491 3059 9865 5567 
4 9867 5581 9477 3087 
4 9750 7597 4700 9751 
4 4094 4294 9329 9328 
4 9239 9240 4203 4002 
4 9866 5467 6054 3826 
4 3956 6181 5594 9930 
4 3626 4762 3628 9798 
4 9791 8409 8410 3635 
4 9335 9336 4287 4087 
4 4196 3995 9246 9247 
4 3958 9951 6183 5596 
4 9501 9898 5557 3038 
4 6364 6366 6473 8999 
4 3957 9876 6182 5595 
4 8410 8409 7198 5092 
4 4166 4366 9257 9256 
4 8197 8198 4589 4456 
4 5454 3813 6041 9893 
4 8431 8128 5071 3593 
4 4091 4291 9332 9331 
4 9242 9243 4200 3999 
4 8359 4483 8269 4384 
4 8110 3709 5129 8373 
4 9155 9153 6209 6395 
4 3745 3179 7866 9850 
4 9407 2862 5274 2863 
4 9841 4797 3558 7744 
4 8816 8194 4593 4459 
4 8966 3390 6485 8964 
4 7337 5328 7336 2978 
4 5125 3701 8377 8111 
4 7041 6020 9157 2765 
4 5505 3864 6092 9952 
4 7653 4672 9784 9786 
4 5472 3831 6059 9958 
4 9813 8427 4650 7701 
4 6376 8990 4605 8185 
4 3801 9967 6029 5442 
4 6201 10027 5614 3976 
4 9801 9799 4661 7675 
4 6605 7731 6607 8944 
4 9552 9549 3191 5810 
4 7469 3203 6814 6982 
4 6815 3297 6983 7562 
4 6434 6286 6288 9077 
4 9772 4743 3666 7636 
4 7647 4675 9781 9782 
4 5617 9353 3160 6023 
4 4802 4801 7752 3391 
4 7013 7270 8476 8477 
4 5355 7310 3030 3033 
4 7701 6622 6621 8914 
4 7641 7639 6653 4679 
4 3830 6058 5471 9880 
4 6901 7537 6900 3322 
4 3226 7446 6828 6827 
4 3866 6094 5507 9989 
4 3992 4851 9250 4193 
4 4284 9339 4942 4084 
4 4423 8230 8888 4543 
4 8216 4564 8860 4437 
4 6677 7591 7589 4704 
4 4018 9224 9223 4219 
4 9311 9310 4112 4312 
4 9334 9335 4288 4088 
4 4197 3996 9245 9246 
4 7539 6898 6899 3320 
4 7448 3224 6825 6826 
4 9155 6019 7132 2676 
4 9534 4479 8180 8101 
4 8518 5163 8517 7311 
4 6330 6455 6328 9035 
4 5030 4172 9162 8084 
4 6415 9115 6248 6250 
4 7535 3324 6902 6903 
4 7444 3228 6829 6830 
4 4669 7663 9790 8408 
4 5632 5633 3799 7972 
4 7474 3191 5234 3384 
4 5307 2929 9374 2928 
4 6242 9124 4505 8252 
4 5161 5162 8519 7313 
4 3832 6060 5473 9894 
4 4509 4403 8928 8250 
4 3865 6093 5506 9888 
4 5523 9916 7889 3882 
4 8692 3992 4851 9250 
4 9339 8783 4942 4084 
4 9498 3045 9871 5560 
4 9170 4273 9169 4072 
4 6404 9137 6226 6228 
4 9868 9510 3021 5548 
4 6448 9049 6314 6316 
4 4659 9803 7683 7681 
4 9260 9259 4163 4363 
4 5412 3146 7252 7253 
4 8814 4597 4461 4460 
4 4024 4225 9218 9217 
4 4118 9304 4318 9305 
4 4270 4069 9172 9173 
4 9263 9262 4160 4360 
4 4321 4121 9301 9302 
4 9215 4027 4228 9214 
4 4324 4124 9298 9299 
4 4030 4231 9212 9211 
4 9296 4327 9295 4127 
4 4033 4234 9209 9208 
4 9292 4130 9293 4330 
4 4036 9206 9205 4237 
4 4345 4145 9277 9278 
4 4342 4142 9280 9281 
4 9289 9290 4333 4133 
4 9283 4139 9284 4339 
4 9286 9287 4336 4136 
4 4148 4348 9275 9274 
4 4151 9271 4351 9272 
4 4258 4057 9184 9185 
4 9202 9203 4240 4039 
4 4051 4252 9191 9190 
4 4048 4249 9194 9193 
4 9197 9196 4045 4246 
4 9200 9199 4042 4243 
4 4054 4255 9188 9187 
4 9182 4060 4261 9181 
4 9268 9269 4354 4154 
4 4063 9178 4264 9179 
4 9265 9266 4357 4157 
4 4267 4066 9175 9176 
4 5211 5212 8469 7263 
4 4779 7708 3594 9818 
4 8137 8460 3556 5221 
4 9220 9221 4222 4021 
4 4115 4315 9308 9307 
4 6310 9055 6445 6308 
4 3812 6040 5453 9957 
4 9921 5528 9530 2981 
4 7143 3762 7848 7354 
4 3760 7141 7352 7846 
4 5104 3659 8398 8118 
4 5097 3645 8405 8120 
4 9336 9337 4286 4086 
4 3994 4195 9248 9247 
4 6055 9924 5468 3827 
4 8144 8478 3592 5203 
4 9222 9223 4220 4019 
4 9310 9309 4113 4313 
4 4531 8236 6274 9091 
4 8810 4462 8191 4600 
4 8970 7754 6686 8790 
4 4404 4405 4513 8926 
4 7543 6894 6895 3316 
4 3314 6892 7545 6893 
4 6822 3220 7452 6821 
4 3863 6091 5504 9875 
4 6890 3312 6891 7547 
4 7454 3218 6819 6820 
4 9982 5579 9479 3082 
4 7136 8590 6014 2670 
4 3829 6057 5470 9936 
4 6897 7541 6896 3318 
4 3222 7450 6824 6823 
4 7823 4790 3411 7732 
4 6056 9861 5469 3828 
4 9505 9955 5553 3031 
4 9919 5532 9526 2988 
4 9920 5530 9528 2985 
4 8575 4825 8573 7834 
4 8576 8574 7836 4826 
4 5722 8061 5723 3892 
4 6018 4818 8600 8566 
4 5542 9932 3008 9516 
4 4744 4743 7634 3486 
4 5401 3124 7263 7264 
4 8268 4385 6753 4481 
4 3078 5378 7287 3079 
4 7338 6692 8544 5238 
4 7655 4673 8404 9784 
4 3310 6889 6888 7549 
4 6818 3216 7456 6817 
4 7004 5158 8163 8523 
4 7795 4752 3472 7656 
4 4416 4529 8238 8237 
4 9312 3324 9311 4311 
4 9225 9224 4218 3228 
4 9554 5718 6810 7384 
4 9500 3041 9986 5558 
4 9934 5572 9486 3068 
4 6322 6452 9041 6324 
4 4818 8600 8566 7847 
4 5215 3568 8466 8139 
4 4195 9248 9247 3205 
4 9337 9336 4286 3299 
4 9341 8083 4080 4845 
4 8820 3510 3512 4457 
4 7868 7141 7348 3752 
4 7143 3754 7350 7870 
4 7880 470 7357 417 
4 445 7877 287 7356 
4 9518 5540 3004 9928 
4 3320 9315 9316 4307 
4 9229 9228 4214 3224 
4 9923 3000 5538 9520 
4 3322 9313 9314 4309 
4 9227 9226 4216 3226 
4 3156 9347 3157 7247 
4 8507 7301 8508 5173 
4 4097 4297 9326 9325 
4 9237 9236 4005 4206 
4 3126 3129 5403 7262 
4 9157 6020 5038 2765 
4 8158 8511 7006 5170 
4 4099 9323 4299 9324 
4 9234 9235 4208 4007 
4 4301 4101 9321 9322 
4 9232 9233 4210 4009 
4 9312 9311 4111 4311 
4 9224 9225 4218 4017 
4 9314 9313 4109 4309 
4 9315 9316 4307 4107 
4 9226 9227 4216 4015 
4 9317 9318 4305 4105 
4 9228 9229 4214 4013 
4 9230 9231 4212 4011 
4 4303 9319 9320 4103 
4 2996 9522 5536 9917 
4 9151 7128 9154 2677 
4 6885 6886 7388 3284 
4 7845 8599 4817 8565 
4 3792 3776 7872 7848 
4 3791 7871 7846 3774 
4 8461 7255 8462 5220 
4 9495 3050 9949 5563 
4 9815 9813 4649 7699 
4 6395 7130 7128 2677 
4 8901 8899 8325 6526 
4 8502 7296 8503 7007 
4 8489 7008 8488 7282 
4 6419 6256 6258 9107 
4 4847 8695 4849 3989 
4 8786 4081 4940 4848 
4 9935 9507 3027 5551 
4 4679 7639 9777 9775 
4 6882 3281 6883 7391 
4 7466 3206 6978 6976 
4 3300 6977 6979 7559 
4 6953 7485 6952 3374 
4 6879 6880 7394 3278 
4 6950 7488 6949 3371 
4 6876 6877 7397 3275 
4 6947 7491 6946 3368 
4 6873 6874 7400 3272 
4 6940 3362 6941 7497 
4 6853 6852 3251 7421 
4 6928 3350 6929 7509 
4 3347 6926 6925 7512 
4 6850 6849 3248 7424 
4 6867 6868 7406 3266 
4 6856 7418 6855 3254 
4 3269 6871 6870 7403 
4 6861 6862 7412 3260 
4 6864 6865 7409 3263 
4 6937 3359 6938 7500 
4 6934 3356 6935 7503 
4 6859 6858 3257 7415 
4 6922 3344 6923 7515 
4 6944 7494 6943 3365 
4 6931 3353 6932 7506 
4 7427 6847 3245 6846 
4 6919 3341 6920 7518 
4 6917 7521 6916 3338 
4 7430 6844 3242 6843 
4 7524 6913 6914 3335 
4 3239 7433 6841 6840 
4 7436 3236 6837 6838 
4 3332 7527 6911 6910 
4 5239 5237 2791 7243 
4 3205 6980 7467 6978 
4 3299 6979 6981 7560 
4 8200 8201 4584 4453 
4 9826 4640 7719 7721 
4 9774 4744 4743 7634 
4 5163 8518 8161 7311 
4 4657 9806 7687 7685 
4 7335 5330 2983 9528 
4 7337 5328 8173 7336 
4 7482 6955 6956 3377 
4 7530 6907 6908 3329 
4 3233 7439 6835 6834 
4 6957 7481 6956 3378 
4 4529 8237 6272 9094 
4 4422 4421 8892 4540 
4 7589 4704 9745 9746 
4 7257 3139 5408 3138 
4 7587 7585 4707 9743 
4 4561 4436 8864 4435 
4 8083 4939 4845 8787 
4 4296 4096 9326 9327 
4 9237 9238 4205 4004 
4 7320 5155 5154 7023 
4 7532 6905 6906 3327 
4 6832 7441 3231 6833 
4 487 307 306 5820 
4 398 577 397 5819 
4 3707 4703 9748 9746 
4 5217 5218 3564 8463 
4 7464 3208 6974 6972 
4 6975 3302 6973 7557 
4 7032 440 2769 281 
4 2771 475 423 7039 
4 6441 9063 6300 6302 
4 7129 6397 2678 2679 
4 4678 3657 9777 9779 
4 4271 3281 9172 9171 
4 3374 9261 9262 4361 
4 3278 4268 9174 9175 
4 3371 4358 9264 9265 
4 9295 9294 4328 3341 
4 4349 9274 9273 3362 
4 9291 4331 9292 3344 
4 9289 9288 4334 3347 
4 9286 9285 4337 3350 
4 4235 9208 9207 3245 
4 4340 9283 9282 3353 
4 4343 9280 9279 3356 
4 4346 9277 9276 3359 
4 4259 3269 9184 9183 
4 4256 3266 9187 9186 
4 3248 9204 9205 4238 
4 9202 3251 9201 4241 
4 9199 3254 9198 4244 
4 3260 4250 9192 9193 
4 3257 4247 9195 9196 
4 3263 4253 9189 9190 
4 9271 3365 9270 4352 
4 3272 4262 9180 9181 
4 9268 3368 9267 4355 
4 3275 9178 4265 9177 
4 4325 9297 3338 9298 
4 9210 4232 9211 3242 
4 4322 3335 9301 9300 
4 9213 4229 9214 3239 
4 4226 9217 9216 3236 
4 3332 9304 4319 9303 
4 5503 3862 6090 9929 
4 8268 8966 6485 8964 
4 5284 2883 7197 9397 
4 7303 8510 8509 5171 
4 6877 3276 6878 7396 
4 7490 6947 6948 3369 
4 6874 6875 7399 3273 
4 6945 7493 6944 3366 
4 3342 6921 6920 7517 
4 6848 6847 3246 7426 
4 6851 6850 3249 7423 
4 3363 6942 6941 7496 
4 3354 6933 6932 7505 
4 6871 6872 7402 3270 
4 6868 6869 7405 3267 
4 6857 6856 3255 7417 
4 3252 6854 6853 7420 
4 6938 3360 6939 7499 
4 6865 6866 7408 3264 
4 3357 6936 6935 7502 
4 6862 6863 7411 3261 
4 6859 6860 7414 3258 
4 3348 6927 6926 7511 
4 3351 6930 6929 7508 
4 6923 3345 6924 7514 
4 6844 7429 3243 6845 
4 6917 7520 3339 6918 
4 6915 7523 6914 3336 
4 3240 7432 6842 6841 
4 6951 7487 6950 3372 
4 6880 6881 7393 3279 
4 7435 3237 6838 6839 
4 7526 6911 6912 3333 
4 7484 3375 6953 6954 
4 7261 9454 5404 3130 
4 6980 3204 7468 6982 
4 6983 3298 6981 7561 
4 6884 7390 6883 3282 
4 3329 4316 9306 9307 
4 9220 9219 4223 3233 
4 6909 7529 6908 3330 
4 7438 3234 6835 6836 
4 4402 6505 8251 8932 
4 7458 3214 6958 6816 
4 3308 6887 6960 7551 
4 8187 8188 4604 4466 
4 9925 5582 9476 3088 
4 9022 7065 9023 2742 
4 7855 3749 2781 7833 
4 9490 3060 9922 5568 
4 6222 6401 6220 9143 
4 4393 4494 8260 8948 
4 7463 3209 6972 6970 
4 3303 6971 6973 7556 
4 3017 7318 9512 9511 
4 4198 9245 9244 3208 
4 9334 9333 4289 3302 
4 3284 4274 9168 9169 
4 9242 9241 4201 3211 
4 9330 4292 9331 3305 
4 9556 7888 9555 5717 
4 3288 3289 9164 4279 
4 4802 7752 7830 3391 
4 4098 4298 9325 9324 
4 9235 9236 4207 4006 
4 4808 3746 8549 3772 
4 3743 8550 4807 3769 
4 3199 8597 6986 3200 
4 3377 9258 9259 4364 
4 7583 7581 4709 9741 
4 9323 4100 4300 9322 
4 9233 9234 4209 4008 
4 9320 9321 4302 4102 
4 4010 9232 9231 4211 
4 9318 9319 4304 4104 
4 3890 8063 5528 10024 
4 9455 7261 5404 3128 
4 6685 7577 7579 8789 
4 9474 5584 3093 9933 
4 9239 9238 4204 3214 
4 9327 4295 9328 3308 
4 7857 3740 2779 7835 
4 4796 7827 7744 3403 
4 9229 9230 4213 4012 
4 9316 9317 4306 4106 
4 8504 8155 5177 3644 
4 9479 3080 7285 5380 
4 3728 6809 8106 9350 
4 4695 4694 3689 9757 
4 3552 5224 8457 5223 
4 9246 4196 9247 3206 
4 9336 9335 4287 3300 
4 5361 7304 5171 5170 
4 3141 9449 5410 7255 
4 4303 9319 3316 9320 
4 9321 4301 9322 3314 
4 9233 9232 4210 3220 
4 9493 3054 7299 9492 
4 9323 4299 9324 3312 
4 9235 9234 4208 3218 
4 6900 7538 6899 3321 
4 7447 3225 6826 6827 
4 4766 7684 3448 7804 
4 8890 3451 3456 7673 
4 9318 3318 9317 4305 
4 9231 9230 4212 3222 
4 8516 5166 8515 7309 
4 6460 9025 6338 6340 
4 8814 8816 3520 7597 
4 5530 3892 6117 9920 
4 5161 3676 8520 8519 
4 7042 9157 9343 5038 
4 3223 7449 6825 6824 
4 6898 7540 6897 3319 
4 2822 9427 2823 5254 
4 7749 6598 6597 8962 
4 7372 7857 6690 4833 
4 5191 3616 8490 8149 
4 8411 9793 8410 3633 
4 9227 9228 4215 4014 
4 4308 9314 9315 4108 
4 6022 9349 6204 8073 
4 9164 4077 9165 4278 
4 9918 5534 9524 2993 
4 9488 3065 9926 5570 
4 5187 5188 3624 8493 
4 9225 9226 4217 4016 
4 9313 9312 4110 4310 
4 4169 4369 9254 9253 
4 401 8 581 7030 
4 483 303 9 7031 
4 3211 7461 6964 6966 
4 6967 3305 6965 7554 
4 4297 9326 9325 3310 
4 9237 9236 4206 3216 
4 8820 8196 4590 4457 
4 3429 7705 8922 8924 
4 7542 6895 6896 3317 
4 3221 7451 6823 6822 
4 6894 7544 6893 3315 
4 3313 6892 6891 7546 
4 3219 7453 6821 6820 
4 5510 2936 9371 9959 
4 3383 3382 4370 9253 
4 7301 8157 8508 5173 
4 4409 6513 4522 8244 
4 6889 3311 6890 7548 
4 6818 7455 3217 6819 
4 6902 7536 6901 3323 
4 3227 7445 6829 6828 
4 7465 3207 6976 6974 
4 6977 3301 6975 7558 
4 6887 3309 6888 7550 
4 7457 3215 6816 6817 
4 4714 7579 9738 8543 
4 3327 9308 9309 4314 
4 9222 9221 4221 3231 
4 7130 9153 6395 7128 
4 5163 3672 8518 8517 
4 9410 2856 5271 2857 
4 3456 4664 6636 7671 
4 9482 9481 3077 7288 
4 5574 9484 9954 3073 
4 4558 8868 8220 6542 
4 7645 8862 3480 3475 
4 7462 3210 6970 6966 
4 6971 3304 6967 7555 
4 3041 7306 9500 9499 
4 5544 3013 9514 9950 
4 7647 3477 4676 4675 
4 6719 9770 4741 3670 
4 4317 3330 9306 9305 
4 9218 4224 9219 3234 
4 5357 7308 3035 3037 
4 9170 3282 4272 9171 
4 9261 3375 9260 4362 
4 3333 4320 9302 9303 
4 9215 4227 9216 3237 
4 4323 3336 9300 9299 
4 4230 9213 9212 3240 
4 3339 9297 4326 9296 
4 9209 4233 9210 3243 
4 9294 3342 9293 4329 
4 9206 3246 4236 9207 
4 4335 3348 9288 9287 
4 9291 9290 4332 3345 
4 9285 9284 4338 3351 
4 3264 4254 9188 9189 
4 4257 3267 9186 9185 
4 9204 3249 9203 4239 
4 9272 4350 9273 3363 
4 3261 4251 9191 9192 
4 3252 9200 9201 4242 
4 3255 9197 9198 4245 
4 3258 9194 9195 4248 
4 4347 9276 9275 3360 
4 9278 4344 9279 3357 
4 4341 9282 9281 3354 
4 3270 4260 9182 9183 
4 9270 3366 9269 4353 
4 4263 3273 9180 9179 
4 3369 9266 9267 4356 
4 3276 4266 9176 9177 
4 3372 9263 9264 4359 
4 4269 3279 9174 9173 
4 5634 5633 6982 9639 
4 5722 6983 5723 9727 
4 2795 5240 7241 5050 
4 2937 5311 2936 9370 
4 3535 7583 4709 7766 
4 9829 8439 4638 7725 
4 3453 4661 4662 7675 
4 8562 8574 3787 4826 
4 3785 4825 8560 8573 
4 7060 2747 6466 6465 
4 8144 7271 8478 5203 
4 6700 8579 6390 2671 
4 9338 9337 4085 4285 
4 3993 9249 9248 4194 
4 7298 5367 3056 3057 
4 3213 7459 6958 6962 
4 6963 3307 6960 7552 
4 7460 3212 6964 6962 
4 3306 6963 6965 7553 
4 3108 7272 5393 3106 
4 7563 6815 6813 9728 
4 7595 3518 8812 3523 
4 6812 7470 6814 9640 
4 9442 10026 2793 5439 
4 6884 6885 7389 3283 
4 8468 5214 8467 7261 
4 6904 7534 6903 3325 
4 7443 3229 6830 6831 
4 8579 7135 2671 7040 
4 8105 9548 8454 6691 
4 5158 5159 8163 7316 
4 9903 3799 5440 6027 
4 9497 3046 9931 5561 
4 6389 6699 8580 2668 
4 307 5911 487 306 
4 398 577 6002 397 
4 6955 7483 6954 3376 
4 7575 7567 7473 3192 
4 9643 9642 7477 5807 
4 3378 4365 9257 9258 
4 4834 7370 6689 7855 
4 9503 3034 7309 9502 
4 6882 7392 6881 3280 
4 9168 3285 9167 4275 
4 3373 6951 7486 6952 
4 7395 3277 6878 6879 
4 6949 7489 6948 3370 
4 6875 6876 7398 3274 
4 7492 6945 6946 3367 
4 6873 7401 6872 3271 
4 6869 6870 7404 3268 
4 7419 6854 6855 3253 
4 6866 6867 7407 3265 
4 6933 3355 6934 7504 
4 3250 7422 6852 6851 
4 6863 6864 7410 3262 
4 7413 3259 6860 6861 
4 3364 6942 7495 6943 
4 3346 6925 6924 7513 
4 6927 3349 6928 7510 
4 6930 3352 6931 7507 
4 3358 6937 6936 7501 
4 6858 6857 3256 7416 
4 6939 3361 6940 7498 
4 3343 6922 6921 7516 
4 6849 6848 3247 7425 
4 6918 3340 6919 7519 
4 7428 3244 6845 6846 
4 7522 6915 6916 3337 
4 7431 3241 6842 6843 
4 6913 7525 6912 3334 
4 3238 7434 6840 6839 
4 7528 6909 6910 3331 
4 3235 7437 6837 6836 
4 8181 4614 8791 4472 
4 9968 3798 5439 6026 
4 3132 7260 5405 3130 
4 2957 5321 2956 9360 
4 9927 5549 9509 3022 
4 3084 3085 7284 5381 
4 9149 6397 7129 2679 
4 4399 4503 8255 8254 
4 7813 4647 7707 6619 
4 4199 9244 9243 3209 
4 4290 9333 9332 3303 
4 4668 9790 9791 3635 
4 2922 2923 5304 9377 
4 5211 3576 8470 8469 
4 7090 9076 9074 2716 
4 9479 9478 3082 7285 
4 11 483 9 7031 
4 8 10 581 7030 
4 8966 4385 8790 6753 
4 7811 4650 7701 6622 
4 7135 8584 6390 5430 
4 5419 9538 2789 9345 
4 8787 5911 10031 486 
4 8556 6006 5436 7344 
4 6905 7533 6904 3326 
4 6832 3230 7442 6831 
4 6394 2765 8976 4842 
4 6886 6959 7387 3285 
4 4495 4393 8260 8950 
4 8541 6994 8540 7334 
4 8570 7869 8546 4814 
4 7822 4635 7731 6607 
4 4535 4420 8894 8233 
4 9452 9451 3136 7258 
4 4798 4797 7742 3397 
4 4441 4566 8213 8212 
4 9354 6024 3164 5618 
4 7531 6906 6907 3328 
4 7440 3232 6833 6834 
4 5161 8520 8162 7313 
4 9241 3212 9240 4202 
4 4293 9330 9329 3306 
4 2853 2852 9412 5269 
4 9093 9092 7100 2707 
4 3655 4678 4677 9779 
4 6407 6234 9131 6232 
4 7649 7647 3477 4676 
4 3143 9449 9448 7255 
4 4571 6328 8209 8208 
4 4702 3705 4703 9748 
4 9834 9832 4634 7729 
4 8510 7303 8158 5171 
4 3453 4662 7677 7675 
4 9326 4296 9327 3309 
4 9238 9237 4205 3215 
4 4791 4792 3410 7730 
4 5529 3891 6116 9857 
4 3430 7706 4779 4780 
4 3484 7640 8859 8857 
4 8575 8097 6802 7883 
4 6803 8098 7884 8576 
4 4367 3380 9256 9255 
4 8219 4556 8866 4434 
4 7803 4660 4659 3449 
4 9547 3724 9738 8544 
4 7818 4640 7721 6613 
4 4742 7788 7636 3489 
4 4298 9325 9324 3311 
4 9236 9235 4207 3217 
4 4300 9323 9322 3313 
4 9234 9233 4209 3219 
4 9321 3315 9320 4302 
4 9232 9231 4211 3221 
4 9319 3317 9318 4304 
4 3725 9737 7762 4712 
4 9230 9229 4213 3223 
4 3319 9316 9317 4306 
4 7253 8460 8137 5221 
4 8889 8887 8318 6532 
4 4540 8231 6284 9081 
4 9240 9239 4203 3213 
4 4294 3307 9329 9328 
4 8796 6683 7764 7766 
4 9224 9223 4219 3229 
4 3325 9310 9311 4312 
4 8991 6477 6374 6372 
4 4709 7583 9741 8368 
4 8580 7138 2668 7133 
4 5217 7258 5407 3137 
4 6256 4518 8244 8245 
4 9243 9242 4200 3210 
4 4291 3304 9332 9331 
4 9228 9227 4215 3225 
4 3321 4308 9314 9315 
4 9226 9225 4217 3227 
4 3323 9312 9313 4310 
4 7828 4626 7749 6598 
4 6718 9767 4739 3674 
4 8797 8272 6589 8795 
4 3207 4197 9245 9246 
4 9335 9334 4288 3301 
4 3381 4368 9254 9255 
4 7832 9537 3389 6800 
4 8585 6389 7138 5429 
4 8896 6525 8234 4537 
4 3473 4673 4674 7794 
4 9783 4751 6724 3650 
4 8507 8508 3652 5173 
4 3749 6689 3195 7572 
4 6627 4653 7695 6625 
4 7616 3504 8833 8835 
4 8545 4813 8569 7867 
4 6019 9158 9155 7132 
4 8520 5161 8519 7313 
4 9393 5289 2891 7192 
4 9796 9794 3631 4665 
4 4404 4509 8928 8249 
4 8816 8814 3520 4460 
4 6262 6422 9101 6264 
4 6743 3574 9831 4789 
4 9992 5576 9482 3077 
4 3054 9983 9493 5565 
4 2740 7067 6458 6459 
4 3150 3151 5414 7251 
4 8184 4612 8796 6585 
4 6354 6352 9011 6467 
4 3107 9467 9466 7273 
4 7480 6957 6961 3379 
4 3142 3145 5411 7254 
4 8466 5215 8139 7259 
4 8263 4390 8264 4490 
4 7476 9642 5808 6811 
4 9780 6723 3654 4749 
4 6346 4588 9017 8200 
4 6801 7758 7760 9536 
4 7072 2735 6454 6453 
4 8559 3786 482 7148 
4 9555 9556 6968 7385 
4 5218 7017 8463 8138 
4 7126 6400 6399 2681 
4 6409 6408 7117 2690 
4 9450 3140 9907 5608 
4 8224 4550 8223 4430 
4 8834 6663 6664 7621 
4 3059 9490 9491 9865 
4 9125 6410 6240 6238 
4 9867 9477 9476 3087 
4 6202 9852 3977 7976 
4 2965 7156 9357 9356 
4 6202 3977 3978 7976 
4 9810 8424 4653 7695 
4 8456 4802 7752 7830 
4 9825 8473 3582 7718 
4 9448 3142 5410 7255 
4 11 483 7031 7151 
4 581 10 7149 7030 
4 7698 3602 8483 9812 
4 7312 5353 9505 3028 
4 6413 7112 6414 2695 
4 3158 5436 7344 7246 
4 6421 6420 7105 2702 
4 7706 4779 4780 9820 
4 9453 3135 9904 5605 
4 9503 3034 9993 5555 
4 9843 4798 4797 7742 
4 5211 8470 8141 7263 
4 5188 7029 8493 8150 
4 4366 3379 9257 9256 
4 8509 8510 3656 5171 
4 9166 3287 9165 4277 
4 5546 3017 9512 9984 
4 8976 7042 8590 6014 
4 4675 3651 9781 9782 
4 6968 6990 7385 3287 
4 9503 7310 5355 3033 
4 9835 4792 4791 7730 
4 9095 6270 6268 6425 
4 9799 9801 4661 3623 
4 3673 3671 8391 9768 
4 3726 9540 3728 8106 
4 8361 6019 9158 9155 
4 5593 3111 9465 9870 
4 9170 4273 3283 9169 
4 2725 6444 7082 6443 
4 4406 3429 8922 8924 
4 6476 7050 2757 6475 
4 4523 6262 8242 8241 
4 3376 9259 9260 4363 
4 6424 6423 7102 2705 
4 9449 5609 3143 10003 
4 9304 3331 4318 9305 
4 4225 9218 9217 3235 
4 3280 4270 9172 9173 
4 9263 3373 9262 4360 
4 3334 4321 9301 9302 
4 4228 9215 9214 3238 
4 3337 4324 9298 9299 
4 4231 9212 9211 3241 
4 4327 9296 9295 3340 
4 4234 3244 9209 9208 
4 9293 9292 4330 3343 
4 9206 3247 9205 4237 
4 3355 4342 9280 9281 
4 9287 9286 4336 3349 
4 9290 9289 4333 3346 
4 9284 9283 4339 3352 
4 9277 4345 9278 3358 
4 4348 3361 9275 9274 
4 3268 4258 9184 9185 
4 3250 9202 9203 4240 
4 9197 3256 9196 4246 
4 3253 9199 9200 4243 
4 4252 3262 9191 9190 
4 4249 3259 9194 9193 
4 4255 3265 9188 9187 
4 9271 4351 9272 3364 
4 3271 9182 4261 9181 
4 9269 3367 9268 4354 
4 9178 3274 4264 9179 
4 3370 9265 9266 4357 
4 3277 4267 9175 9176 
4 8470 5211 8469 7263 
4 9447 3147 9915 5611 
4 6224 9141 4491 8261 
4 9498 3045 9497 9871 
4 8266 8265 4487 6214 
4 9495 7302 5363 3049 
4 5590 9897 3105 9468 
4 9868 9510 9509 3021 
4 10027 5614 3976 7977 
4 7314 5351 9507 3025 
4 9549 3979 5628 5810 
4 5296 7185 2905 9386 
4 9407 7206 5275 2863 
4 6681 7587 4707 7768 
4 4657 7805 6632 7687 
4 7786 4740 3496 7630 
4 7076 9048 9046 2730 
4 2809 9434 5248 7233 
4 7867 7140 7845 2784 
4 9437 5245 2803 7236 
4 6417 6418 2699 7108 
4 9409 2859 7209 5272 
4 4775 3600 4776 9814 
4 9996 3800 5441 6028 
4 9221 9220 4222 3232 
4 4315 3328 9308 9307 
4 6439 2721 7086 6440 
4 5218 5409 5219 7256 
4 3537 8793 7762 3540 
4 10026 7974 9353 6025 
4 3076 5187 5377 7288 
4 3453 4421 8894 8892 
4 9445 3149 9446 7252 
4 7111 2694 9120 9117 
4 3580 9827 4786 4785 
4 580 9533 7853 400 
4 9167 3286 9166 4276 
4 5606 9452 9998 3136 
4 9372 2934 9883 5509 
4 5591 3107 9467 9985 
4 7250 5224 8136 5225 
4 9460 9459 3121 7266 
4 9031 8207 6332 4576 
4 7176 5305 9376 2925 
4 8482 7276 8483 6996 
4 4687 3675 4688 9765 
4 9840 8448 4629 7743 
4 4079 9163 4938 8605 
4 7309 5356 3035 9502 
4 6646 7653 4671 4672 
4 9417 2845 9895 5464 
4 8473 7022 8472 7266 
4 8195 8820 4590 4458 
4 6396 6395 7128 2677 
4 3665 4682 9773 9771 
4 8864 8866 4435 3477 
4 9869 5502 9379 2920 
4 9848 4624 4623 7751 
4 3053 9493 5365 7300 
4 9437 2804 9995 5444 
4 6397 6396 7129 2678 
4 9836 9838 4631 3563 
4 8995 8188 4602 6370 
4 7258 7259 5406 3134 
4 4586 8198 6350 9015 
4 7625 4688 8389 9765 
4 3326 9309 9310 4313 
4 3230 9222 9223 4220 
4 577 398 578 5819 
4 5596 9951 3116 9462 
4 8996 8993 7049 2756 
4 9872 5519 9362 2954 
4 3081 9896 9479 9480 
4 7270 9464 7271 3110 
4 9815 9813 3599 4649 
4 398 6752 578 579 
4 5443 2802 9438 9902 
4 9761 3684 8524 4733 
4 6513 4522 8244 8916 
4 8495 7025 8494 7288 
4 7173 2929 5308 9374 
4 3422 7715 3420 8928 
4 5048 7337 8173 8544 
4 9455 9997 5603 3131 
4 7674 3626 8495 9798 
4 9501 9500 9898 3038 
4 9882 5452 9429 2820 
4 8430 9817 4647 3593 
4 6664 7621 4690 7782 
4 9989 5507 9374 2930 
4 3798 7973 9968 5439 
4 8144 8478 9820 3592 
4 8551 8591 6594 9850 
4 6320 9045 4565 8213 
4 5169 7306 5359 3040 
4 3127 9956 9457 5601 
4 9881 9458 3125 5600 
4 6406 2687 6405 7120 
4 7832 4804 7830 3392 
4 4551 8872 8222 4431 
4 4426 8884 6533 8227 
4 5526 6113 7886 3885 
4 9980 2960 5522 9359 
4 7296 7297 3058 9490 
4 9476 7283 7282 3086 
4 7318 5347 5157 3016 
4 2859 7209 5272 2857 
4 9469 3101 9470 7276 
4 9555 3884 5718 5717 
4 7479 6961 6969 3380 
4 5594 3112 9464 9930 
4 7713 3422 3418 8930 
4 6019 5037 9158 2675 
4 7591 7589 4704 9745 
4 9003 8192 4597 6362 
4 4393 4394 4494 8948 
4 8227 4546 6292 9071 
4 2753 7054 6471 6472 
4 7641 7639 4679 9775 
4 5216 5217 7010 7258 
4 5312 7169 2937 2939 
4 4593 8816 4459 4460 
4 5467 2850 9414 9866 
4 9912 5457 9424 2831 
4 9027 7066 9030 2739 
4 8512 4745 9776 3660 
4 8998 8996 7051 2755 
4 7754 6595 6686 8790 
4 9341 8083 4845 8787 
4 7708 3432 4778 7814 
4 6232 6406 6230 9134 
4 9988 9460 3121 5598 
4 5158 3684 5157 8523 
4 5322 7159 2957 2959 
4 4710 3535 4709 7766 
4 9411 5470 2856 9936 
4 2825 2823 7226 5255 
4 2979 7337 9354 9530 
4 4486 6485 4386 8964 
4 3390 7747 3394 8964 
4 7140 7355 7845 3768 
4 7176 2923 5305 2925 
4 5266 9416 7215 2844 
4 7252 7001 5223 5222 
4 9154 6211 5031 8359 
4 3754 4822 7350 7870 
4 7868 7348 4821 3752 
4 7888 7887 9555 3884 
4 9546 7473 5628 3192 
4 8460 9843 8137 3556 
4 6801 7758 8973 3730 
4 5029 4171 9252 8696 
4 5263 9419 7218 2838 
4 3101 5588 9991 9470 
4 9431 7230 5251 2814 
4 3788 8561 7150 433 
4 9819 3591 9821 4645 
4 9546 7575 7473 3192 
4 8848 3490 7631 7787 
4 9435 2808 9901 5446 
4 8511 5169 3660 5170 
4 3699 4699 9753 9751 
4 4708 3717 4709 9741 
4 8411 8412 9794 3631 
4 3411 4790 3408 7732 
4 4802 7830 3392 3391 
4 3446 7682 4767 4768 
4 7319 5346 3015 9512 
4 5224 8457 8136 7027 
4 5187 7025 5186 7288 
4 4753 4754 3470 7654 
4 9004 9001 7053 2752 
4 8458 7252 8459 7001 
4 2865 5474 10002 9407 
4 4623 3736 7754 6686 
4 3568 9835 8466 8139 
4 9846 9848 4624 3549 
4 8207 8844 4446 6557 
4 7142 3767 7353 7847 
4 3420 7711 3426 8928 
4 9391 9910 5490 2897 
4 6418 6256 9110 6254 
4 7303 7304 8158 5171 
4 6312 9053 4561 8217 
4 7079 6446 2728 6447 
4 6433 6432 7093 2714 
4 8885 8883 8316 6535 
4 577 398 6002 578 
4 9039 6326 8210 4568 
4 2853 2854 5270 7211 
4 8590 6014 4479 8180 
4 7306 5169 5168 6721 
4 7142 7869 2786 7847 
4 8275 6586 8801 8799 
4 6402 6403 2684 7123 
4 8085 8694 4849 3990 
4 8087 8785 4940 4082 
4 7075 2732 6451 6450 
4 8465 7010 8464 7258 
4 9455 9454 3131 7261 
4 9555 7887 9554 3884 
4 6540 8877 8312 8875 
4 4637 9829 7725 7723 
4 5495 9386 10001 2906 
4 8927 8338 8929 6509 
4 9413 2852 9924 5468 
4 486 487 306 5820 
4 4559 8216 8862 4437 
4 6959 3286 6968 7386 
4 8593 6208 8364 4810 
4 8811 6578 8280 8813 
4 9544 9733 3189 7381 
4 9432 2815 9899 5449 
4 3510 8820 3512 7607 
4 7793 4750 3476 7648 
4 8284 6574 8821 8819 
4 4423 8890 8230 4538 
4 3097 5586 9953 9472 
4 4628 9840 7743 7741 
4 8287 6572 8825 8823 
4 5188 5189 8150 7286 
4 6298 9067 4548 8224 
4 9434 2811 9994 5447 
4 9905 5487 9394 2890 
4 6669 4694 7611 7609 
4 2961 5323 2960 9358 
4 9957 5453 9428 2822 
4 3148 5413 7252 5223 
4 9803 8418 4659 7683 
4 4736 7783 7620 3499 
4 9471 3096 5387 7278 
4 9416 2846 9981 5465 
4 9426 2824 7225 5256 
4 3776 7147 7848 3176 
4 7846 7145 3174 3774 
4 8599 7341 7152 2972 
4 9029 6336 8205 4575 
4 5476 2869 9405 9914 
4 9101 6421 7105 2703 
4 7130 9153 9155 6395 
4 8240 4524 9099 6266 
4 7318 5347 3016 9511 
4 5385 9473 3092 7280 
4 7306 5359 3040 9499 
4 3179 3745 7866 3765 
4 9440 5242 2796 7239 
4 6815 5721 6813 9728 
4 5528 2979 10024 9530 
4 5632 6812 6814 9640 
4 6306 9059 4554 8220 
4 2854 9411 5270 7211 
4 6236 9129 4502 8255 
4 8361 8268 6753 4481 
4 3472 4752 3474 7656 
4 5629 7471 9641 9731 
4 5578 9962 9480 3078 
4 9963 9501 5557 3037 
4 5335 2992 7330 9523 
4 8246 4516 9111 6254 
4 9729 5630 7564 9732 
4 9387 9906 5494 2904 
4 7864 3744 3763 3178 
4 5488 9393 9999 2893 
4 7759 8974 6800 3729 
4 7294 5371 3064 9487 
4 9942 5501 9380 2919 
4 4462 8812 8191 4596 
4 8205 8838 4448 4449 
4 6991 7478 6969 3381 
4 8824 8198 4456 4455 
4 9431 2816 9987 5450 
4 10000 5455 9426 2826 
4 7744 4796 3403 3399 
4 5375 9483 3072 7290 
4 7320 5345 3012 9513 
4 9762 7004 8163 8523 
4 9420 2839 9900 5461 
4 7857 3747 3740 7835 
4 6674 6676 7593 4703 
4 7174 2927 5307 2928 
4 2862 7207 5274 2861 
4 9002 6364 6362 6472 
4 9832 9834 4634 3569 
4 9419 2840 9990 5462 
4 7562 6815 7563 9728 
4 7470 7469 6814 9640 
4 6651 7643 6650 4678 
4 9839 4795 3562 7740 
4 9488 7295 5370 3063 
4 9474 3091 7281 5384 
4 8575 4183 4825 7834 
4 4184 8576 7836 4826 
4 9796 9794 4665 7669 
4 7663 7661 8878 6642 
4 487 5911 486 306 
4 8565 7859 4843 6704 
4 9077 6433 7093 2715 
4 7029 9802 8493 8150 
4 9480 3078 7287 3079 
4 9049 7079 2729 6447 
4 7331 5334 9524 2991 
4 8158 8511 9778 7006 
4 6668 4694 6669 7609 
4 3547 8453 5047 5049 
4 7199 7198 2878 5092 
4 5344 7321 3011 9514 
4 6750 4714 3724 9738 
4 5044 9160 3293 7565 
4 9159 3199 5043 7472 
4 6418 2700 2699 7108 
4 9441 9903 5440 2797 
4 5342 7323 3007 9516 
4 6550 3484 8859 8857 
4 9080 6286 6284 6433 
4 7840 3742 2782 7858 
4 3741 7838 7856 2780 
4 5340 9518 7325 3003 
4 3149 10022 9446 5612 
4 6984 5719 6810 7383 
4 7017 9839 8463 8138 
4 3574 7005 6743 9831 
4 7469 9249 9250 3203 
4 9339 9338 3297 7562 
4 8237 4531 6272 9091 
4 7155 5326 2967 2966 
4 8979 4614 8180 8181 
4 9361 5520 2956 9937 
4 5324 7157 2961 2962 
4 3071 9484 5374 7291 
4 8264 4488 9147 6218 
4 9510 9941 3019 5548 
4 3043 9498 9944 5560 
4 6803 6008 8098 5428 
4 8097 6007 5427 6802 
4 3115 7269 9462 5396 
4 6718 7003 9767 3674 
4 2860 5472 9958 9409 
4 5338 7327 2999 9520 
4 6418 9107 2700 7108 
4 2754 7054 6472 8999 
4 2883 5285 7196 9397 
4 9043 7074 9046 2731 
4 5314 7167 2941 2943 
4 9703 7537 7538 6900 
4 7537 9702 7536 6901 
4 7447 7446 6827 9617 
4 7446 9616 7445 6828 
4 7699 3434 3431 8916 
4 9704 7538 7539 6899 
4 7448 7447 6826 9618 
4 4188 4828 8572 8578 
4 7444 7443 6830 9614 
4 9700 7534 7535 6903 
4 7445 7444 6829 9615 
4 7536 9701 7535 6902 
4 8979 5032 4614 8181 
4 9705 6898 7539 7540 
4 7449 7448 6825 9619 
4 7763 9737 4711 4712 
4 7202 2873 2871 5279 
4 7253 5412 5221 5222 
4 9952 5505 9376 2926 
4 3108 5593 9465 9943 
4 7542 9707 7541 6896 
4 6892 9711 7546 7545 
4 7544 9709 7543 6894 
4 7451 7450 6823 9621 
4 7453 7452 6821 9623 
4 5526 6113 2968 9352 
4 6890 7548 7547 9713 
4 7455 7454 6819 9625 
4 9558 6886 7387 7388 
4 7041 7043 6394 8979 
4 7179 2917 7180 5111 
4 4405 4406 4512 8924 
4 9969 9453 5605 3132 
4 5260 2835 7221 2833 
4 8804 8188 4466 4465 
4 2672 7139 6697 3770 
4 9708 7542 7543 6895 
4 2768 7134 6698 3771 
4 7546 6891 7547 9712 
4 7451 6822 7452 9622 
4 7545 9710 7544 6893 
4 7454 7453 6820 9624 
4 7086 2722 9063 6440 
4 6889 7549 7548 9714 
4 7455 6818 7456 9626 
4 6230 9135 4498 8258 
4 3504 6565 8833 8835 
4 4535 4420 4421 8894 
4 7271 5394 5203 5204 
4 6444 9058 6306 6308 
4 2687 6406 2688 7120 
4 7054 2753 2754 6472 
4 4753 9787 4754 7654 
4 5590 3102 9961 9468 
4 6328 6454 6326 9038 
4 7457 7456 6817 9627 
4 7549 6888 7550 9715 
4 9706 7540 7541 6897 
4 4766 7684 3450 3448 
4 7450 7449 6824 9620 
4 7682 4767 4768 9805 
4 3154 9531 9852 6202 
4 2899 5293 7188 2901 
4 2885 5286 7195 2887 
4 7163 2949 5318 2951 
4 6447 9052 6312 6314 
4 9699 7533 7534 6904 
4 7476 9642 6811 7477 
4 7443 7442 6831 9613 
4 9971 9450 5608 3139 
4 7861 8566 6703 4844 
4 7791 7646 4748 3479 
4 6957 9646 7481 7480 
4 9137 2685 6403 7123 
4 9450 3139 7257 3138 
4 2747 2748 7060 6466 
4 3016 5348 7317 3019 
4 2798 9996 9440 5441 
4 6406 9131 2688 7120 
4 8230 8229 4543 6286 
4 9968 9441 5440 2794 
4 3516 7603 8820 3510 
4 7126 2682 6400 2681 
4 7550 6887 7551 9716 
4 8272 6589 8795 6797 
4 7458 7457 6816 9628 
4 9911 9398 2882 5483 
4 7390 6884 9560 7389 
4 5048 5138 3724 8173 
4 9688 7522 7523 6915 
4 7507 6930 7508 9673 
4 9685 7520 6918 7519 
4 9661 6942 7495 7496 
4 9575 6869 7404 7405 
4 9655 7489 7490 6948 
4 7516 6921 7517 9682 
4 7504 6933 7505 9670 
4 9569 6875 7398 7399 
4 6848 9596 7426 7425 
4 9649 7483 7484 6954 
4 6866 9578 7408 7407 
4 7493 9658 7492 6945 
4 7401 9572 6872 7402 
4 7413 9584 6860 7414 
4 7526 9691 7525 6912 
4 7422 9593 6851 7423 
4 7435 7434 6839 9605 
4 9676 6927 7510 7511 
4 7498 6939 7499 9664 
4 7513 6924 7514 9679 
4 6936 7502 7501 9667 
4 9652 6951 7486 7487 
4 9590 6854 7419 7420 
4 7529 7528 6909 9694 
4 7438 7437 6836 9608 
4 7392 9563 6881 7393 
4 9581 6863 7410 7411 
4 7432 7431 6842 9602 
4 6857 9587 7417 7416 
4 7395 9566 6878 7396 
4 7429 9599 7428 6845 
4 2706 6424 7102 2705 
4 7296 5369 3061 9489 
4 7651 8868 3471 3473 
4 2682 7126 6400 9143 
4 9475 5383 7282 3089 
4 9647 7481 7482 6956 
4 7390 9561 6883 7391 
4 2969 7154 2968 9352 
4 7524 9689 7523 6914 
4 9656 6947 7490 7491 
4 6874 9570 7400 7399 
4 6929 7509 7508 9674 
4 6941 7497 7496 9662 
4 9576 6868 7405 7406 
4 6917 7520 9686 7521 
4 6920 7518 7517 9683 
4 6932 7506 7505 9671 
4 9585 6859 7414 7415 
4 9564 6880 7393 7394 
4 9582 6862 7411 7412 
4 7433 7432 6841 9603 
4 7494 9659 7493 6944 
4 6871 9573 7403 7402 
4 2736 7072 6454 9035 
4 7526 7527 9692 6911 
4 7436 7435 6838 9606 
4 7485 9650 7484 6953 
4 2733 7075 6451 9041 
4 6926 7512 7511 9677 
4 6938 7500 7499 9665 
4 6853 9591 7421 7420 
4 7488 9653 7487 6950 
4 7514 6923 7515 9680 
4 6935 9668 7503 7502 
4 6847 7427 7426 9597 
4 9588 7418 6856 7417 
4 9567 6877 7396 7397 
4 3406 7733 3404 8950 
4 6865 9579 7409 7408 
4 9594 6850 7423 7424 
4 7429 6844 7430 9600 
4 6421 7105 2703 2702 
4 7050 6476 2757 2758 
4 7182 2911 5299 9383 
4 5633 5632 6814 9640 
4 2725 6444 2726 7082 
4 7156 5325 2964 9356 
4 9695 7529 7530 6908 
4 7439 7438 6835 9609 
4 9871 3045 5561 6147 
4 4391 4392 4491 8952 
4 8522 5159 8521 7315 
4 4820 7358 3183 8178 
4 8179 3182 7361 4819 
4 6815 5722 5721 9728 
4 9458 9946 3122 5600 
4 9865 3059 5568 6154 
4 5582 6168 9867 3087 
4 7566 4281 3292 7881 
4 7170 5310 2935 7171 
4 4556 8866 4434 4435 
4 7785 4738 3498 7624 
4 5549 9868 3021 6135 
4 7441 7440 6833 9611 
4 3040 5360 7305 3043 
4 7532 9697 7531 6906 
4 2921 7178 7177 5303 
4 9559 6885 7388 7389 
4 5090 7200 7201 2875 
4 5418 7248 8364 5228 
4 4691 3683 4692 9760 
4 7551 6960 7552 9717 
4 9629 7458 7459 6958 
4 7561 6983 7562 9727 
4 4513 8249 8248 6248 
4 7469 7468 6982 9639 
4 7200 7199 2877 5091 
4 7559 6979 7560 9725 
4 6977 7559 7558 9724 
4 9636 7465 7466 6976 
4 7467 7466 6978 9637 
4 5579 3081 9896 9479 
4 7131 7132 2675 9156 
4 9648 7482 7483 6955 
4 7639 7643 6651 4678 
4 6975 7558 7557 9723 
4 7509 6928 7510 9675 
4 6940 7498 7497 9663 
4 6867 9577 7407 7406 
4 9687 7521 7522 6916 
4 7506 6931 7507 9672 
4 7518 6919 7519 9684 
4 7465 9635 7464 6974 
4 9660 7494 7495 6943 
4 6870 9574 7404 7403 
4 6925 7513 7512 9678 
4 7500 6937 7501 9666 
4 9592 7422 6852 7421 
4 7418 7419 9589 6855 
4 9651 7485 7486 6952 
4 9654 7488 7489 6949 
4 6922 7516 7515 9681 
4 6934 7504 7503 9669 
4 6876 9568 7398 7397 
4 7527 7528 9693 6910 
4 7437 9607 7436 6837 
4 9586 6858 7415 7416 
4 9565 7395 6879 7394 
4 9690 7524 7525 6913 
4 9657 7491 7492 6946 
4 9571 7401 6873 7400 
4 9583 7413 6861 7412 
4 7434 7433 6840 9604 
4 6849 9595 7425 7424 
4 7428 7427 6846 9598 
4 9562 7392 6882 7391 
4 9580 6864 7409 7410 
4 7441 6832 7442 9612 
4 7431 9601 7430 6843 
4 9698 7532 7533 6905 
4 7556 6973 7557 9722 
4 2721 2722 7086 6440 
4 7240 2795 7241 5050 
4 2735 2736 7072 6454 
4 7657 3467 6644 4671 
4 9634 7463 7464 6972 
4 6981 7561 7560 9726 
4 6980 7468 7467 9638 
4 7702 6623 3436 7812 
4 9696 7530 7531 6907 
4 7440 9610 7439 6834 
4 3419 7819 7722 6614 
4 9485 3069 5373 7292 
4 8105 9548 6691 3545 
4 7555 6971 7556 9721 
4 7463 7462 6970 9633 
4 9535 7832 8792 3392 
4 9087 8234 4533 6278 
4 9556 6968 7385 7386 
4 2779 3740 7839 7835 
4 7554 6967 7555 9720 
4 7462 7461 6966 9632 
4 9913 5497 9384 2910 
4 8905 8903 8327 6523 
4 6262 6260 9104 6421 
4 4568 8850 4442 4443 
4 8907 8329 8909 6520 
4 6963 7553 7552 9718 
4 7460 7459 6962 9630 
4 6761 8939 8344 6503 
4 6403 6224 6226 9140 
4 8277 6583 8805 8803 
4 4440 4441 8213 8854 
4 6444 2726 7082 9055 
4 6965 9719 7554 7553 
4 9643 6991 7477 7478 
4 7302 3047 5362 5172 
4 7461 7460 6964 9631 
4 7593 6676 7589 4703 
4 7479 9644 7478 6969 
4 9898 9500 5558 3038 
4 8830 8201 4453 4452 
4 4623 7754 7751 6595 
4 9021 6344 8201 4583 
4 5309 7172 2931 2933 
4 7476 5808 6985 6811 
4 9404 5477 2870 10019 
4 2763 6384 8982 7043 
4 9444 3153 10027 5614 
4 8191 8190 4600 6364 
4 2884 10014 9397 5484 
4 9733 5809 3189 7382 
4 7339 3984 2976 3163 
4 5346 7319 3014 9512 
4 2912 5300 7181 2914 
4 8876 8224 4430 4429 
4 3150 9444 3151 7251 
4 2933 9372 9948 5509 
4 2741 7067 2740 6459 
4 4747 8510 9778 6722 
4 5246 2807 7235 2805 
4 3793 3985 4835 8585 
4 6716 9762 8522 4735 
4 2907 5297 7184 2909 
4 3159 2790 3983 7244 
4 3074 9482 5376 7289 
4 7270 9463 5395 3113 
4 2922 9378 5503 9929 
4 3986 4836 3794 8584 
4 8981 5032 8181 8182 
4 7164 2946 5317 9365 
4 6959 9557 7387 7386 
4 3491 4742 7636 3489 
4 7093 6433 2714 2715 
4 5259 9423 7222 2830 
4 5522 2959 9884 9359 
4 9098 6424 6268 6266 
4 2729 7079 2728 6447 
4 2766 7042 9343 5038 
4 3158 3166 8600 7344 
4 7175 5115 8387 8386 
4 8420 8419 7208 5082 
4 9645 7479 7480 6961 
4 3978 9552 9553 5810 
4 5532 6118 9856 2987 
4 3191 9549 5628 5810 
4 8391 3671 8392 9768 
4 7317 3018 9510 3019 
4 2896 5292 7189 9390 
4 5278 9404 7203 2868 
4 5536 2995 6122 9854 
4 3067 9863 6158 5572 
4 6403 2685 2684 7123 
4 6476 6372 8994 6370 
4 7611 4695 8382 9757 
4 3111 9464 9465 9870 
4 6282 6280 9083 6431 
4 3147 9446 9447 9915 
4 8370 5132 8369 7158 
4 5497 9977 9384 2909 
4 7834 6483 3741 3748 
4 7836 6484 3742 3750 
4 8525 7318 5156 5157 
4 8364 7248 5226 5228 
4 2706 6424 9095 7102 
4 7112 9115 6414 2696 
4 3543 8105 9351 6808 
4 7112 6414 2695 2696 
4 6378 8987 4608 8184 
4 6212 9153 9152 6396 
4 3042 7305 3043 9498 
4 3057 9491 9938 5567 
4 5579 3081 6165 9896 
4 7832 9535 3387 3392 
4 5581 9940 9477 3085 
4 7335 5330 9528 2982 
4 6592 6685 7577 4713 
4 5586 3095 6172 9877 
4 6356 9007 6358 6469 
4 4652 9810 7695 7693 
4 8251 6505 8930 8932 
4 5481 2879 9400 10010 
4 9532 7851 484 304 
4 4556 6308 8219 8218 
4 9748 3707 9746 8374 
4 3045 9497 9871 5561 
4 5482 9975 2880 9399 
4 8292 6567 8833 8290 
4 5158 5349 5159 7316 
4 5322 7159 2959 9359 
4 8966 8790 8361 6753 
4 2733 7075 2732 6451 
4 5549 9868 9509 3021 
4 4168 9254 9255 8699 
4 8806 6677 7591 7589 
4 5215 5216 7259 5406 
4 7005 5212 5213 8140 
4 7857 3747 6690 4833 
4 5582 9867 9476 3087 
4 3059 9490 9865 5568 
4 3145 9447 9979 5611 
4 7273 7274 5391 3104 
4 5458 2832 9423 10012 
4 4660 3447 3449 7679 
4 2741 9025 7067 6459 
4 9827 9828 8471 3578 
4 7179 2918 5302 5112 
4 4494 6226 8260 8259 
4 5276 2864 2866 7205 
4 483 7851 303 304 
4 7821 4788 3414 7724 
4 9390 10013 5491 2898 
4 7639 8856 7641 6653 
4 3591 8432 9819 9821 
4 3657 8399 9777 9779 
4 9788 8406 3643 9786 
4 7050 6476 2758 8991 
4 5629 7471 5631 9641 
4 9421 2836 9965 5460 
4 10031 305 486 306 
4 8452 9844 3551 3549 
4 9729 5630 5720 7564 
4 5532 9856 9526 2987 
4 4564 6314 8216 8215 
4 4647 9817 4646 3593 
4 9165 9166 4076 8608 
4 8479 3594 9818 7002 
4 5614 6200 3976 7977 
4 6451 6322 9044 6320 
4 7003 5162 5163 8161 
4 9829 3575 9830 4637 
4 9450 3140 9449 9907 
4 9944 3043 5560 6146 
4 7135 6390 2671 2767 
4 5487 9970 9394 2888 
4 6144 9898 5558 3038 
4 9941 3019 5548 6134 
4 3689 9757 8383 8113 
4 9167 4075 9166 8609 
4 8378 3699 9753 9751 
4 7131 4841 2675 6013 
4 9909 5515 9366 2947 
4 6246 9118 6248 6414 
4 2892 5290 7191 2894 
4 4847 8695 3989 8086 
4 8786 8088 4081 4848 
4 9146 6220 6218 6400 
4 3682 9762 4735 7622 
4 7829 7750 3396 6599 
4 5533 6119 9919 2988 
4 3409 4394 8948 8946 
4 8937 8342 8344 6504 
4 3124 9457 7263 7264 
4 3067 9863 5572 9486 
4 9522 2995 5536 9854 
4 7644 4747 9778 3658 
4 8576 4184 5428 4826 
4 8575 4183 5427 4825 
4 5249 2812 7232 2810 
4 7580 3534 7584 4716 
4 8840 6661 7625 7623 
4 5573 6159 9934 3068 
4 7125 9148 9145 2680 
4 5583 6169 9925 3088 
4 6181 5595 3112 9930 
4 9840 9842 4628 3557 
4 3406 4392 8952 8950 
4 3060 9922 6155 5569 
4 10011 5516 9365 2948 
4 9970 9395 2888 5486 
4 5159 8522 8521 3680 
4 3483 4680 4681 7789 
4 3135 9452 9453 9904 
4 3405 7825 7738 6604 
4 3105 9897 9467 9468 
4 8155 8504 9787 3644 
4 9457 9881 9458 3125 
4 3471 7651 3473 4674 
4 5502 9942 9379 2919 
4 5368 7296 3058 5178 
4 6719 7014 9770 3670 
4 5192 7282 5382 3086 
4 5168 7306 6721 8513 
4 3027 9935 6138 5552 
4 2938 5313 7168 9369 
4 7826 4630 4629 3398 
4 6143 9963 5557 3037 
4 9224 8666 4018 9223 
4 9310 9311 4112 8755 
4 9876 5596 3115 9462 
4 9167 9168 4074 8610 
4 9879 6139 3028 5553 
4 9810 3605 8126 8425 
4 5537 2996 6123 9917 
4 8552 8592 6593 9851 
4 9945 5518 9363 2952 
4 6128 5542 3007 9860 
4 8937 8939 7720 3415 
4 5578 6164 9962 3078 
4 5213 8468 8140 7261 
4 3575 8440 8131 9829 
4 8218 4561 8864 4435 
4 3003 9859 6126 5540 
4 9256 4167 9255 8700 
4 7675 3453 8894 8892 
4 2691 6409 7117 2690 
4 8132 8443 9832 3569 
4 9505 9879 3028 5553 
4 2999 6124 5538 9853 
4 9222 8665 9223 4019 
4 9309 9310 4113 8754 
4 8428 9813 8127 3599 
4 5586 3095 9877 9472 
4 9932 5543 6129 3008 
4 6731 4765 9802 8492 
4 8129 8435 9823 3585 
4 4165 9257 9258 8702 
4 9240 9241 4001 8683 
4 8774 4093 9330 9329 
4 9333 8777 4090 9332 
4 9243 9244 3998 8686 
4 2795 9441 7240 7241 
4 9221 8664 9222 4020 
4 4114 9308 9309 8753 
4 8416 9799 8122 3623 
4 4659 7803 3449 7683 
4 9379 9942 9380 2919 
4 9306 4117 9305 8750 
4 8661 9218 4023 9219 
4 4120 8747 9302 9303 
4 8658 9215 4026 9216 
4 9300 4123 9299 8744 
4 8655 4029 9213 9212 
4 9297 4126 9296 8741 
4 4032 8652 9209 9210 
4 4144 8723 9278 9279 
4 9291 9290 8735 4132 
4 8720 4147 9276 9275 
4 4053 9188 9189 8631 
4 8729 9285 9284 4138 
4 8732 9288 9287 4135 
4 8738 9294 9293 4129 
4 9206 4035 8649 9207 
4 9186 4056 9185 8628 
4 8726 4141 9282 9281 
4 4150 8717 9272 9273 
4 4050 9191 9192 8634 
4 4041 9200 9201 8643 
4 4047 9194 9195 8637 
4 9203 9204 4038 8646 
4 9197 8640 9198 4044 
4 4059 9182 9183 8625 
4 9269 9270 4153 8714 
4 8622 4062 9180 9179 
4 9266 8711 9267 4156 
4 4065 8619 9176 9177 
4 4159 9263 9264 8708 
4 8616 4068 9174 9173 
4 9260 9261 4162 8705 
4 8613 9170 4071 9171 
4 9257 4166 9256 8701 
4 3616 9805 8490 8149 
4 4694 6668 3506 7609 
4 3976 3977 7977 7976 
4 7060 2748 9011 6466 
4 2807 9435 9966 5446 
4 5324 7157 2962 9357 
4 4834 6689 3749 7855 
4 2691 6409 9125 7117 
4 5159 8522 8163 7315 
4 3007 5542 9516 9860 
4 8452 7241 5049 5050 
4 9518 9859 3003 5540 
4 2836 9420 9965 5461 
4 9220 8663 9221 4021 
4 9308 4115 9307 8752 
4 5088 8413 5089 3627 
4 5480 2876 9401 10017 
4 5538 2999 9853 9520 
4 2848 5467 9414 9939 
4 6182 9876 5596 3115 
4 6336 6459 9028 6338 
4 4024 9218 8660 9217 
4 4118 9304 9305 8749 
4 4027 9215 8657 9214 
4 4121 9301 9302 8746 
4 8654 4030 9212 9211 
4 4124 9298 9299 8743 
4 8740 9296 9295 4127 
4 8651 4033 9209 9208 
4 4130 8737 9292 9293 
4 4139 8728 9283 9284 
4 8734 9290 9289 4133 
4 8731 9287 9286 4136 
4 8719 4148 9275 9274 
4 4145 8722 9277 9278 
4 4142 8725 9280 9281 
4 4057 9184 9185 8627 
4 8716 9271 4151 9272 
4 9196 9197 4045 8639 
4 9199 9200 4042 8642 
4 9206 4036 9205 8648 
4 9191 4051 9190 8633 
4 9202 9203 4039 8645 
4 9194 4048 9193 8636 
4 9188 4054 9187 8630 
4 9182 8624 4060 9181 
4 9268 9269 4154 8713 
4 8621 9178 4063 9179 
4 9265 9266 4157 8710 
4 4066 8618 9175 9176 
4 9262 9263 4160 8707 
4 4069 8615 9172 9173 
4 9259 9260 4163 8704 
4 2874 5480 9401 10020 
4 8612 9170 9169 4072 
4 7663 3464 7797 4669 
4 6232 4500 8256 8257 
4 6216 9147 6398 9149 
4 6127 5541 3004 9928 
4 3127 9956 6188 5602 
4 3000 9923 6125 5539 
4 3651 8119 9781 8402 
4 8481 3598 9814 9816 
4 8562 3787 3171 4826 
4 3169 3785 4825 8560 
4 2828 2827 7224 5257 
4 8773 4094 9329 9328 
4 9239 9240 4002 8682 
4 9242 9243 3999 8685 
4 8776 4091 9332 9331 
4 5519 9945 9362 2952 
4 9973 5514 9367 2944 
4 5575 6161 9954 3073 
4 5129 2953 7162 5319 
4 9249 9248 3204 7468 
4 3298 9338 9337 7561 
4 5119 3689 8383 8113 
4 9975 9398 5483 2880 
4 5032 6394 6482 8979 
4 8780 9336 9335 4087 
4 3995 8689 9246 9247 
4 6131 5545 3013 9950 
4 3447 3449 7679 8896 
4 3996 8688 9245 9246 
4 8779 9335 9334 4088 
4 8866 8864 7647 3477 
4 3049 9873 6149 5563 
4 4095 8772 9327 9328 
4 9238 9239 4003 8681 
4 4172 5234 9162 9342 
4 9972 9387 5494 2902 
4 3473 7655 4673 7794 
4 6348 6346 9017 6464 
4 7621 7619 4690 9763 
4 5040 8590 4479 8101 
4 4092 8775 9330 9331 
4 9241 9242 4000 8684 
4 6696 6016 9551 3163 
4 3600 8481 8482 5199 
4 8778 9333 4089 9334 
4 8687 3997 9245 9244 
4 9495 9873 3049 5563 
4 9974 9391 5490 2894 
4 6352 6350 9014 6466 
4 2903 5104 5294 7187 
4 2934 9371 9372 9883 
4 5097 5287 2889 7194 
4 5452 9947 9429 2818 
4 7358 6010 3183 7362 
4 3182 7365 7361 6009 
4 9168 9169 4073 8611 
4 8727 4140 9283 9282 
4 4022 8662 9219 9220 
4 4031 8653 9210 9211 
4 4028 8656 9213 9214 
4 9291 4131 8736 9292 
4 9288 8733 9289 4134 
4 9294 8739 9295 4128 
4 8718 4149 9274 9273 
4 4137 8730 9285 9286 
4 8659 4025 9217 9216 
4 8745 4122 9301 9300 
4 9184 4058 9183 8626 
4 4049 8635 9192 9193 
4 4116 8751 9306 9307 
4 4125 9297 9298 8742 
4 9304 4119 9303 8748 
4 9198 9199 4043 8641 
4 9204 9205 4037 8647 
4 8629 4055 9187 9186 
4 9201 9202 4040 8644 
4 9195 8638 9196 4046 
4 8650 4034 9208 9207 
4 4052 9189 9190 8632 
4 8724 4143 9280 9279 
4 8721 4146 9277 9276 
4 9270 9271 4152 8715 
4 4061 8623 9180 9181 
4 9267 9268 4155 8712 
4 9178 8620 4064 9177 
4 9264 9265 4158 8709 
4 4067 8617 9174 9175 
4 9261 9262 4161 8706 
4 8614 4070 9172 9171 
4 4164 9258 9259 8703 
4 2842 9417 9960 5464 
4 2847 2848 5267 7214 
4 6409 9128 6236 6238 
4 7848 7147 7354 3176 
4 7145 7352 7846 3174 
4 9931 3046 5562 6148 
4 2799 2800 5243 7238 
4 9343 2766 5038 6012 
4 3159 9550 6015 6695 
4 6984 9730 5719 7383 
4 5209 8472 8471 3580 
4 7101 9100 9097 2704 
4 7229 5252 2818 2817 
4 6150 3050 9949 5564 
4 5264 2842 7217 2841 
4 6180 5594 3111 9870 
4 2812 9432 9964 5449 
4 7663 7661 4668 9790 
4 7743 4628 7741 6601 
4 6389 7138 2673 2668 
4 10004 5500 9381 2916 
4 4765 7680 3622 9802 
4 9438 5443 9967 2800 
4 9349 7975 6204 8073 
4 9951 6183 3116 5597 
4 3152 5415 7250 7249 
4 2835 9421 10006 5460 
4 10008 9388 5493 2901 
4 7160 2955 7161 5320 
4 5093 2881 7198 5283 
4 7725 4637 7723 6610 
4 8378 3699 9751 8377 
4 9412 2853 5269 7212 
4 3483 7641 4680 7789 
4 5500 10016 9381 2914 
4 9388 9972 5493 2902 
4 7208 9408 5273 2861 
4 8461 9841 7021 3558 
4 8793 3533 3537 7763 
4 8399 3657 9777 8398 
4 3591 8432 8431 9819 
4 8406 8405 3643 9786 
4 7635 4683 8394 9771 
4 7708 3432 3428 4778 
4 6298 6440 9066 6300 
4 7826 4629 7743 3398 
4 8366 5137 8595 5327 
4 5253 7228 2821 7227 
4 8209 8848 8210 4443 
4 8446 9836 8133 3563 
4 5457 9976 9424 2828 
4 9891 5555 6141 3033 
4 3022 9927 6136 5550 
4 9395 10007 2887 5486 
4 9369 2940 10015 5512 
4 3111 5594 9464 9870 
4 6646 7657 6644 4671 
4 8422 8421 7210 5080 
4 10018 5498 9383 2913 
4 6358 9005 6360 6470 
4 3707 9746 8374 8373 
4 7213 5268 7212 2851 
4 5476 2866 9978 9405 
4 5501 10004 9380 2916 
4 5518 10005 9363 2951 
4 6130 5544 3011 9874 
4 5165 8516 8160 7309 
4 6480 6380 8986 6378 
4 9642 6989 7977 7976 
4 8893 8891 8320 6530 
4 5574 6160 9878 3071 
4 5584 6170 9862 3091 
4 4647 7707 6617 3429 
4 5071 7220 5261 2837 
4 8204 8838 4449 6561 
4 8134 8449 9840 3557 
4 9833 6997 8467 3570 
4 5158 8163 8523 7316 
4 5125 2945 7166 5315 
4 6190 9997 5604 3131 
4 3063 9858 6156 5570 
4 9111 6254 6252 6417 
4 3053 9885 6151 5565 
4 6570 8824 8197 4456 
4 5584 9862 9474 3091 
4 5534 6120 9855 2991 
4 9336 8781 9337 4086 
4 8690 3994 9248 9247 
4 3011 5544 9514 9874 
4 5585 3093 6171 9933 
4 4698 7776 3510 4697 
4 3063 9488 9858 5570 
4 5559 3043 9944 6146 
4 9484 5574 9878 3071 
4 5534 9855 9524 2991 
4 4827 8577 8571 4187 
4 9955 5554 6140 3031 
4 3019 9941 5547 6134 
4 3665 8395 8117 9771 
4 2873 5479 9402 10021 
4 9794 3633 8411 3631 
4 479 3779 7037 428 
4 3777 7034 436 276 
4 3684 9761 3682 4734 
4 7721 4640 3416 6612 
4 3324 7535 9312 9311 
4 9225 9224 3228 7444 
4 6163 9992 5577 3077 
4 8446 8133 5056 3563 
4 3669 5109 5110 8392 
4 8868 4434 3471 3473 
4 7304 8511 8158 5170 
4 6162 9890 5576 3074 
4 6294 6292 9071 6437 
4 3660 9776 3658 4746 
4 4096 8771 9326 9327 
4 9237 9238 4004 8680 
4 8769 4098 9325 9324 
4 9235 9236 4006 8678 
4 8770 4097 9326 9325 
4 9236 9237 4005 8679 
4 9323 8767 4100 9322 
4 9233 9234 4008 8676 
4 8768 9323 4099 9324 
4 9234 9235 4007 8677 
4 8765 9321 9320 4102 
4 8674 4010 9232 9231 
4 4101 8766 9321 9322 
4 9232 9233 4009 8675 
4 9318 9319 4104 8763 
4 9230 8673 9231 4011 
4 8672 9230 9229 4012 
4 9319 9320 4103 8764 
4 9316 9317 4106 8761 
4 9317 9318 4105 8762 
4 9227 8670 9228 4014 
4 8671 9229 9228 4013 
4 9315 9316 4107 8760 
4 8669 9227 9226 4015 
4 9314 9315 4108 8759 
4 9225 8668 9226 4016 
4 9224 8667 9225 4017 
4 9312 9313 4110 8757 
4 9313 9314 4109 8758 
4 9311 9312 4111 8756 
4 9378 9869 9379 2920 
4 2879 5482 9399 10010 
4 4740 3493 3496 7630 
4 9918 2993 5535 6121 
4 8361 6019 9155 6209 
4 3065 9926 6157 5571 
4 6771 8899 8325 6527 
4 7170 5120 8382 8381 
4 8416 8122 5086 3623 
4 7539 3320 9315 9316 
4 9229 9228 3224 7448 
4 3529 6679 7587 4707 
4 4657 6630 3443 7687 
4 9730 7886 3886 6988 
4 5107 3665 8395 8117 
4 7537 3322 9313 9314 
4 9227 9226 3226 7446 
4 2943 10009 5514 9367 
4 8443 8132 5059 3569 
4 305 486 306 8602 
4 3034 9993 6142 5556 
4 5587 3097 6173 9953 
4 3008 3006 3007 9516 
4 7695 4652 7693 6625 
4 4643 7816 4644 3420 
4 3116 3115 9462 3114 
4 5718 9555 6990 7384 
4 8158 7006 5171 5170 
4 7177 5113 8389 8388 
4 7872 3776 7147 7848 
4 7871 7145 7846 3774 
4 6746 9839 8462 4795 
4 8850 8848 3490 4443 
4 3150 9444 10023 5614 
4 3140 9449 9907 5609 
4 8435 8129 5067 3585 
4 6132 5546 3014 9886 
4 5580 6166 9982 3082 
4 8119 3651 5100 8402 
4 9836 8445 4632 7737 
4 2962 5523 9916 9358 
4 3101 6175 5589 9991 
4 8593 6208 3157 7247 
4 3665 4683 4682 9771 
4 9426 2825 7226 5255 
4 8428 8127 5074 3599 
4 8309 6544 8311 8871 
4 4482 8359 6486 4384 
4 3503 7617 4692 7780 
4 2934 5510 9371 9883 
4 8884 6533 8227 8882 
4 8186 8187 6372 4606 
4 6179 5593 3108 9943 
4 3059 9865 5567 6154 
4 6168 5581 9867 3087 
4 8438 7227 8439 5063 
4 8804 8187 6581 4466 
4 7342 6203 7153 8071 
4 3135 5606 9452 9904 
4 7272 8478 5203 5202 
4 9983 3054 5566 6152 
4 9442 9968 5439 2794 
4 3002 9518 3003 3004 
4 6803 4184 7884 4376 
4 4183 6802 4375 7883 
4 5219 8138 7255 8462 
4 9031 6457 6334 6332 
4 4632 9836 4631 3563 
4 3091 9474 3093 3090 
4 3605 5077 8126 8425 
4 8372 5130 8371 7160 
4 9528 2983 2985 2982 
4 2876 5481 9400 10017 
4 4399 6501 8254 8938 
4 8440 3575 8131 5062 
4 6296 6294 9069 6438 
4 6280 6278 9086 6430 
4 8423 8424 5078 7212 
4 457 7149 3785 8560 
4 7151 458 8562 3787 
4 4624 3390 7751 7747 
4 9417 2845 9416 9895 
4 3000 2998 2999 9520 
4 7580 3720 4716 9740 
4 9988 3121 5599 6185 
4 6276 6274 9090 6428 
4 6786 6563 8839 8294 
4 7762 3537 3540 4712 
4 6178 5592 3107 9985 
4 5515 9973 9366 2944 
4 7160 5321 2957 9360 
4 6525 4419 8234 4537 
4 3056 7298 3057 9491 
4 9450 3140 3139 3138 
4 2986 9526 2987 2988 
4 7210 9410 5271 2857 
4 6412 9121 6242 6244 
4 5214 5215 8466 7260 
4 3112 3111 9464 3110 
4 3153 3150 9444 3151 
4 3564 5217 8463 8464 
4 7170 5311 2937 9370 
4 8360 8361 4477 9158 
4 6803 7884 5818 4376 
4 6802 5817 4375 7883 
4 9051 7078 9054 2727 
4 3029 5163 5353 7311 
4 9488 3062 3065 3063 
4 3757 7859 4834 7855 
4 8842 8844 8207 6557 
4 9248 9247 3205 7467 
4 9337 9336 3299 7560 
4 5350 3023 7315 9508 
4 8069 2790 5041 7343 
4 3384 7475 3383 9252 
4 6458 6336 9029 6334 
4 2990 9524 2991 2993 
4 5632 6812 9640 9641 
4 8070 7345 2976 5042 
4 6436 6292 9073 6290 
4 8073 3980 9546 5628 
4 5721 9729 6813 9728 
4 4732 4731 3688 9759 
4 6479 8987 6376 6378 
4 8174 9542 9343 6012 
4 6491 4390 8956 8263 
4 7104 9106 9103 2701 
4 5312 7169 2939 9369 
4 3010 3011 3013 9514 
4 9830 9829 4637 7723 
4 9477 3084 3085 7284 
4 9319 7543 3316 9320 
4 9322 9321 3314 7545 
4 9233 9232 3220 7452 
4 7803 4660 3449 7679 
4 9324 9323 3312 7547 
4 7454 9234 9235 3218 
4 9842 9840 4628 7741 
4 7116 2689 9130 9127 
4 8458 3552 8457 5223 
4 8854 4441 8212 6551 
4 3095 5585 6172 9877 
4 9484 3073 3071 3070 
4 2854 9411 9861 5470 
4 9946 6186 3122 5600 
4 3318 7541 9318 9317 
4 9231 9230 3222 7450 
4 6692 7338 5046 5238 
4 4684 3490 4683 7787 
4 2836 9420 9421 9965 
4 6234 6407 9131 9129 
4 9476 3088 3087 3086 
4 3060 3058 3059 9490 
4 3624 5187 8493 8494 
4 9326 9325 3310 7549 
4 9237 9236 3216 7456 
4 5531 6117 9920 2985 
4 5415 5224 7250 5225 
4 4394 4498 8259 8946 
4 3445 4659 7683 7681 
4 6368 8995 6370 6475 
4 9882 9429 9428 2820 
4 7729 3409 8948 8946 
4 7836 6484 3750 7569 
4 6483 7834 7568 3748 
4 6330 9033 6455 9035 
4 5164 5165 7014 8160 
4 7857 2779 7839 7835 
4 8790 6591 8361 6753 
4 7607 9755 4697 8380 
4 3147 9446 9915 5612 
4 3045 9871 5560 6147 
4 7861 7857 4833 3755 
4 7651 3473 4674 7794 
4 3099 9889 5588 9470 
4 4799 9845 4800 7750 
4 6360 9003 6362 6471 
4 8066 9347 5424 8073 
4 7254 8460 5221 5220 
4 6018 3790 4818 8566 
4 7842 7864 443 3763 
4 7866 472 7844 3765 
4 6380 6480 8986 8983 
4 3021 9868 5548 6135 
4 3673 3675 9765 8390 
4 8449 8134 5053 3557 
4 9872 9362 9361 2954 
4 3684 5157 8523 8524 
4 4507 6238 8254 8253 
4 3036 7308 5357 3037 
4 7272 3108 5393 3109 
4 3099 9889 6174 5588 
4 3067 9486 3068 3066 
4 8442 9832 4635 3569 
4 9998 5607 6193 3136 
4 5530 9857 9528 2982 
4 9938 3057 5567 6153 
4 9940 5581 6167 3085 
4 3053 9493 9885 5565 
4 2808 9434 9435 9901 
4 9480 3081 3078 3079 
4 9975 9398 2880 9399 
4 6533 8884 7667 8882 
4 3081 5578 6165 9896 
4 7702 4775 4776 9814 
4 8514 5167 8159 7307 
4 3281 7391 9172 9171 
4 7485 3374 9261 9262 
4 7394 3278 9174 9175 
4 7488 3371 9264 9265 
4 7397 9178 3275 9177 
4 3368 7491 9268 9267 
4 9274 9273 3362 7497 
4 9292 9291 3344 7515 
4 7494 9271 3365 9270 
4 9286 9285 3350 7509 
4 9289 9288 3347 7512 
4 9277 9276 3359 7500 
4 9280 9279 3356 7503 
4 3266 7406 9187 9186 
4 3269 7403 9184 9183 
4 7412 3260 9192 9193 
4 7415 3257 9195 9196 
4 9283 9282 3353 7506 
4 7409 3263 9189 9190 
4 7418 9199 3254 9198 
4 3251 7421 9202 9201 
4 7424 3248 9204 9205 
4 7400 3272 9180 9181 
4 9295 9294 3341 7518 
4 9208 7427 9207 3245 
4 9297 7521 3338 9298 
4 9210 9211 7430 3242 
4 3335 7524 9301 9300 
4 9213 9214 7433 3239 
4 9216 9217 7436 3236 
4 3332 7527 9304 9303 
4 6996 7276 5198 5199 
4 9891 9503 5555 3033 
4 3739 7837 2781 7833 
4 2917 7179 7180 9380 
4 7530 3329 9306 9307 
4 9219 9220 7439 3233 
4 9827 4786 4785 7722 
4 9970 9395 9394 2888 
4 9522 2994 2996 2995 
4 6366 8997 6473 8999 
4 6281 9084 8323 8325 
4 9507 9864 3025 5551 
4 7820 4638 7725 3413 
4 3526 7591 4705 7770 
4 9414 2850 9413 9866 
4 3389 3387 7832 6800 
4 4403 3422 8928 8930 
4 8695 8085 4849 3989 
4 8087 8786 4081 4940 
4 5472 2859 9880 9409 
4 8511 5169 8512 3660 
4 4694 6669 7611 4695 
4 9247 9246 3206 7466 
4 9336 9335 3300 7559 
4 9963 6143 5556 3037 
4 9898 6144 5557 3038 
4 6799 7151 7854 3787 
4 7149 7852 6798 3785 
4 7975 6202 3978 7976 
4 6020 7041 9157 8980 
4 5576 9890 9482 3074 
4 9362 9945 9363 2952 
4 9772 7026 8515 3666 
4 6164 5577 9962 3078 
4 9170 7390 3282 9171 
4 3330 7529 9306 9305 
4 9218 9219 7438 3234 
4 3375 7484 9261 9260 
4 7526 3333 9302 9303 
4 9215 9216 7435 3237 
4 3279 7393 9174 9173 
4 9263 7487 3372 9264 
4 3336 7523 9300 9299 
4 9212 9213 7432 3240 
4 7396 3276 9176 9177 
4 7490 3369 9266 9267 
4 7520 9297 3339 9296 
4 9209 9210 7429 3243 
4 3342 9294 9293 7517 
4 3366 7493 9270 9269 
4 9291 9290 3345 7514 
4 3348 9288 9287 7511 
4 9285 9284 3351 7508 
4 3273 7399 9180 9179 
4 9273 9272 3363 7496 
4 7426 3246 9206 9207 
4 3267 7405 9186 9185 
4 7411 3261 9191 9192 
4 7417 3255 9197 9198 
4 7414 3258 9194 9195 
4 3249 7423 9204 9203 
4 7408 3264 9188 9189 
4 7420 3252 9200 9201 
4 9276 9275 3360 7499 
4 9279 9278 3357 7502 
4 7402 3270 9182 9183 
4 9282 9281 3354 7505 
4 9245 9244 3208 7464 
4 9334 9333 3302 7557 
4 5479 2874 9402 10020 
4 4687 6661 7625 4688 
4 7388 3284 9168 9169 
4 5132 8370 8109 7158 
4 9460 9887 3119 5598 
4 5115 7175 8387 8115 
4 9431 9432 2815 9899 
4 7482 3377 9258 9259 
4 5209 7022 5208 7266 
4 8124 8420 7208 5082 
4 9823 8434 4643 7715 
4 7629 4685 9768 9769 
4 9813 8427 3599 4650 
4 7532 3327 9308 9309 
4 7441 9221 9222 3231 
4 8157 7024 5173 5172 
4 5809 6984 3189 7382 
4 8414 8413 5088 3627 
4 6452 9039 9041 6324 
4 3014 5546 9512 9886 
4 5188 5189 7286 5379 
4 4497 8257 8258 8944 
4 4737 9764 7626 7620 
4 4386 3394 6597 8964 
4 8782 9338 9337 4085 
4 8691 3993 9249 9248 
4 3097 3095 9472 3094 
4 9242 9241 3211 7461 
4 9331 9330 3305 7554 
4 5453 9882 9428 2820 
4 9115 6415 9113 6250 
4 3025 9864 6137 5551 
4 9783 6724 7028 3650 
4 5030 4171 8696 8604 
4 5434 8556 5436 7246 
4 9823 3585 4642 4643 
4 3476 4750 3478 7648 
4 9239 9238 3214 7458 
4 9328 9327 3308 7551 
4 3605 9811 9810 4652 
4 4751 7795 4752 3472 
4 4398 4399 8255 8938 
4 2802 9437 9438 9902 
4 6020 7041 2764 2765 
4 5212 7005 8469 8140 
4 5109 3669 8393 8392 
4 8920 4515 8246 8245 
4 7605 7778 4696 8381 
4 3454 7676 8895 6529 
4 7643 3480 6650 4678 
4 7610 4731 4732 9759 
4 8574 7854 8562 3787 
4 7852 3785 8560 8573 
4 8794 8182 8793 6588 
4 6404 9137 6228 9135 
4 9069 6294 9071 6437 
4 6505 3418 8930 8932 
4 9545 9544 3887 5627 
4 7273 8145 8480 5201 
4 8203 8204 6338 4582 
4 7599 9750 4701 8376 
4 6515 8919 7700 3435 
4 7041 6394 8976 8979 
4 3129 9455 5403 7262 
4 6427 6272 6274 9091 
4 6118 5531 9856 2987 
4 9055 6310 6445 9053 
4 3048 5363 7301 5173 
4 8184 4612 6585 4469 
4 9327 9326 3309 7550 
4 9238 9237 3215 7457 
4 3523 6674 7593 4703 
4 8915 8332 8917 6516 
4 9325 9324 3311 7548 
4 9236 7455 9235 3217 
4 8451 9844 4626 3551 
4 9323 9322 3313 7546 
4 9234 9233 3219 7453 
4 7544 9321 3315 9320 
4 9232 9231 3221 7451 
4 7542 9319 3317 9318 
4 6989 3978 7976 9553 
4 9075 6434 6288 9077 
4 9750 3699 3701 8377 
4 9224 9223 3229 7443 
4 7534 3325 9310 9311 
4 9780 6723 7024 3654 
4 9230 7449 9229 3223 
4 7540 3319 9316 9317 
4 8937 8935 8342 6504 
4 9244 9243 3209 7463 
4 9333 9332 3303 7556 
4 8223 8876 4430 6538 
4 8431 3591 9817 3593 
4 8965 8963 8356 6488 
4 7975 6204 8073 3979 
4 9457 9881 3125 5601 
4 9228 9227 3225 7447 
4 7538 3321 9314 9315 
4 9226 9225 3227 7445 
4 7536 3323 9312 9313 
4 2967 7155 2966 9355 
4 5351 5161 5160 8162 
4 3045 3042 3043 9498 
4 9533 8100 6004 579 
4 5124 5123 8378 3697 
4 9047 9049 6448 6316 
4 7481 3378 9257 9258 
4 5162 7003 8519 8161 
4 3501 4736 7620 3499 
4 5543 6130 3011 9874 
4 9378 5503 9869 2920 
4 9969 5605 6191 3132 
4 9021 6342 6462 6344 
4 10003 3143 5610 6196 
4 3018 9510 3019 3021 
4 9366 9973 9367 2944 
4 3655 8399 5102 5103 
4 5505 9875 9376 2925 
4 8197 8196 4591 6352 
4 8432 3589 5070 5069 
4 6160 5573 9878 3071 
4 6170 5583 9862 3091 
4 3431 6513 8918 8916 
4 2879 9399 9400 10010 
4 2850 9413 9866 5468 
4 9863 3067 6158 5571 
4 2995 5535 6122 9854 
4 5530 6116 9857 2982 
4 6145 3041 9986 5559 
4 9083 6280 9086 6430 
4 5044 3293 3188 7565 
4 3285 7387 9168 9167 
4 2845 9416 9895 5465 
4 3199 5043 7472 3187 
4 9858 3063 6156 5569 
4 305 5235 10031 485 
4 5128 3705 5127 8374 
4 9897 5591 3105 9467 
4 6120 5533 9855 2991 
4 4615 4820 3183 8178 
4 8179 4616 3182 4819 
4 5553 9955 6140 3031 
4 4655 7807 3440 7691 
4 6284 6282 9081 6432 
4 8920 7707 6617 6619 
4 3129 9455 9892 5603 
4 3102 6176 5590 9961 
4 8976 8979 4842 8180 
4 9240 9239 3213 7459 
4 3307 9329 9328 7552 
4 3125 9881 6187 5601 
4 8983 6380 4610 8183 
4 9388 9387 9972 2902 
4 7198 9399 7199 2878 
4 3120 5209 5399 7266 
4 9243 9242 3210 7462 
4 3304 9332 9331 7555 
4 6194 9971 5608 3139 
4 2852 9924 6055 5469 
4 9245 3207 9246 7465 
4 9335 9334 3301 7558 
4 3984 7339 9551 3163 
4 8163 5159 7315 7316 
4 6436 6292 9071 9073 
4 3212 9241 9240 7460 
4 9330 9329 3306 7553 
4 3380 7479 9256 9255 
4 2862 7207 9407 5274 
4 5409 5219 7256 7255 
4 3057 9938 5566 6153 
4 3637 8409 9790 3635 
4 9837 3564 4794 3562 
4 9550 3159 3983 7244 
4 4390 4389 8956 8264 
4 3490 7635 4683 7787 
4 5580 9940 6167 3085 
4 6133 3017 9984 5547 
4 6119 5532 9919 2988 
4 8857 6552 8855 8302 
4 8953 8951 8350 6495 
4 3641 8406 5095 5096 
4 5436 8556 7344 7246 
4 2802 9437 9902 5444 
4 6401 6222 9141 9143 
4 3290 7382 3289 9163 
4 7248 8455 8364 5226 
4 4841 7131 2675 9156 
4 3100 5389 7276 5199 
4 7174 5307 9374 2928 
4 7568 3733 6387 7371 
4 3734 6388 7569 7373 
4 4672 4671 3643 9786 
4 6169 5582 9925 3088 
4 6567 8833 8290 8831 
4 6380 6481 8983 6382 
4 9922 3060 6155 5568 
4 6159 5572 9934 3068 
4 8587 8975 5039 8080 
4 9887 3119 5598 6184 
4 9552 9549 7474 3191 
4 3531 7583 7581 4709 
4 3074 9482 3077 3075 
4 7475 3191 6985 5810 
4 6521 4416 8904 8237 
4 8983 6481 8981 6382 
4 5541 6128 3007 9860 
4 6139 9879 3028 5552 
4 9453 7260 3133 5405 
4 8136 8457 9847 7027 
4 9014 7060 6466 6465 
4 9859 3003 6126 5539 
4 7617 4692 8385 9760 
4 9063 6441 9061 6302 
4 9254 4169 9253 8698 
4 8583 9341 7881 4381 
4 7178 2918 7179 5112 
4 9935 3027 6138 5551 
4 2839 9419 9420 9900 
4 7879 8551 3745 7866 
4 5542 9932 6129 3008 
4 7878 8552 3744 7864 
4 2999 5537 6124 9853 
4 3135 5606 9904 6192 
4 4794 3562 3401 7736 
4 6198 3147 9915 5612 
4 3140 9907 6195 5609 
4 2808 9434 9901 5447 
4 7017 5218 5219 8138 
4 3449 3447 4420 8896 
4 5415 7250 7249 5225 
4 3379 7480 9257 9256 
4 7132 2676 2675 6393 
4 5196 5386 3094 7278 
4 3657 3659 9775 8398 
4 7737 3406 8952 8950 
4 8405 3645 3643 9784 
4 7389 9170 3283 9169 
4 8220 4558 6542 4433 
4 4626 9844 4625 3551 
4 6258 6419 9107 9105 
4 2996 5536 6123 9917 
4 7483 3376 9259 9260 
4 7525 3334 9301 9302 
4 9214 9215 7434 3238 
4 7395 3277 9175 9176 
4 7522 3337 9298 9299 
4 9211 9212 7431 3241 
4 7489 3370 9265 9266 
4 9296 9295 3340 7519 
4 3244 9209 9208 7428 
4 9178 7398 3274 9179 
4 9293 9292 3343 7516 
4 3361 9275 9274 7498 
4 9278 9277 3358 7501 
4 9280 3355 9281 7504 
4 9287 9286 3349 7510 
4 9284 9283 3352 7507 
4 9272 9271 3364 7495 
4 7404 3268 9184 9185 
4 3247 7425 9206 9205 
4 9290 9289 3346 7513 
4 3262 7410 9191 9190 
4 3256 7416 9197 9196 
4 3259 7413 9194 9193 
4 7422 3250 9202 9203 
4 9199 7419 3253 9200 
4 3265 7407 9188 9187 
4 3271 7401 9182 9181 
4 3367 7492 9269 9268 
4 7392 3280 9172 9173 
4 9304 7528 3331 9305 
4 9217 9218 7437 3235 
4 9263 3373 7486 9262 
4 6752 398 399 579 
4 9796 8412 8413 3629 
4 2854 9861 6056 5470 
4 4793 9837 4794 7738 
4 4415 4416 8238 8904 
4 8200 8830 4453 6566 
4 6346 6463 6344 9020 
4 4169 4370 4369 9253 
4 4764 7678 4763 9800 
4 9424 9912 2831 9423 
4 8125 8422 7210 5080 
4 5520 9872 9361 2954 
4 2815 9431 9899 5450 
4 3129 9892 6189 5603 
4 3093 5584 6171 9933 
4 6350 6348 9015 6465 
4 9221 9220 3232 7440 
4 3328 7531 9308 9307 
4 5540 6127 3004 9928 
4 6692 5048 3724 8544 
4 5138 8543 8173 7336 
4 9923 3000 6125 5538 
4 4077 9164 9165 8607 
4 7209 9409 5272 2858 
4 4512 4405 8924 8248 
4 8555 7152 5435 5433 
4 2839 9419 9900 5462 
4 3149 10022 6199 5613 
4 9906 9386 5495 2904 
4 2953 5129 7162 7161 
4 7536 7537 6901 3322 
4 3226 7446 7445 6828 
4 5507 9888 9374 2928 
4 6117 5530 9920 2985 
4 7538 7539 6899 3320 
4 7447 3224 7448 6826 
4 4846 8788 7882 8084 
4 3707 3709 9745 8373 
4 5217 5218 8463 7257 
4 9380 10004 9381 2916 
4 4766 3448 4765 7804 
4 9146 7126 6400 6399 
4 9873 3049 6149 5562 
4 7249 7250 8136 5225 
4 4774 7694 4773 9812 
4 3454 7676 4764 3622 
4 9160 5044 3188 7565 
4 5043 9159 7472 3187 
4 9992 6163 5576 3077 
4 9098 6424 6423 7102 
4 9391 9390 9910 2897 
4 7534 3324 7535 6903 
4 7443 3228 7444 6830 
4 7250 5224 8457 8136 
4 2924 7176 5305 9376 
4 9742 7582 4718 4717 
4 7690 4771 4772 9809 
4 9393 9905 9394 2890 
4 9792 4757 7662 4758 
4 7821 3574 4788 7724 
4 9067 6439 6298 6296 
4 9825 4784 4783 7714 
4 9756 7606 4730 4729 
4 3390 8966 7747 8964 
4 9087 6278 6276 6429 
4 2869 9404 9405 9914 
4 7590 9747 4721 4722 
4 5453 6039 9882 2820 
4 7533 3326 9309 9310 
4 9222 3230 9223 7442 
4 3050 6150 9949 5563 
4 7586 4719 4720 9744 
4 8478 8479 9818 7002 
4 7598 4725 4726 9752 
4 4713 3726 3724 9547 
4 5627 9544 5809 3189 
4 9796 8412 3629 3631 
4 8423 4654 7809 7689 
4 3098 5388 7277 5198 
4 6166 5579 9982 3082 
4 7668 4759 4760 9795 
4 7791 7646 3654 4748 
4 2859 6058 5472 9880 
4 7542 7543 6895 3316 
4 3314 7545 7544 6893 
4 7451 6822 3220 7452 
4 6891 3312 7546 7547 
4 3218 7454 7453 6820 
4 9442 9441 9968 2794 
4 9347 8593 3157 7247 
4 7884 4184 8576 7369 
4 4183 8575 7883 7368 
4 9918 5534 2993 6121 
4 9926 3065 6157 5570 
4 6409 6408 9128 7117 
4 3310 6889 7549 7548 
4 7455 6818 3216 7456 
4 4690 3681 8387 9763 
4 9857 5529 9529 2982 
4 5455 9426 2825 9893 
4 7596 4723 4724 9749 
4 7604 4727 4728 9754 
4 7540 7541 6897 3318 
4 7449 3222 7450 6824 
4 5473 2860 6059 9958 
4 9983 3054 6152 5565 
4 9767 7003 8519 3674 
4 3046 9931 5561 6148 
4 4762 7672 4761 9798 
4 8292 9018 9019 6347 
4 3034 9993 5555 6142 
4 7837 7855 2781 7833 
4 3153 9443 9444 10027 
4 6420 9104 6421 7105 
4 9007 9005 6358 6469 
4 2793 10026 6025 5439 
4 9030 8297 6335 9032 
4 4705 3709 8372 9745 
4 3286 7386 9167 9166 
4 9885 3053 6151 5564 
4 2791 9353 7242 7243 
4 5506 6092 9952 2926 
4 6886 7387 7388 3284 
4 3287 7385 9166 9165 
4 6413 6246 9119 6244 
4 2939 9369 9908 5512 
4 9927 5549 3022 6136 
4 9401 2876 9400 10017 
4 4714 4713 3724 9738 
4 5392 7273 3106 5202 
4 3204 6980 7468 7467 
4 3298 6981 7561 7560 
4 8939 8937 6503 3415 
4 7199 9400 7200 2877 
4 3281 7390 6883 7391 
4 7484 7485 6953 3374 
4 6880 7393 7394 3278 
4 7487 7488 6950 3371 
4 6877 7396 7397 3275 
4 6947 7490 7491 3368 
4 7400 6874 7399 3272 
4 3341 6920 7518 7517 
4 7427 6847 7426 3245 
4 7493 7494 6944 3365 
4 6923 3344 7514 7515 
4 3269 6871 7403 7402 
4 3362 6941 7497 7496 
4 3350 6929 7509 7508 
4 3347 6926 7512 7511 
4 6850 3248 7423 7424 
4 6868 7405 7406 3266 
4 6862 7411 7412 3260 
4 3251 6853 7421 7420 
4 6859 3257 7414 7415 
4 3353 6932 7506 7505 
4 3356 6935 7503 7502 
4 3359 6938 7500 7499 
4 7409 6865 7408 3263 
4 6856 7418 3254 7417 
4 6917 7520 7521 3338 
4 6844 7429 7430 3242 
4 7523 7524 6914 3335 
4 7433 7432 3239 6841 
4 7436 7435 3236 6838 
4 7527 7526 3332 6911 
4 2850 9866 6054 5468 
4 3689 9758 3687 8383 
4 6346 9017 6463 9020 
4 9393 5488 9905 2890 
4 6454 7072 6453 9038 
4 7529 7530 6908 3329 
4 7439 7438 3233 6835 
4 6161 5574 9954 3073 
4 9387 9386 9906 2904 
4 7457 3214 7458 6816 
4 6887 3308 7550 7551 
4 3384 4371 9162 9252 
4 3041 6145 9986 5558 
4 5544 6131 3013 9950 
4 2856 6057 5471 9936 
4 3574 7005 9831 8469 
4 5142 2986 7332 5332 
4 3599 9813 4650 4649 
4 7481 7482 6956 3377 
4 7297 8155 5178 5177 
4 7283 5192 5191 8149 
4 5503 6089 9869 2920 
4 4801 3550 7752 3395 
4 8543 5138 8542 7336 
4 3498 4738 3494 7624 
4 7134 6700 3772 2768 
4 2968 5526 9352 9355 
4 3169 8560 8573 7838 
4 7840 8574 8562 3171 
4 5411 3145 3144 7254 
4 7158 5323 2961 9358 
4 3203 7469 7468 6982 
4 6983 3297 7561 7562 
4 5351 7314 3023 3025 
4 5187 5188 8493 7287 
4 4740 7786 3670 7630 
4 9979 3145 5611 6197 
4 7531 7532 6906 3327 
4 3231 7441 7440 6833 
4 6990 7384 7385 3287 
4 6811 7476 3382 3383 
4 6699 3769 7139 2672 
4 4077 9164 4279 4278 
4 8416 3621 9801 3623 
4 7466 3205 7467 6978 
4 6979 3299 7559 7560 
4 7646 4748 3479 3481 
4 7463 3208 7464 6972 
4 6973 3302 7556 7557 
4 8848 8850 3490 7635 
4 7481 6957 7480 3378 
4 5113 7177 8389 8116 
4 3622 4764 3624 9800 
4 5474 2862 9894 9407 
4 9890 6162 5575 3074 
4 7465 3206 7466 6976 
4 3300 6977 7559 7558 
4 7050 6476 8994 6475 
4 3166 3158 5436 7344 
4 5454 6040 9957 2822 
4 6513 4409 8918 8244 
4 5543 3011 9515 9874 
4 7469 3202 7470 6814 
4 6815 3296 7562 7563 
4 9101 6422 9099 6264 
4 9548 3547 3545 4623 
4 7478 3381 9254 9255 
4 9544 9733 8071 3887 
4 7355 3768 425 3761 
4 5546 6133 3017 9984 
4 5120 7170 8382 8113 
4 9862 5583 9475 3091 
4 9824 8435 3583 3585 
4 3209 7463 7462 6970 
4 6971 3303 7555 7556 
4 8263 8262 4492 6220 
4 9489 3063 9858 5569 
4 7788 4742 4741 3489 
4 5545 6132 3014 9886 
4 7478 7479 6969 3380 
4 9855 5533 9525 2991 
4 5521 2956 6107 9937 
4 8443 9834 3569 3567 
4 9878 5573 9485 3071 
4 5505 6091 9875 2925 
4 6300 4552 8222 8223 
4 5554 9891 6141 3033 
4 5224 7251 8457 5223 
4 5309 7172 2933 9372 
4 9025 6460 9024 6340 
4 8446 3561 9838 3563 
4 9799 8415 4662 7677 
4 7864 285 443 3763 
4 6810 7383 3288 3289 
4 9397 9911 2882 5484 
4 3649 3651 9782 8402 
4 5182 5372 3066 7292 
4 3095 5585 9877 9473 
4 419 472 7866 3765 
4 2796 5241 7240 7239 
4 8110 5130 8372 7160 
4 3665 3663 8395 9773 
4 4369 3382 9254 9253 
4 3759 279 3767 7353 
4 8424 8126 5078 7212 
4 9864 3025 6137 5550 
4 3166 9347 8978 7344 
4 3212 7460 7459 6962 
4 3306 6963 7553 7552 
4 2994 5336 7328 5146 
4 9815 8428 3597 3599 
4 5541 3007 9517 9860 
4 8399 3655 5102 8400 
4 3589 8432 8433 5069 
4 4570 8211 6322 8212 
4 7528 7529 6909 3330 
4 7438 7437 3234 6836 
4 5282 7199 2878 5092 
4 9859 3003 5539 9519 
4 5527 6203 7342 7885 
4 7227 8131 8439 5063 
4 3276 7395 6878 7396 
4 7489 7490 6948 3369 
4 6875 7398 7399 3273 
4 7492 7493 6945 3366 
4 6872 7401 7402 3270 
4 6942 3363 7495 7496 
4 6933 3354 7504 7505 
4 7422 6851 3249 7423 
4 6869 7404 7405 3267 
4 6939 3360 7498 7499 
4 3357 6936 7502 7501 
4 6854 3252 7419 7420 
4 6860 7413 7414 3258 
4 6863 7410 7411 3261 
4 3255 6857 7417 7416 
4 7408 6866 7407 3264 
4 6924 3345 7513 7514 
4 6930 3351 7507 7508 
4 6927 3348 7510 7511 
4 6921 3342 7516 7517 
4 3246 6848 7426 7425 
4 7520 3339 6918 7519 
4 7429 7428 3243 6845 
4 7522 7523 6915 3336 
4 7432 7431 3240 6842 
4 6951 7486 7487 3372 
4 7525 7526 6912 3333 
4 7435 7434 3237 6839 
4 6881 7392 7393 3279 
4 5123 8378 3697 8379 
4 7219 5262 7218 2838 
4 9441 9440 9903 2797 
4 7483 3375 7484 6954 
4 9443 9852 10027 5615 
4 7230 7231 5250 2814 
4 5127 3705 8375 8374 
4 8401 7649 4676 9781 
4 7390 6884 7389 3282 
4 9118 6413 7112 6414 
4 3985 6389 8585 5429 
4 9856 5531 9527 2987 
4 8460 8461 9841 7021 
4 8421 9806 3613 7685 
4 7216 5265 7215 2844 
4 7686 4769 4770 9807 
4 3512 7605 4696 4697 
4 6216 9147 6218 6399 
4 5719 9554 6810 7383 
4 7200 9401 7201 2875 
4 9811 9810 4652 7693 
4 9879 9506 3028 5552 
4 2999 5537 9853 9521 
4 9150 7129 9151 2678 
4 7785 3674 4738 7624 
4 7460 3211 7461 6964 
4 3305 6965 7554 7553 
4 8463 5218 8138 7256 
4 9789 4756 4755 7660 
4 7823 4790 4789 3411 
4 8584 3986 6390 5430 
4 4782 7712 4781 9822 
4 8822 8820 3512 4457 
4 9833 6997 8466 8467 
4 5413 9445 3148 7252 
4 4391 4491 8262 8952 
4 9110 6418 6417 7108 
4 7458 3213 7459 6958 
4 6960 3307 7551 7552 
4 5389 9469 3100 7276 
4 8406 3641 5095 8407 
4 576 575 5822 8693 
4 4171 5030 9162 8604 
4 6406 6405 9134 7120 
4 7038 7862 3780 2778 
4 3778 2776 7033 7860 
4 9912 5458 2831 9423 
4 7067 6458 6459 9028 
4 6479 8986 8987 6378 
4 6990 6810 7384 3288 
4 3288 9164 9165 4278 
4 7243 5237 6691 5047 
4 7846 2783 2770 7868 
4 2772 2785 7870 7848 
4 7220 5071 7219 2837 
4 5104 2903 7186 7187 
4 7461 3210 7462 6966 
4 6967 3304 7554 7555 
4 7193 5097 2889 7194 
4 6116 5529 9857 2982 
4 4172 5030 4846 8084 
4 9459 3120 5399 7266 
4 5477 9404 2869 9914 
4 7836 4184 4826 6484 
4 4183 4825 7834 6483 
4 8808 6674 6676 7593 
4 8965 8967 7748 3393 
4 2874 9401 9402 10020 
4 7184 5297 9384 2909 
4 8194 9005 4593 6358 
4 8826 6668 6669 7609 
4 5516 9909 9365 2947 
4 2807 9435 5246 7235 
4 9455 5403 7262 3128 
4 7801 4663 4662 3451 
4 9910 9390 5491 2897 
4 9903 9440 5441 2797 
4 6444 7082 6443 9058 
4 6234 6408 9129 6236 
4 7086 6439 6440 9066 
4 7845 8599 2972 4817 
4 3207 7465 7464 6974 
4 3301 6975 7558 7557 
4 7643 8858 6651 6650 
4 8822 6570 4591 4457 
4 9873 9496 3049 5562 
4 9087 6276 9090 6428 
4 6318 6450 9045 6320 
4 5125 2945 7165 7166 
4 5528 10024 9921 9530 
4 3562 4795 3401 7740 
4 8493 5188 8150 7286 
4 4677 3475 4676 7792 
4 8991 6477 8990 6374 
4 6888 3309 7549 7550 
4 3215 7457 7456 6817 
4 5314 7167 2943 9367 
4 9553 7475 6985 5810 
4 6810 6984 7383 3289 
4 8413 5090 7201 5089 
4 8870 7655 7653 3469 
4 6810 9554 7384 7383 
4 488 489 5913 8784 
4 2848 5467 9939 6053 
4 2995 5535 9854 9523 
4 9487 3067 9863 5571 
4 6968 3286 7385 7386 
4 8438 9826 3579 7719 
4 4702 3518 4701 7773 
4 9811 3605 8425 3603 
4 3135 9452 3136 3134 
4 3575 8440 9830 3573 
4 3223 7449 7448 6825 
4 6898 7539 7540 3319 
4 7026 8514 9772 8515 
4 3414 4788 3412 7724 
4 9872 5520 6106 2954 
4 9755 7605 3693 8381 
4 2946 7165 7164 5316 
4 3734 6388 3186 7569 
4 3185 7568 3733 6387 
4 7190 2896 5291 7189 
4 6304 6443 9059 6306 
4 9341 7381 7380 5233 
4 5504 2922 6090 9929 
4 5093 2881 7197 7198 
4 7014 5164 8160 8517 
4 6038 9947 5452 2818 
4 4184 8576 7369 7836 
4 4183 8575 7368 7834 
4 7223 7222 2830 5258 
4 7204 7203 2868 5277 
4 3311 6890 7548 7547 
4 7455 7454 3217 6819 
4 8955 3401 7736 6494 
4 3740 3747 6694 7835 
4 9981 2846 5466 6052 
4 5037 9344 7131 2674 
4 8449 9842 3557 3555 
4 9770 7014 8517 3670 
4 3313 6892 7546 7545 
4 7452 3219 7453 6821 
4 7543 7544 6894 3315 
4 3221 7451 7450 6823 
4 7541 7542 6896 3317 
4 9643 6991 5806 5807 
4 6885 7388 7389 3283 
4 2835 9421 5260 7221 
4 7195 5286 9395 2887 
4 4664 6637 6636 7671 
4 2917 5301 7180 5111 
4 7482 7483 6955 3376 
4 4715 3534 7580 4716 
4 9829 3575 4637 4638 
4 7163 5318 9363 2951 
4 7793 3650 4750 7648 
4 3445 4658 4659 7681 
4 8818 8816 3514 4459 
4 7162 2953 7161 9362 
4 7527 7528 6910 3331 
4 7437 7436 3235 6837 
4 7392 6882 7391 3280 
4 7485 3373 7486 6952 
4 9897 5591 6177 3105 
4 7524 7525 6913 3334 
4 7434 7433 3238 6840 
4 7395 3277 6879 7394 
4 7521 7522 6916 3337 
4 7431 7430 3241 6843 
4 7488 7489 6949 3370 
4 7398 6876 7397 3274 
4 6919 3340 7518 7519 
4 7427 3244 7428 6846 
4 7491 7492 6946 3367 
4 7401 6873 7400 3271 
4 3343 6922 7516 7515 
4 7494 3364 7495 6943 
4 3247 6849 7425 7424 
4 3346 6925 7513 7512 
4 6928 3349 7509 7510 
4 7404 6870 7403 3268 
4 7407 6867 7406 3265 
4 6931 3352 7506 7507 
4 3355 6934 7504 7503 
4 6937 3358 7500 7501 
4 7422 3250 6852 7421 
4 3361 6940 7498 7497 
4 6858 3256 7415 7416 
4 7413 3259 6861 7412 
4 6864 7409 7410 3262 
4 7418 7419 6855 3253 
4 5247 2809 7233 7234 
4 577 6001 397 576 
4 8519 9767 3674 7624 
4 3537 7763 4711 4712 
4 8419 9803 3617 7681 
4 3225 7447 7446 6827 
4 7537 7538 6900 3321 
4 3232 7440 7439 6834 
4 7530 7531 6907 3328 
4 8157 8509 7024 5172 
4 9453 3132 7260 5405 
4 3290 4280 9161 9163 
4 2936 9959 6097 5511 
4 3659 4680 9775 8397 
4 9956 3127 6188 5601 
4 6293 9072 8317 8318 
4 7188 5293 9388 2901 
4 9864 9508 3025 5550 
4 5196 8147 3608 5195 
4 6396 7128 7129 2678 
4 9125 6410 9124 6240 
4 7054 9002 6471 6472 
4 5498 9913 9383 2910 
4 9987 2816 5451 6037 
4 9494 3053 9885 5564 
4 7338 6692 5046 8106 
4 8439 3575 9829 4638 
4 9843 8460 6747 3556 
4 5910 307 487 488 
4 3227 7445 7444 6829 
4 7535 7536 6902 3323 
4 3693 5122 8380 8112 
4 9010 6354 9011 6467 
4 7442 3229 7443 6831 
4 7533 7534 6904 3325 
4 2865 6061 5475 10002 
4 5290 9391 7191 2894 
4 3230 7441 6832 7442 
4 7532 7533 6905 3326 
4 8986 6378 4612 8184 
4 7840 7836 3742 7858 
4 7838 7834 3741 7856 
4 2840 9990 6049 5463 
4 7079 6446 6447 9052 
4 9138 2684 7123 9139 
4 3609 8423 9808 7689 
4 8147 5196 3608 7000 
4 8266 8962 8267 4484 
4 7178 5112 8390 8116 
4 4735 7783 4736 3499 
4 6621 4410 3434 8916 
4 6007 8097 6806 5817 
4 2918 7178 7179 9379 
4 7345 7339 8070 2976 
4 9832 4634 4635 3569 
4 3568 9835 6744 8466 
4 6432 9080 6433 7093 
4 3636 5181 5182 8153 
4 8069 2790 7343 7244 
4 3708 8169 5145 5146 
4 5276 2866 9405 7205 
4 9642 5808 6811 5807 
4 5233 7381 3290 9161 
4 3051 3053 7300 9494 
4 8272 6383 6384 8982 
4 9845 3552 4800 3550 
4 9042 7075 9043 2732 
4 7630 3496 8845 8847 
4 3739 3749 6693 7833 
4 9791 8410 3633 3635 
4 5194 7016 3612 8148 
4 3026 7312 9506 3028 
4 9913 9384 9383 2910 
4 6230 6405 6228 9135 
4 3640 8154 5180 7015 
4 3979 8073 9549 5628 
4 7760 3727 3541 9536 
4 5144 7009 3712 8170 
4 8998 8281 8280 6367 
4 2812 9432 5249 7232 
4 7302 9496 3047 3049 
4 2811 9994 6034 5448 
4 4522 6258 8244 9105 
4 8478 9820 3592 6738 
4 7827 4796 4795 3403 
4 8890 7801 3451 7673 
4 7387 6959 7386 3285 
4 3576 3574 7821 8469 
4 9840 4628 4629 3557 
4 4749 7793 4750 3476 
4 6632 6630 7687 8900 
4 5166 7309 5356 3035 
4 8130 8437 5065 3579 
4 5237 7243 6691 5045 
4 6991 7477 7478 3381 
4 5141 5142 3716 8171 
4 9402 2873 7202 5279 
4 6681 8800 6679 7587 
4 6391 6017 8977 8553 
4 6403 6402 9140 7123 
4 6270 9095 9094 6425 
4 10000 5456 6042 2826 
4 9890 5575 9483 3074 
4 5236 8788 6752 579 
4 8274 6379 8275 8985 
4 3605 9810 4653 4652 
4 8507 9783 7028 3650 
4 5545 3014 9513 9886 
4 3424 4405 8926 8924 
4 2804 9995 6031 5445 
4 7644 3482 7640 8859 
4 3717 5134 8368 8108 
4 3401 8955 7736 7740 
4 7607 9755 7605 4697 
4 8156 8507 7028 5174 
4 6278 9087 9086 6429 
4 6453 6326 9039 6324 
4 5143 5144 3712 8170 
4 6006 8593 3157 7344 
4 9397 9911 9398 2882 
4 3692 8165 5154 7023 
4 7012 3632 5184 8152 
4 9102 7105 9103 2702 
4 9989 6094 2930 5508 
4 2735 7072 7071 6453 
4 7182 2911 7183 5298 
4 5219 8138 7256 7255 
4 5184 3632 5183 8152 
4 5911 6751 8787 10031 
4 6991 6811 7477 3382 
4 6310 6446 9053 6312 
4 3726 3728 6809 8106 
4 3604 8146 5197 5198 
4 7824 7733 3406 8950 
4 3692 8165 5153 5154 
4 3142 5410 7255 5220 
4 6260 6258 9105 6420 
4 3464 7797 4669 4670 
4 5193 5194 3612 8148 
4 8154 3640 5180 5179 
4 6451 7075 6450 9044 
4 6554 8851 8853 8301 
4 6999 3636 5182 8153 
4 4495 8260 8261 8950 
4 3676 7785 8519 3674 
4 7645 8862 3475 7792 
4 6797 8272 4611 6383 
4 8169 3708 6998 5146 
4 8509 9780 7024 3654 
4 5142 6995 3716 8171 
4 3503 4692 4693 7780 
4 9078 7093 9079 2714 
4 7197 2881 9398 7198 
4 5811 8075 7881 4381 
4 8312 8313 6303 9062 
4 8324 8901 8325 6526 
4 8338 6251 9114 8339 
4 3704 8168 5147 5148 
4 8234 4537 6278 9086 
4 2848 9414 5267 7214 
4 6723 9780 8508 4749 
4 8836 4582 4450 6561 
4 8850 8211 4568 4442 
4 3696 8166 5151 5152 
4 9353 9442 2793 7242 
4 8167 3700 5150 5149 
4 7126 6399 7125 2681 
4 8143 3588 5206 5205 
4 7786 4740 4739 3496 
4 3696 8166 5152 7020 
4 2933 9948 6095 5509 
4 3518 7595 8812 7773 
4 7229 5252 9429 2818 
4 2766 7042 2765 6014 
4 3700 8167 5150 7018 
4 6505 4403 4510 8930 
4 5497 6083 9977 2909 
4 8168 3704 7011 5148 
4 3588 8143 5206 7019 
4 8123 8418 5084 3617 
4 9843 8459 3556 3554 
4 5329 2980 9529 2981 
4 7479 7480 6961 3379 
4 7200 2877 5281 5091 
4 5330 7335 2980 2982 
4 5627 9544 3189 7380 
4 5120 3691 8382 8381 
4 7201 5090 2875 5280 
4 6985 7476 6811 3383 
4 7333 2984 5332 2987 
4 4733 9761 4734 7618 
4 4186 8969 8271 7578 
4 7105 6420 7104 2702 
4 8594 8596 6207 2970 
4 9831 3574 8469 7724 
4 6612 7721 6613 8934 
4 4417 6521 8902 4531 
4 9481 3076 5377 7288 
4 7577 6592 8969 8789 
4 9909 9366 9365 2947 
4 5507 6093 9888 2928 
4 5554 9504 9891 3033 
4 6462 9021 6344 9020 
4 5370 7295 3061 3063 
4 5234 7474 9162 9342 
4 3390 8966 7751 7747 
4 3502 7616 7622 8835 
4 5194 5384 3090 7280 
4 6264 9099 6266 6423 
4 6032 2807 9966 5446 
4 3030 7310 9504 3033 
4 3091 7281 5384 3089 
4 5400 3122 3123 7265 
4 6628 4654 4655 7691 
4 5113 3677 8389 8388 
4 5593 6180 3111 9870 
4 5049 8452 5050 3549 
4 7181 5300 9381 2914 
4 6408 7116 7117 2690 
4 2798 9996 6028 5442 
4 9131 6234 9129 8256 
4 6393 9156 6211 5031 
4 9968 5440 6026 2794 
4 5594 6181 3112 9930 
4 9460 3121 3119 3118 
4 6501 4400 4507 8936 
4 7796 6726 3642 4755 
4 3422 7715 8928 8930 
4 5455 2825 6041 9893 
4 9895 2845 5465 6051 
4 3577 8438 8439 5063 
4 6581 4606 8802 4467 
4 8793 4613 4472 6588 
4 5370 7294 3062 5180 
4 6096 5510 2934 9883 
4 7258 9451 5407 3137 
4 4786 7722 7720 3415 
4 8174 8271 4838 9343 
4 7702 3433 7700 4776 
4 6543 8311 8871 8873 
4 3149 3147 9446 3146 
4 4655 7807 4656 3440 
4 7887 9554 3884 6988 
4 7152 7867 7845 2784 
4 8265 9147 6216 9149 
4 9005 9003 6360 6470 
4 8451 7239 5051 5052 
4 9499 5559 3043 9944 
4 9424 2828 7224 5257 
4 5130 3711 8372 8371 
4 9941 9511 3019 5547 
4 8949 8947 8349 6497 
4 8442 7230 5060 5061 
4 5207 5208 3584 8142 
4 8424 3605 9810 4653 
4 3607 8423 8424 5078 
4 8098 7854 8576 5428 
4 7852 8575 8097 5427 
4 4706 3526 4705 7770 
4 5076 8427 5075 7215 
4 5489 9999 2893 6075 
4 5073 8430 5072 7218 
4 3102 3103 5390 7275 
4 7349 7032 3751 3781 
4 6733 4769 3614 7806 
4 8337 8925 8923 6511 
4 6744 9833 4791 3570 
4 7331 2989 5334 2991 
4 8961 8959 8355 6490 
4 8545 4813 7867 2784 
4 5342 7323 3005 3007 
4 6756 8959 8353 6492 
4 2945 7165 7166 9366 
4 6457 9029 9031 6334 
4 3531 7581 4708 4709 
4 6318 9047 6449 6316 
4 7102 6423 7101 2705 
4 6592 4186 8969 8271 
4 9067 6296 9069 6438 
4 3001 5340 7325 3003 
4 7820 4639 4638 3413 
4 5144 5334 2990 7330 
4 3637 4669 9790 8408 
4 6747 9841 4797 3558 
4 2955 7160 7161 9361 
4 5346 7319 3012 3014 
4 3568 9835 8465 3566 
4 8124 8420 5082 3613 
4 9413 7213 7212 2851 
4 9908 2939 5512 6098 
4 4818 3158 8600 7847 
4 8146 3604 6996 5198 
4 9555 6990 7384 7385 
4 5344 7321 3009 3011 
4 7228 9428 2821 7227 
4 3713 5132 8370 8109 
4 4747 7791 4748 3479 
4 8448 9840 4629 3557 
4 3119 5398 3117 7267 
4 5367 7298 3055 3057 
4 7309 5165 3032 5355 
4 8233 4535 6280 9083 
4 3074 5376 3072 7289 
4 2997 5338 7327 2999 
4 3783 3753 7039 7351 
4 9997 6190 5603 3131 
4 2842 9417 5264 7217 
4 9876 6182 5595 3115 
4 4634 7729 3409 3404 
4 9960 2842 5464 6050 
4 3115 7269 5396 3113 
4 6592 7577 8969 4713 
4 6718 9767 8518 4739 
4 6035 2812 9964 5449 
4 8478 7272 8479 5202 
4 7013 8144 3592 5204 
4 3671 8392 9768 9769 
4 5208 7022 3584 8142 
4 2802 9902 6030 5444 
4 9152 6397 6396 7129 
4 6274 6427 9091 9090 
4 7747 7749 3394 8964 
4 3069 3071 5374 7291 
4 5344 7320 3010 5154 
4 4368 4168 4369 9254 
4 4746 3658 3482 7640 
4 5185 5186 3628 8151 
4 8452 7240 7241 5050 
4 9018 9019 6347 2744 
4 3407 4794 7736 7738 
4 3682 3502 4734 7616 
4 3070 5184 5374 7290 
4 7299 8156 8506 5175 
4 3085 7284 5381 3083 
4 2866 6062 5476 9978 
4 6222 6224 6402 9141 
4 9026 7067 9027 2740 
4 2971 8594 2970 7153 
4 5186 7025 3628 8151 
4 8517 9770 3670 7630 
4 3498 7624 8843 8841 
4 2800 9438 5243 7238 
4 8967 8965 6487 3393 
4 9967 5443 6029 2800 
4 7869 2786 8546 4814 
4 5522 2959 6108 9884 
4 3626 7674 3457 4762 
4 4078 9164 4937 8606 
4 2808 9901 6033 5447 
4 8122 8415 5087 3623 
4 6060 5474 2862 9894 
4 3502 3682 4735 7622 
4 4637 4636 7723 6608 
4 7644 4747 3658 3482 
4 5028 4170 9253 8697 
4 9951 6183 5596 3116 
4 5609 3143 10003 6196 
4 9962 5577 9481 3078 
4 8401 8119 3651 5101 
4 3701 5126 8376 8111 
4 8129 8434 5068 3585 
4 5336 7329 2992 2995 
4 5372 7293 3064 3067 
4 3518 8814 8812 4461 
4 3097 5586 6173 9953 
4 5591 6178 3107 9985 
4 8842 6659 3495 4447 
4 5496 6082 10001 2906 
4 437 7861 2773 2775 
4 9502 9963 5556 3037 
4 5214 7261 5404 3130 
4 9137 6228 9135 8259 
4 9089 6275 8326 8327 
4 3508 3512 7605 4696 
4 7680 3454 4765 3622 
4 7758 6801 8973 9536 
4 3590 4781 7815 6739 
4 9980 5522 9884 9359 
4 6331 8298 8299 9034 
4 9537 7759 8974 6800 
4 9899 2815 5450 6036 
4 7175 5116 5115 8386 
4 3095 9877 9472 9473 
4 8419 5083 7208 5082 
4 5240 2792 7241 5049 
4 9456 3129 3126 7262 
4 5135 7156 5325 2964 
4 4673 3645 8404 9784 
4 7676 7678 3452 4764 
4 4745 9776 4746 7642 
4 7180 7179 5111 8391 
4 8135 8451 5051 3551 
4 7185 5106 5105 8397 
4 5129 8110 8373 7161 
4 6250 9113 6252 6416 
4 7154 7155 2967 9355 
4 8448 7236 5054 5055 
4 9974 5490 6076 2894 
4 3556 8137 5221 5222 
4 7778 3508 4696 4695 
4 9420 7220 7219 2837 
4 5592 6179 3108 9943 
4 2687 7119 6405 7120 
4 4685 3671 9768 9769 
4 5132 5133 8369 7158 
4 3707 4704 4703 9746 
4 8128 8430 5072 3593 
4 8132 8442 5060 3569 
4 8127 8427 5075 3599 
4 3554 4798 7746 3396 
4 2889 7193 7194 9394 
4 5519 6105 9945 2952 
4 7117 9126 2690 9127 
4 5502 6088 9942 2919 
4 3405 4792 3566 7734 
4 4612 8183 8796 4470 
4 4678 3657 4679 9777 
4 8507 9783 3650 7648 
4 5108 3665 8117 8394 
4 8937 8344 6503 6504 
4 3592 8144 5203 5204 
4 7698 3436 3602 4774 
4 7338 6692 8106 8544 
4 5396 7268 3114 5206 
4 7594 3522 3706 4722 
4 8504 9785 9787 6725 
4 3099 9889 5587 6174 
4 7829 4799 6748 3554 
4 3425 7710 4780 3590 
4 3460 7666 4758 3634 
4 4691 7615 7782 8386 
4 8997 6368 6366 6474 
4 8598 4282 6987 7564 
4 3101 3099 9470 3098 
4 7696 3438 3606 4772 
4 3459 7670 4760 3630 
4 3509 7612 4730 3690 
4 7600 3519 3702 4724 
4 9881 3125 6187 5600 
4 2903 7186 7187 9387 
4 8137 3556 7001 5222 
4 4784 3582 3419 7718 
4 3511 7608 4728 3694 
4 2839 9900 6048 5462 
4 5394 7270 3110 5204 
4 7602 3515 3698 4726 
4 5342 7322 3006 5152 
4 7592 3527 3710 4720 
4 6064 5478 2870 10019 
4 7131 4841 6013 8975 
4 3002 5340 7324 5150 
4 2792 7242 7241 5049 
4 3528 3714 7588 4718 
4 5094 3637 8121 8408 
4 9050 7079 9051 2728 
4 9492 3057 9938 5566 
4 7225 8437 5066 5065 
4 8943 8941 3414 7724 
4 9940 5580 9478 3085 
4 10012 2832 5459 6045 
4 6046 2835 10006 5460 
4 3532 7588 7582 4718 
4 10013 5492 6078 2898 
4 9378 2921 7178 7177 
4 5487 9970 2888 6073 
4 5099 5289 2892 7192 
4 2998 5338 7326 5148 
4 10007 6072 2887 5486 
4 3421 7716 4782 3586 
4 5606 9998 6193 3136 
4 4178 3179 9850 8971 
4 6175 3101 5588 9991 
4 6745 7825 4793 3566 
4 9132 2687 7120 9133 
4 4520 8242 8243 8914 
4 6282 9083 9081 6431 
4 9015 6348 9017 6464 
4 8564 7339 5420 9346 
4 5518 6104 10005 2951 
4 9856 9527 9526 2987 
4 3638 3465 4756 7664 
4 7692 3441 3610 4770 
4 3594 4779 9818 6738 
4 2684 6402 7123 7122 
4 5517 6103 10011 2948 
4 2805 5245 7236 5055 
4 8982 2763 7043 7044 
4 9411 5270 7211 2855 
4 9070 9072 6295 2718 
4 8067 8579 5422 8549 
4 7004 5158 5159 8163 
4 6063 5477 2869 9914 
4 9976 5457 6043 2828 
4 7185 2907 5296 5106 
4 7206 2864 5275 5085 
4 6081 9906 5495 2904 
4 8550 8068 5421 8580 
4 8133 8445 5057 3563 
4 3600 4775 8482 9814 
4 6186 9946 3122 5599 
4 7859 478 2777 2774 
4 5435 7152 2972 5433 
4 7758 9534 3198 3539 
4 5248 7233 2810 5058 
4 8445 7233 5057 5058 
4 9730 6984 5719 5809 
4 9783 4751 8506 6724 
4 6079 10008 5493 2901 
4 3121 9988 5598 6185 
4 8297 4577 6335 9032 
4 5124 5125 8377 7166 
4 8472 9827 3580 4785 
4 5118 2931 7173 5308 
4 5105 3659 8118 8397 
4 5098 3645 8120 8404 
4 8134 8448 5054 3557 
4 6732 9805 9804 8490 
4 4841 2675 6393 9156 
4 6720 9772 4743 3666 
4 5104 5103 7187 8398 
4 8431 7220 5070 5071 
4 3747 7574 6694 7835 
4 5216 7010 3568 8139 
4 3505 7614 7610 4732 
4 5099 5098 7192 8404 
4 3095 5386 3092 7279 
4 7059 2747 7060 6465 
4 8232 4540 6282 9081 
4 5458 6044 9912 2831 
4 5097 8405 5096 7194 
4 3067 9487 9863 9486 
4 9522 2995 9854 9523 
4 5126 5127 8376 7164 
4 4725 7598 7774 6711 
4 5102 8401 5101 7189 
4 4729 7606 7777 6713 
4 8207 9031 8206 4576 
4 4629 4628 7743 6601 
4 7185 5295 2905 7186 
4 5069 8434 5068 7222 
4 8195 9007 4594 6356 
4 4382 8788 5236 7882 
4 7149 7852 3785 8560 
4 7854 7151 8562 3787 
4 6086 10016 5500 2914 
4 4757 7798 6727 7662 
4 3147 6198 9915 5611 
4 7043 2763 2764 6482 
4 5214 8466 8467 7260 
4 3534 6684 4715 7580 
4 7817 6740 4783 7714 
4 3690 4731 7779 6714 
4 5189 8492 8150 7285 
4 3483 3487 7637 4681 
4 4630 7739 3402 3398 
4 9510 9941 9511 3019 
4 9499 3043 9498 9944 
4 10015 2940 5513 6099 
4 5215 5216 3568 8139 
4 9796 3629 4664 4665 
4 3024 9507 3025 3027 
4 4761 3630 6729 7800 
4 3099 5388 3096 7277 
4 3706 4723 7772 6710 
4 7586 4719 6708 7769 
4 7678 4763 9800 8494 
4 9935 9507 9506 3027 
4 9474 9862 9475 3091 
4 6728 4759 3634 7799 
4 4721 7590 7771 6709 
4 5128 5129 8373 7162 
4 3698 4727 7775 6712 
4 9911 2882 5484 6070 
4 9965 2836 5461 6047 
4 7237 2803 5244 7236 
4 6112 5525 7887 9355 
4 3439 7696 7690 4772 
4 9515 3011 9514 9874 
4 4638 4637 7725 6610 
4 7698 7694 3437 4774 
4 9910 5491 6077 2897 
4 3063 9488 9489 9858 
4 4727 7604 7775 6712 
4 5140 5141 6994 7334 
4 8452 8135 7240 5050 
4 4771 6734 7690 7808 
4 4723 7596 7772 6710 
4 6728 7668 4759 7799 
4 8788 4382 5236 4846 
4 7670 7668 3462 4760 
4 7694 7810 4773 6735 
4 6513 4410 4522 8916 
4 5266 2847 5076 7215 
4 9855 9525 9524 2991 
4 4436 8862 8864 3475 
4 8292 6567 6565 8833 
4 9463 9876 5595 3115 
4 2799 5242 7239 5052 
4 7594 7590 3525 4722 
4 5219 5409 3141 7255 
4 5251 7230 2817 5061 
4 9525 9919 9526 2988 
4 7582 4717 6707 7767 
4 5136 8366 7154 5327 
4 3476 7648 8867 8865 
4 3451 8890 4422 8892 
4 9484 9878 9485 3071 
4 4278 9165 4076 4936 
4 3530 7592 7586 4720 
4 7600 7596 3524 4724 
4 9075 6290 6288 6435 
4 9155 7130 6395 2676 
4 7608 7604 3517 4728 
4 6753 8361 4481 6209 
4 9975 5483 6069 2880 
4 3725 9737 4712 3723 
4 8241 9101 9099 6264 
4 8107 8596 5417 6207 
4 9154 4482 8359 8357 
4 7003 5163 6718 8161 
4 3887 9733 3886 5809 
4 9055 6310 9053 8218 
4 4708 7581 7768 8369 
4 9457 3127 3125 3124 
4 7203 8415 5088 5087 
4 4719 3714 6708 7769 
4 5263 5073 7218 2841 
4 9934 9486 9485 3068 
4 10014 2884 5485 6071 
4 4689 7619 7784 8388 
4 7662 3463 7666 4758 
4 7807 8421 4656 7685 
4 4168 5027 4369 9254 
4 9980 2960 9359 9358 
4 9505 9879 9506 3028 
4 7612 7606 3513 4730 
4 4635 7731 6605 3409 
4 7672 4761 6729 7800 
4 8419 4658 7805 7681 
4 3602 4775 7812 6736 
4 3443 6630 4417 8902 
4 6080 9972 5494 2902 
4 7819 6741 3582 4785 
4 3710 4721 7771 6709 
4 9505 9504 9955 3031 
4 6446 7078 7079 2728 
4 5288 7193 2891 7192 
4 6734 4771 3610 7808 
4 4784 3423 7714 7718 
4 9932 3008 9516 9515 
4 8460 7254 8461 5220 
4 7602 7598 3521 4726 
4 7225 2827 5256 5066 
4 8203 8202 8834 4580 
4 4809 8091 8107 8594 
4 7810 3606 4773 6735 
4 5090 8411 7200 5091 
4 4731 7610 7779 6714 
4 9165 4277 4278 4076 
4 3093 9474 9933 9473 
4 6100 2943 10009 5514 
4 8900 8236 8235 4530 
4 3059 3056 3057 9491 
4 8455 8364 5226 5228 
4 3007 9516 9517 9860 
4 8190 8997 6366 8999 
4 3084 9477 3085 3087 
4 3987 4375 8081 7883 
4 7884 8082 4376 3988 
4 9859 9518 3003 9519 
4 8364 6208 5228 4810 
4 4939 4079 8605 8603 
4 3119 9887 5597 6184 
4 4632 7824 4633 3406 
4 5516 6102 9909 2947 
4 8186 8800 4605 8185 
4 3702 4725 7774 6711 
4 3694 4729 7777 6713 
4 8516 6719 9770 4741 
4 8820 8822 3512 7607 
4 6442 6304 9061 6302 
4 5488 9905 2890 6074 
4 6481 6482 8981 6382 
4 4404 3420 3426 8928 
4 2996 9522 9917 9521 
4 9853 2999 9521 9520 
4 8814 3518 8812 7599 
4 3607 8423 4654 7809 
4 9741 3717 8368 8108 
4 3586 7817 6740 4783 
4 3534 8797 6684 7580 
4 8836 6663 3500 4450 
4 7816 7711 3420 8928 
4 7798 4757 6727 3638 
4 9824 7713 4642 7717 
4 4800 7750 7748 3393 
4 9518 3004 9517 9928 
4 6733 7686 4769 7806 
4 9923 3000 9520 9519 
4 5499 6085 10018 2913 
4 7796 6726 4755 7660 
4 4706 7585 7770 8371 
4 4781 7712 7815 6739 
4 9496 9495 9873 3049 
4 8802 6679 3529 4467 
4 6065 5479 2873 10021 
4 9488 3065 9487 9926 
4 9524 9918 2993 9523 
4 7818 4641 4640 6613 
4 8509 7646 9780 3654 
4 8874 4552 4431 6538 
4 9047 9049 6316 8215 
4 3078 5378 3076 7287 
4 2960 9980 5523 9358 
4 7820 8438 4639 7719 
4 6482 5032 8981 6382 
4 5515 6101 9973 2944 
4 5284 2883 7196 7197 
4 8454 7243 6691 5047 
4 5095 5094 7196 8408 
4 4427 6533 8882 4546 
4 8524 9761 4733 7618 
4 7248 7249 5416 3155 
4 3381 4368 4369 9254 
4 7314 5351 5160 8162 
4 9531 3154 5416 3155 
4 9527 9920 9528 2985 
4 7709 3424 8926 8924 
4 7832 7759 9537 6800 
4 9495 3050 9494 9949 
4 4775 7702 8482 9814 
4 6384 8272 8982 8980 
4 8968 8792 7830 3391 
4 9164 4077 4279 4937 
4 4180 3180 6206 7359 
4 6681 4707 4708 7768 
4 7268 5397 5207 7267 
4 7805 4658 4657 6632 
4 5510 9371 9883 9959 
4 2786 7869 7246 7847 
4 3669 4684 3667 7787 
4 7887 6112 9355 7886 
4 4186 8174 8271 4838 
4 4756 3468 7660 7664 
4 9954 9484 9483 3073 
4 8472 9827 4785 7722 
4 8852 4570 4442 6551 
4 6205 7360 4179 3177 
4 7716 4782 7712 3427 
4 9121 6412 9119 6244 
4 3013 9513 9514 9950 
4 3689 5120 8382 8113 
4 4169 5028 4370 9253 
4 4796 7827 3558 7744 
4 8514 5166 7308 8515 
4 3675 5113 8389 8116 
4 7567 7473 3192 3386 
4 7692 7686 3444 4770 
4 3485 3490 7635 4683 
4 4687 9766 4686 3673 
4 8416 3621 5086 5085 
4 3550 4800 7748 3395 
4 3122 5400 3120 7265 
4 7713 4642 7717 3418 
4 7157 2961 2962 9358 
4 5120 7170 5121 8381 
4 3709 8110 5130 8372 
4 8131 3575 8439 5063 
4 8556 6006 8589 4622 
4 3793 8363 3985 8585 
4 3605 8424 8126 5078 
4 9412 2854 9861 5469 
4 8362 3986 3794 8584 
4 4400 3416 6612 8936 
4 5337 7328 7327 5147 
4 5289 2892 7192 9392 
4 6461 6342 9024 6340 
4 8966 4385 6595 8790 
4 4391 6491 8954 4492 
4 5425 4827 8571 3786 
4 7332 5143 7331 5333 
4 9913 5498 6084 2910 
4 8418 7206 5084 5085 
4 4841 7131 9156 8975 
4 7210 8421 5081 5080 
4 2864 9406 7206 5275 
4 9433 5248 7233 2810 
4 7324 7323 5341 5151 
4 8594 7341 2971 6005 
4 4646 7705 3429 3424 
4 4370 3382 4369 9253 
4 7299 5366 3055 9492 
4 8248 9115 9113 6250 
4 7285 9478 5380 3083 
4 3720 3718 4716 9740 
4 4483 4841 9156 8269 
4 3124 5211 5401 7263 
4 5122 5123 8380 7168 
4 5113 7177 5114 8388 
4 8838 8204 8836 6561 
4 8966 3390 7751 6595 
4 4629 7743 3398 6601 
4 3100 3102 5390 7275 
4 397 577 576 6701 
4 7322 7321 5343 5153 
4 3789 8599 6017 8553 
4 8417 3621 8416 5085 
4 5166 8514 7308 5167 
4 5339 7326 7325 5149 
4 6016 6696 9551 8074 
4 6330 9033 9035 8208 
4 6743 9831 8468 4789 
4 9535 7759 3387 3197 
4 9475 9925 9476 3088 
4 8822 6570 8824 8197 
4 9490 3060 9489 9922 
4 8199 4586 6348 9015 
4 3709 4705 4704 9745 
4 8187 8804 6581 8802 
4 9480 9962 9481 3078 
4 3886 9730 5719 5809 
4 8828 4588 4454 6566 
4 8443 5059 5058 3567 
4 6501 8254 8938 8936 
4 9733 7885 3887 3886 
4 9907 3140 6195 5608 
4 7369 4184 7836 6484 
4 7368 4183 7834 6483 
4 3500 6663 7621 4690 
4 9082 6283 8323 8321 
4 6176 3102 5589 9961 
4 3158 5434 5436 7246 
4 3649 5099 5100 8402 
4 3135 9904 5605 6192 
4 9502 9501 9963 3037 
4 5351 3024 5161 7313 
4 9507 9864 9508 3025 
4 4638 7725 3413 6610 
4 7297 8504 8155 5177 
4 8816 8818 3514 7601 
4 8273 8984 8275 6381 
4 7005 5213 6743 8140 
4 3687 5118 5119 8383 
4 7227 8438 5064 5063 
4 9539 5420 2975 3163 
4 4576 8842 6557 4447 
4 9039 8211 9041 6324 
4 9755 3693 8380 8112 
4 4809 8588 8594 6005 
4 4505 8252 8253 8934 
4 3797 5629 9641 9731 
4 7705 7707 3429 8922 
4 8193 9003 4597 6360 
4 8128 8431 5071 7219 
4 6723 8157 7024 5173 
4 7186 5104 8398 8118 
4 2966 5526 2968 9355 
4 7193 5097 8405 8120 
4 5130 5131 8371 7160 
4 3139 7257 5408 3137 
4 4588 8199 9017 8200 
4 8456 7249 5225 5226 
4 5079 8423 5078 7212 
4 5178 8155 7007 3644 
4 3616 5192 7008 8149 
4 9729 5630 9732 3889 
4 8921 8923 7708 3432 
4 5107 3663 5106 8395 
4 8229 9075 6288 9077 
4 9903 5441 6027 2797 
4 3561 8446 5055 5056 
4 4506 6761 8344 6503 
4 8444 8443 5058 3567 
4 8784 8785 9340 4941 
4 8693 4850 8694 9251 
4 8947 8945 3411 7732 
4 5099 3649 8403 8402 
4 8885 8316 8317 6535 
4 7283 5191 8490 8149 
4 4509 8928 8249 8250 
4 3543 8105 3545 9541 
4 7813 4648 4647 6619 
4 9550 8072 6015 6695 
4 8695 578 8601 5819 
4 3432 4777 4778 7814 
4 9141 6222 8262 9143 
4 8422 9808 4655 3611 
4 5108 7182 5109 8394 
4 5141 7333 7334 5331 
4 7672 3455 7674 4762 
4 9033 6330 6456 6332 
4 7708 4778 3594 7814 
4 8954 6491 8956 8263 
4 6478 8990 6374 6376 
4 7112 6413 7111 2695 
4 9982 9479 9478 3082 
4 7157 5324 2963 9357 
4 6019 7132 2676 2675 
4 5227 3725 8365 9736 
4 5095 5285 2885 7196 
4 9156 9154 6211 5031 
4 9372 9883 9948 5509 
4 8377 5125 8111 7165 
4 8156 7028 5175 5174 
4 5604 9969 6191 3132 
4 5607 9971 6194 3139 
4 9544 3887 5627 5809 
4 7358 6010 4820 3183 
4 3182 7361 4819 6009 
4 8292 6567 8290 6788 
4 3508 7778 7611 4695 
4 4613 4614 8181 4472 
4 4652 4651 7693 6624 
4 3504 4734 7616 7618 
4 6628 4655 3440 7691 
4 4170 5029 9252 8697 
4 2859 9410 5471 9880 
4 8852 8854 8212 6551 
4 5032 6482 8981 8979 
4 2799 5242 9439 7239 
4 5314 2942 7167 9367 
4 9085 6279 8324 8325 
4 9048 8305 9046 6319 
4 9415 2847 5266 7215 
4 4763 3626 6730 7802 
4 8227 8226 4546 9071 
4 3497 7625 4688 7784 
4 9418 5263 7218 2841 
4 9892 3129 6189 5602 
4 7230 9430 5251 2817 
4 9492 3057 9491 9938 
4 2827 9425 7225 5256 
4 3687 5118 8383 8384 
4 9500 3041 9499 9986 
4 4790 7823 3570 7732 
4 8967 7752 7748 3395 
4 3046 9496 9497 9931 
4 5217 8463 8464 7257 
4 2950 7163 5318 9363 
4 7182 2912 5299 5109 
4 9477 9940 9478 3085 
4 7701 7811 6622 8914 
4 7081 2725 7082 6443 
4 10022 3149 6199 5612 
4 3659 4680 4679 9775 
4 2912 7182 5299 9382 
4 9084 2712 6283 9082 
4 9508 9927 9509 3022 
4 9075 9073 6290 6435 
4 4799 8458 9845 7750 
4 7050 7049 2757 6475 
4 7731 7822 6607 8944 
4 3044 7303 7304 9497 
4 4177 9851 8972 3178 
4 4075 9166 4277 4276 
4 5590 9897 6177 3105 
4 8437 8130 9826 3579 
4 7676 3454 8895 7680 
4 3020 7315 7316 9509 
4 9887 9461 3119 5597 
4 4745 8512 9776 7642 
4 9096 7102 9097 2705 
4 3146 5412 7252 5222 
4 5189 7285 7286 5379 
4 3775 3175 7144 2774 
4 3287 9165 4277 4278 
4 9124 6411 6242 6240 
4 3464 7663 6642 4669 
4 7349 7869 8570 4823 
4 9421 5260 7221 2834 
4 3461 6639 4427 8882 
4 5090 8411 5091 3631 
4 6673 7598 3521 8817 
4 3663 5106 8395 8396 
4 4367 4167 4368 9255 
4 8342 6762 8344 6504 
4 8957 8959 7744 3403 
4 5524 6111 10025 3883 
4 8294 9022 9023 6343 
4 3483 7641 6653 4680 
4 9980 2960 5523 6109 
4 8447 3561 8446 5055 
4 5326 7155 2964 2966 
4 5327 7154 2967 2968 
4 8864 8862 7649 3475 
4 7225 8130 8437 5065 
4 8881 6643 3463 7662 
4 8933 6615 3423 7714 
4 8890 3451 7677 8892 
4 8919 7704 7700 3435 
4 8344 4506 6503 6504 
4 9402 7202 2872 5279 
4 8564 5420 2974 9346 
4 4687 6659 3495 7623 
4 7778 3691 4696 8381 
4 9968 9441 9903 5440 
4 8692 574 575 5823 
4 5412 3144 7253 5221 
4 5093 8409 7197 8121 
4 4737 7785 4738 3498 
4 9528 9857 9529 2982 
4 6617 4407 3429 8922 
4 9164 3288 4279 4278 
4 7014 5165 6719 8160 
4 8338 8339 8929 6509 
4 8877 6540 8312 8313 
4 6722 8158 7006 5171 
4 8436 8435 5066 3583 
4 6677 3526 7591 4705 
4 8244 6258 9107 9105 
4 8362 8174 8077 5816 
4 9163 4078 4938 8606 
4 5187 8493 8494 7287 
4 3145 9979 5610 6197 
4 6969 7478 3380 3381 
4 8792 8968 4384 3391 
4 3532 6682 7582 8801 
4 5066 8435 5067 3583 
4 7338 7337 9354 2977 
4 489 490 5914 8783 
4 4382 4372 4846 7882 
4 6417 2699 7107 7108 
4 7067 7066 2740 6458 
4 3035 7308 9502 3037 
4 9819 3591 4645 4646 
4 8976 2765 6014 4842 
4 7579 6685 8789 8795 
4 9889 3099 5587 9471 
4 6578 8281 8280 8813 
4 9548 9848 8454 3547 
4 6087 10004 5501 2916 
4 5286 2886 7195 9395 
4 2962 9916 9357 9358 
4 3672 7786 8517 3670 
4 4746 3484 7642 7640 
4 8284 6574 8285 8821 
4 3699 4700 4699 9751 
4 3148 3150 5414 7251 
4 5293 2900 7188 9388 
4 3094 5386 7279 7278 
4 3510 7776 7607 4697 
4 8104 3793 4835 8585 
4 8796 3535 3531 6585 
4 7657 8872 6646 6644 
4 9422 5259 7222 2833 
4 6746 7017 5219 8138 
4 2721 6439 7086 7085 
4 4692 3685 8385 9760 
4 9389 2899 5292 7189 
4 7152 7341 5435 2972 
4 2949 7164 5317 9364 
4 7761 3728 8106 9350 
4 6651 7639 4678 4679 
4 9368 5313 7168 2941 
4 8367 5136 8366 7155 
4 4836 8103 3794 8584 
4 9875 5504 9377 2925 
4 9403 5278 7203 2871 
4 4559 8216 8217 8862 
4 8449 5053 5052 3555 
4 3453 3447 4661 7675 
4 7647 3471 3477 4675 
4 8428 5074 5073 3597 
4 3487 7637 4681 4682 
4 8235 9087 6276 9090 
4 6388 3750 3186 7569 
4 7568 3185 3748 6387 
4 8887 6774 8318 6532 
4 5529 6115 9921 2981 
4 7598 8532 7774 6711 
4 7603 7776 8820 3510 
4 7606 8528 7777 6713 
4 9869 5502 9942 9379 
4 8450 8449 5052 3555 
4 7798 8500 6727 7662 
4 8429 8428 5073 3597 
4 6567 8292 6565 4585 
4 7476 5808 9553 6985 
4 8464 9837 4793 7738 
4 4515 8246 9110 6254 
4 6356 6354 9010 6468 
4 7251 8458 8457 5223 
4 8191 8812 8192 4596 
4 5061 8440 5062 3573 
4 6678 8809 7590 3525 
4 8425 5077 5076 3603 
4 3721 3723 9739 8366 
4 7590 8536 7771 6709 
4 6708 7586 7769 8538 
4 6626 8913 7694 3437 
4 7604 8530 7775 6712 
4 7596 8534 7772 6710 
4 6728 7668 7799 8498 
4 8123 9803 8418 3617 
4 7690 6734 8486 7808 
4 6740 7817 8474 7714 
4 8890 8231 8230 4538 
4 5439 9968 6026 2794 
4 8441 8440 5061 3573 
4 5501 10004 9942 9380 
4 3173 7146 3773 2773 
4 9339 8784 9340 4083 
4 3991 8693 9250 9251 
4 7041 7043 8980 2764 
4 8426 8425 5076 3603 
4 9960 9417 9895 5464 
4 4631 4630 7739 3402 
4 7636 3489 8849 8851 
4 9438 5443 9902 9967 
4 6666 3503 7617 4692 
4 5259 5069 7222 2833 
4 8484 7810 7694 6735 
4 5127 2949 7164 5317 
4 6294 8226 4545 9069 
4 3053 9493 9494 9885 
4 2899 5102 5292 7189 
4 7646 3479 8861 8863 
4 3203 9249 4193 4194 
4 4284 9338 4285 3297 
4 9924 2852 6055 5468 
4 6671 7606 3513 8825 
4 574 573 5824 8691 
4 6066 5480 2874 10020 
4 3291 9341 5233 4281 
4 9872 5519 9945 9362 
4 9401 5480 10017 10020 
4 5820 486 8786 8602 
4 3536 3534 7584 8799 
4 7726 8939 3417 7720 
4 6068 5482 2879 10010 
4 8175 8078 8363 5815 
4 490 491 5915 8782 
4 3108 9466 7272 3106 
4 4847 3987 8081 8086 
4 8082 8088 4848 3988 
4 7668 8885 3462 6640 
4 8319 8889 8318 6532 
4 3779 7859 7037 2777 
4 3132 9454 7260 3130 
4 7589 6676 4704 4703 
4 576 577 8694 6701 
4 5457 9976 9912 9424 
4 8884 3458 7667 7669 
4 5487 9970 9905 9394 
4 4744 9774 3662 7638 
4 5313 5123 7168 2941 
4 6525 4419 8898 8234 
4 9504 9503 9891 3033 
4 6039 5452 9882 2820 
4 7791 8509 3656 3654 
4 8193 9005 9003 6360 
4 7861 7034 3777 2775 
4 6521 8904 8902 8237 
4 8238 8239 9095 6268 
4 6040 5453 9957 2822 
4 573 572 5825 8690 
4 491 492 5916 8781 
4 7244 5419 8563 9345 
4 6707 7582 7767 8540 
4 6672 7604 3517 8821 
4 6675 7596 3524 8813 
4 9982 5579 9896 9479 
4 8569 4824 7351 7867 
4 5278 7203 2871 5088 
4 572 571 5826 8689 
4 492 493 5917 8780 
4 4536 6281 8323 8325 
4 9482 9890 9483 3074 
4 4281 3292 7881 4381 
4 571 570 5827 8688 
4 493 494 5918 8779 
4 9513 3014 9512 9886 
4 8687 570 5828 569 
4 495 494 8778 5919 
4 8686 5829 568 569 
4 496 495 8777 5920 
4 5830 8685 568 567 
4 497 496 8776 5921 
4 5831 8684 567 566 
4 8775 498 497 5922 
4 565 8683 5832 566 
4 499 498 8774 5923 
4 8682 565 5833 564 
4 5834 8681 564 563 
4 5835 562 8680 563 
4 5840 8675 558 557 
4 8676 5839 558 559 
4 5874 8641 524 523 
4 5876 8639 522 521 
4 5877 8638 521 520 
4 5875 8640 523 522 
4 8715 5982 558 557 
4 5852 8663 546 545 
4 5841 8674 557 556 
4 512 5885 513 8630 
4 537 536 5861 8654 
4 516 5881 517 8634 
4 518 5879 519 8636 
4 528 8646 5869 529 
4 534 533 5864 8651 
4 535 534 5863 8652 
4 542 543 8660 5855 
4 538 537 5860 8655 
4 539 540 8657 5858 
4 540 541 8658 5857 
4 541 542 8659 5856 
4 543 544 8661 5854 
4 536 535 5862 8653 
4 8645 528 5870 527 
4 8642 5873 524 525 
4 8643 5872 525 526 
4 8647 5868 529 530 
4 8644 5871 526 527 
4 8648 5867 530 531 
4 520 8637 519 5878 
4 515 516 8633 5882 
4 518 8635 517 5880 
4 5853 8662 545 544 
4 8649 5866 531 532 
4 8656 538 539 5859 
4 513 5884 514 8631 
4 514 515 8632 5883 
4 533 532 5865 8650 
4 8716 5981 557 556 
4 521 5945 520 8752 
4 510 511 8628 5887 
4 518 5942 517 8755 
4 8739 5958 534 533 
4 5957 8740 532 533 
4 508 5890 8625 507 
4 509 510 8627 5888 
4 516 517 5941 8756 
4 8629 511 512 5886 
4 508 509 8626 5889 
4 506 507 8624 5891 
4 515 516 5940 8757 
4 518 519 5943 8754 
4 5949 524 525 8748 
4 8732 5965 541 540 
4 8737 5960 536 535 
4 8727 5970 546 545 
4 531 5956 8741 532 
4 8731 5966 542 541 
4 8728 5969 545 544 
4 8738 5959 535 534 
4 529 528 8744 5953 
4 8745 528 527 5952 
4 530 529 8743 5954 
4 527 526 8746 5951 
4 531 530 8742 5955 
4 520 519 8753 5944 
4 524 523 8749 5948 
4 8751 522 521 5946 
4 525 8747 526 5950 
4 523 522 8750 5947 
4 8664 5851 546 547 
4 5968 8729 543 544 
4 514 515 5939 8758 
4 5967 8730 542 543 
4 5961 537 8736 536 
4 5963 8734 538 539 
4 5964 8733 539 540 
4 506 507 5931 8766 
4 537 5962 8735 538 
4 8765 5932 508 507 
4 8672 5843 554 555 
4 8668 5847 550 551 
4 8665 5850 547 548 
4 8671 5844 553 554 
4 8669 5846 551 552 
4 513 514 5938 8759 
4 509 508 8764 5933 
4 510 509 8763 5934 
4 513 512 8760 5937 
4 511 510 8762 5935 
4 512 511 8761 5936 
4 5848 8667 550 549 
4 5842 8673 556 555 
4 5845 8670 553 552 
4 5849 8666 549 548 
4 5971 8726 546 547 
4 505 506 5930 8767 
4 8720 5977 553 552 
4 8724 5973 549 548 
4 8723 5974 550 549 
4 8717 5980 556 555 
4 5975 8722 550 551 
4 5972 8725 547 548 
4 5979 8718 554 555 
4 5976 8721 551 552 
4 5978 8719 553 554 
4 560 5838 8677 559 
4 5983 8714 558 559 
4 505 506 8623 5892 
4 561 560 5837 8678 
4 504 505 5929 8768 
4 562 561 5836 8679 
4 560 8713 5984 559 
4 504 505 8622 5893 
4 503 504 5928 8769 
4 561 560 8712 5985 
4 503 504 8621 5894 
4 8770 5927 503 502 
4 561 8711 562 5986 
4 502 503 8620 5895 
4 501 502 5926 8771 
4 8710 562 5987 563 
4 501 500 8772 5925 
4 501 502 8619 5896 
4 500 499 8773 5924 
4 8709 5988 564 563 
4 501 500 5897 8618 
4 5989 565 8708 564 
4 500 499 5898 8617 
4 565 5990 8707 566 
4 499 498 5899 8616 
4 8706 5991 567 566 
4 498 497 5900 8615 
4 8705 5992 568 567 
4 497 496 5901 8614 
4 5993 8704 568 569 
4 496 495 5902 8613 
4 8703 5994 570 569 
4 8612 495 5903 494 
4 5995 8702 570 571 
4 5904 8611 494 493 
4 8701 5996 572 571 
4 3153 3154 9443 5615 
4 8610 5905 492 493 
4 9500 9986 9898 5558 
4 5997 8700 572 573 
4 6729 7672 7800 8496 
4 8195 8820 8196 4590 
4 9972 9387 9906 5494 
4 7075 7074 2732 6450 
4 5906 8609 492 491 
4 9465 3108 7272 3109 
4 9974 9391 9910 5490 
4 5470 6057 2856 9936 
4 7610 8526 7779 6714 
4 6716 7004 9762 3682 
4 9778 6722 7006 3658 
4 9122 6243 9123 8344 
4 2986 7333 7332 5332 
4 3553 8451 5051 5052 
4 4516 8247 9111 6252 
4 7135 9542 8584 5430 
4 8874 8876 8223 6538 
4 4742 7788 3666 7636 
4 6491 3398 8954 8956 
4 6411 9121 9124 6242 
4 8918 6513 8244 8916 
4 9956 3127 9457 9456 
4 8699 5998 574 573 
4 3543 8105 6808 3545 
4 5060 8442 5061 3571 
4 3461 7667 7665 8882 
4 7239 8135 8451 5051 
4 8238 6270 9095 9094 
4 5481 9400 10017 10010 
4 9797 9796 8413 3629 
4 8430 5073 5072 3595 
4 8820 3516 3510 4458 
4 3699 5124 5125 8377 
4 8427 5076 5075 3601 
4 7230 8132 8442 5060 
4 3578 9828 3417 7720 
4 5245 9436 2805 7236 
4 5467 2850 9866 6054 
4 9554 7887 7886 6988 
4 8430 8128 5072 7218 
4 7185 2907 9385 5296 
4 3109 7271 5394 5203 
4 4695 3689 8382 9757 
4 5907 8608 491 490 
4 8427 8127 5075 7215 
4 7846 2783 4815 2770 
4 2772 2785 7848 4816 
4 6006 8593 8589 4810 
4 9443 3152 7250 7249 
4 9737 3725 7762 8365 
4 9068 8314 6297 8316 
4 4828 8572 8578 5426 
4 8169 7329 5145 5146 
4 3286 6968 7385 3287 
4 3530 6680 7586 8805 
4 7308 3036 9501 3037 
4 7054 7053 2753 6471 
4 5104 3657 5103 8398 
4 3591 8431 5070 5071 
4 5181 7293 5182 8153 
4 2931 7173 5308 9373 
4 8448 8447 7236 5055 
4 5106 7185 8396 8397 
4 6058 2859 5471 9880 
4 4645 7709 3424 3426 
4 3439 8909 6629 7690 
4 5097 8405 3643 5096 
4 8854 8852 3483 6551 
4 9861 2854 6056 5469 
4 3721 9739 8367 8366 
4 5211 5401 7263 7264 
4 5188 5189 7029 8150 
4 5578 9962 9896 9480 
4 9501 9898 9963 5557 
4 7134 8579 2671 7040 
4 7816 4643 7715 3420 
4 8426 8427 5076 7215 
4 9061 9063 6302 8222 
4 8441 7230 8442 5061 
4 6589 6684 8795 6797 
4 8450 7239 8451 5052 
4 3380 4367 4368 9255 
4 7821 4788 4787 3414 
4 5196 7279 8147 5195 
4 8429 8430 5073 7218 
4 8200 8828 8830 6566 
4 7139 8580 2668 7133 
4 6733 7686 7806 8488 
4 5300 2915 7181 9381 
4 8123 8418 7206 5084 
4 7796 8502 6726 7660 
4 4754 3642 3466 7658 
4 8870 8220 6542 4433 
4 9448 3145 3142 7254 
4 3578 9828 4787 3417 
4 9420 9900 9965 5461 
4 7712 8476 7815 6739 
4 5999 8698 574 575 
4 3442 7688 4768 3614 
4 4650 7701 6621 3434 
4 3707 5128 5129 8373 
4 6752 8788 6002 578 
4 5372 7293 3066 7292 
4 9966 9435 9901 5446 
4 6209 9155 6395 2676 
4 9025 9024 8203 6340 
4 4688 3675 8389 9765 
4 9432 9899 9964 5449 
4 9442 2792 7242 7241 
4 7329 2994 5336 7328 
4 4669 4668 3637 9790 
4 5122 8380 8112 7168 
4 5134 5135 8368 7156 
4 6270 6272 6426 9094 
4 8410 5092 5091 3633 
4 7880 7134 3772 2768 
4 9249 3992 9250 4193 
4 4284 9338 9339 4084 
4 9992 9482 9481 3077 
4 6280 8233 9083 9086 
4 5467 9414 9939 9866 
4 7749 4626 3394 6597 
4 9983 3054 9493 9492 
4 9791 4668 3635 4667 
4 9463 9876 3115 9462 
4 5127 3703 5126 8376 
4 8401 3653 5102 5101 
4 8434 5069 5068 3587 
4 8607 5908 489 490 
4 8697 6000 576 575 
4 8601 8695 4847 8081 
4 8786 8602 8082 4848 
4 9730 9554 5719 7383 
4 6283 9084 9082 8323 
4 6685 6590 8789 8795 
4 6432 7092 7093 2714 
4 8828 6668 3506 4454 
4 9995 2804 6031 5444 
4 9540 7761 3728 8106 
4 3435 7700 3598 9816 
4 9794 4666 3633 3631 
4 7975 3978 9552 9553 
4 9029 8206 6334 4575 
4 8415 5088 5087 3625 
4 3122 9458 3123 7265 
4 8168 7327 5147 5148 
4 7199 8410 5092 5091 
4 9503 3034 9502 9993 
4 9953 3097 9472 9471 
4 7568 7834 7856 3748 
4 3750 7836 7569 7858 
4 5162 5163 8161 7312 
4 8887 7670 3462 3459 
4 3516 3514 7601 4699 
4 5482 9975 9399 10010 
4 8899 6771 8325 6526 
4 5452 9947 9882 9429 
4 8166 7323 5151 5152 
4 3183 7358 7362 8178 
4 7365 8179 3182 7361 
4 9166 3286 4277 4276 
4 7339 3984 8070 2976 
4 8889 3455 7672 6638 
4 3464 8876 8874 6538 
4 9951 3116 9462 9461 
4 7325 8167 5150 5149 
4 9642 7476 5808 9553 
4 8124 9806 8420 3613 
4 7793 8507 3652 3650 
4 9989 5507 9888 9374 
4 2790 8069 3983 7244 
4 7881 8075 4181 4381 
4 6003 9532 8099 485 
4 6991 7477 3381 3382 
4 7384 6990 3288 3287 
4 5183 5184 8152 7291 
4 7749 7828 6598 8962 
4 7574 6694 7835 8076 
4 5143 5144 8170 7331 
4 7349 441 7032 3781 
4 3017 9512 9984 9511 
4 6091 5504 9875 2925 
4 3107 3105 9467 3104 
4 8503 7796 6726 3642 
4 7333 5142 5141 8171 
4 9121 6242 4508 8252 
4 3468 8877 6645 7660 
4 7155 2964 2966 9356 
4 6616 8929 7712 3427 
4 9978 5476 9405 9914 
4 3129 9892 9456 5602 
4 9743 3713 8370 8109 
4 5106 3661 5105 8397 
4 8165 7321 5153 5154 
4 6094 5507 9989 2930 
4 3112 9463 9464 9930 
4 5054 8448 5055 3559 
4 4777 4778 7814 3596 
4 4777 3435 3598 9816 
4 5451 9947 6038 2818 
4 8412 5090 7200 7201 
4 7269 8143 5206 5205 
4 9913 5497 9977 9384 
4 5474 6061 2865 10002 
4 8286 8287 9009 6355 
4 4479 9534 8180 4473 
4 6733 3614 8489 7806 
4 8477 3590 7815 6739 
4 9897 5590 9961 9468 
4 7192 5099 8404 8403 
4 6989 3976 7977 7976 
4 8444 7233 8445 5058 
4 8085 8694 3990 9251 
4 9340 8785 8087 4082 
4 8278 8996 8280 6369 
4 4479 9534 4475 8101 
4 5057 8445 5058 3565 
4 8798 8184 6585 4469 
4 5285 2885 7196 9396 
4 7629 7631 4685 9769 
4 9902 9437 9995 5444 
4 8597 3199 7472 3200 
4 6587 3534 3536 8799 
4 8146 7277 5197 5198 
4 474 3783 7039 7351 
4 8552 6593 3744 7864 
4 3505 6670 7610 8829 
4 2956 5520 6107 9937 
4 5099 3647 5098 8404 
4 9007 6356 9010 6468 
4 8100 5236 6004 579 
4 8437 5066 5065 3581 
4 8282 9004 8284 6361 
4 7686 8905 3444 6631 
4 9545 9544 8071 3887 
4 5909 8606 489 488 
4 5510 2936 9959 6097 
4 3747 7857 3740 2779 
4 5592 3108 9466 9943 
4 9997 9455 9454 3131 
4 6746 7017 9839 3562 
4 8287 6572 8286 8825 
4 4366 4166 4367 9256 
4 7233 8133 8445 5057 
4 6605 4395 3409 8946 
4 8186 8187 8991 6372 
4 580 7853 401 400 
4 7259 5215 5406 3133 
4 8326 8905 8327 6523 
4 9994 2811 6034 5447 
4 8303 6549 8861 8859 
4 2825 5454 9893 9427 
4 9911 9975 9398 5483 
4 3390 4624 4625 7747 
4 3165 3156 5418 7247 
4 2862 5473 9894 9408 
4 6115 5528 9921 2981 
4 9467 3107 9466 9985 
4 8514 6720 9774 3664 
4 9386 9906 5495 10001 
4 3150 10023 6200 5614 
4 8362 9542 3986 8584 
4 8868 4558 8219 4434 
4 9371 2936 9370 9959 
4 3102 9468 3103 7275 
4 9888 5506 9375 2928 
4 5095 3639 5094 8408 
4 6089 5502 9869 2920 
4 10016 10004 5500 9381 
4 8329 8328 8909 6520 
4 7295 8154 5180 5179 
4 6394 8976 8979 4842 
4 7865 3746 469 3772 
4 3743 7863 3769 446 
4 5193 5194 8148 7281 
4 9895 9416 9981 5465 
4 8277 6583 8276 8805 
4 8285 9008 8287 6357 
4 7179 7178 5112 8390 
4 7853 9533 5426 400 
4 3145 9447 3144 7254 
4 2848 9939 5466 6053 
4 6576 8283 8815 8817 
4 5239 2791 7242 7243 
4 7258 9452 7259 3134 
4 9971 9450 9907 5608 
4 9453 9904 9969 5605 
4 7185 5105 8118 8397 
4 7192 5098 8120 8404 
4 6271 9093 8329 8328 
4 8384 5118 7173 8385 
4 8535 3706 7772 6710 
4 10006 9421 9965 5460 
4 3634 6728 7799 8499 
4 9945 5518 10005 9363 
4 6586 8274 8275 8801 
4 8277 8276 6375 8989 
4 8134 8448 7236 5054 
4 8531 3698 7775 6712 
4 8879 8881 6537 8315 
4 4610 4613 8182 4471 
4 8244 6256 8245 9107 
4 2860 5472 6059 9958 
4 3534 8797 7584 8799 
4 9442 10026 9353 2793 
4 9459 9988 9460 3121 
4 7475 9552 3191 5810 
4 9938 9491 9865 5567 
4 6067 5481 2876 10017 
4 5528 2979 6114 10024 
4 3387 9535 4383 3392 
4 8341 8933 8931 6507 
4 5581 9940 9867 9477 
4 10008 9388 9972 5493 
4 3714 6708 7769 8539 
4 8571 5425 3786 7851 
4 5126 8376 8111 7164 
4 3101 9991 9469 9470 
4 8401 8119 5101 7189 
4 8186 8991 8990 6374 
4 9033 6456 9031 6332 
4 3667 5108 5109 8394 
4 6623 8915 3436 7812 
4 8434 8129 5068 7222 
4 8868 6542 3473 3469 
4 8935 7819 3419 6614 
4 3749 7572 6693 7833 
4 5212 5213 8140 7262 
4 8436 7225 8437 5066 
4 5123 3695 5122 8380 
4 7584 3536 3718 4716 
4 8537 3710 7771 6709 
4 4188 4828 8578 5426 
4 8599 7341 2972 3162 
4 9970 10007 9395 5486 
4 6734 3610 8487 7808 
4 3606 7810 8485 6735 
4 6380 6481 6480 8983 
4 3029 9505 3028 3031 
4 299 7856 2780 3756 
4 3758 405 2782 7858 
4 9946 9459 3122 5599 
4 3694 7777 8529 6713 
4 8533 3702 7774 6711 
4 10002 5474 9894 9407 
4 5368 7297 5178 5177 
4 5192 7283 5191 5382 
4 6092 5505 9952 2926 
4 9868 9941 9510 5548 
4 3445 4659 3449 7683 
4 3193 4179 8104 3793 
4 3194 4180 8103 3794 
4 4683 3665 8394 9771 
4 9944 9498 9871 5560 
4 5595 9463 3112 9930 
4 8475 3586 7817 6740 
4 6387 3733 4189 7371 
4 3734 6388 7373 4190 
4 2846 9981 5465 6052 
4 9449 3143 9448 10003 
4 8883 6775 8316 6535 
4 8791 8793 4472 3540 
4 8501 7798 6727 3638 
4 5207 5208 8142 7267 
4 4295 4294 4094 9328 
4 9239 4203 4204 4002 
4 8527 3690 7779 6714 
4 8990 6478 8987 6376 
4 3630 6729 7800 8497 
4 7854 8574 8576 5428 
4 7852 8575 5427 8573 
4 8122 8415 7203 5087 
4 4286 9336 4287 3299 
4 4196 4195 9247 3205 
4 5129 8373 7162 7161 
4 8837 6564 8835 8291 
4 6793 8811 6578 8280 
4 4291 4091 4292 9331 
4 4201 9242 4200 3999 
4 4652 7693 6625 6624 
4 5519 9872 6106 2954 
4 8312 6540 8875 6777 
4 8284 6574 8819 6791 
4 6764 8338 8927 6509 
4 8891 6773 8320 6530 
4 9900 9419 9990 5462 
4 8272 6589 6797 4611 
4 8868 8870 6542 3469 
4 8275 6586 8799 6796 
4 8908 6627 7809 7695 
4 574 573 394 5824 
4 2845 9895 5464 6051 
4 9431 9987 9899 5450 
4 491 310 490 5915 
4 6354 8196 9010 9011 
4 5185 5186 8151 7289 
4 8309 8307 9054 6311 
4 5533 9919 9525 2988 
4 9337 3298 4286 4285 
4 4195 9248 3204 4194 
4 5455 10000 9426 9893 
4 6082 5495 10001 2906 
4 9434 9994 9901 5447 
4 8830 8828 3503 6566 
4 483 6799 7151 7854 
4 7852 581 7149 6798 
4 7584 7580 4716 9740 
4 9999 5488 2893 6075 
4 4293 4292 4092 9330 
4 9241 4201 4202 4000 
4 8481 3600 5200 5199 
4 8579 5422 8549 6700 
4 573 572 393 5825 
4 3146 9446 7252 7253 
4 2922 5503 6090 9929 
4 492 311 491 5916 
4 5583 9925 9475 3088 
4 6212 8267 4484 9152 
4 8887 6534 8317 8318 
4 6238 9125 8254 8253 
4 3060 9489 9922 5569 
4 5479 9402 10021 10020 
4 6534 8887 3462 3459 
4 572 571 392 5826 
4 312 492 493 5917 
4 571 570 391 5827 
4 494 313 493 5918 
4 570 390 5828 569 
4 5829 388 568 569 
4 495 314 494 5919 
4 495 496 316 5920 
4 387 5830 568 567 
4 386 5831 567 566 
4 565 5832 385 566 
4 5833 565 384 564 
4 564 5834 563 383 
4 5840 558 377 557 
4 525 5872 345 526 
4 524 5874 523 343 
4 522 5876 521 341 
4 528 347 5870 527 
4 523 5875 522 342 
4 521 5877 520 340 
4 528 5869 348 529 
4 515 516 5882 335 
4 519 520 5878 339 
4 517 518 5880 337 
4 533 532 352 5865 
4 514 515 5883 334 
4 5873 344 524 525 
4 5879 518 519 338 
4 5871 346 526 527 
4 344 5949 524 525 
4 5868 349 529 530 
4 5945 521 520 340 
4 5867 350 530 531 
4 5942 518 517 337 
4 5881 516 517 336 
4 5866 531 532 352 
4 348 528 529 5953 
4 349 529 530 5954 
4 346 526 527 5951 
4 350 530 531 5955 
4 345 525 526 5950 
4 509 510 5888 329 
4 511 331 512 5886 
4 508 509 5889 328 
4 510 511 5887 330 
4 506 326 507 5891 
4 532 5957 533 352 
4 558 5982 377 557 
4 516 517 336 5941 
4 518 519 338 5943 
4 515 516 335 5940 
4 528 347 527 5952 
4 519 520 339 5944 
4 523 524 343 5948 
4 521 522 341 5946 
4 522 523 342 5947 
4 531 5956 532 352 
4 326 506 507 5931 
4 5884 513 514 333 
4 508 5932 327 507 
4 5890 508 327 507 
4 5885 512 513 332 
4 331 511 512 5936 
4 514 515 334 5939 
4 5851 366 546 547 
4 542 362 543 5855 
4 539 359 540 5858 
4 543 363 544 5854 
4 538 358 539 5859 
4 537 536 356 5861 
4 535 534 354 5863 
4 534 533 353 5864 
4 537 357 538 5860 
4 376 5841 557 556 
4 365 5852 546 545 
4 362 5967 542 543 
4 359 5964 539 540 
4 363 5968 543 544 
4 360 541 540 5857 
4 361 542 541 5856 
4 355 536 535 5862 
4 5960 355 536 535 
4 508 509 328 5933 
4 509 510 329 5934 
4 512 513 332 5937 
4 510 511 330 5935 
4 513 514 333 5938 
4 5853 545 364 544 
4 5966 361 542 541 
4 5965 360 541 540 
4 5958 534 533 353 
4 5963 538 358 539 
4 537 357 5962 538 
4 5970 365 546 545 
4 545 5969 364 544 
4 5981 376 557 556 
4 5961 537 536 356 
4 5959 535 534 354 
4 5839 558 559 378 
4 366 5971 546 547 
4 5847 370 550 551 
4 5846 371 551 552 
4 375 5842 556 555 
4 5850 367 547 548 
4 5844 373 553 554 
4 369 5848 550 549 
4 5843 374 554 555 
4 372 5845 553 552 
4 368 5849 549 548 
4 367 5972 547 548 
4 374 5979 554 555 
4 373 5978 553 554 
4 371 5976 551 552 
4 370 5975 550 551 
4 5980 375 556 555 
4 5974 369 550 549 
4 5977 372 553 552 
4 5973 368 549 548 
4 506 325 505 5930 
4 558 5983 559 378 
4 325 506 505 5892 
4 560 5838 559 379 
4 5984 560 559 379 
4 505 324 504 5929 
4 380 561 560 5837 
4 324 505 504 5893 
4 561 380 560 5985 
4 561 381 562 5836 
4 323 503 504 5928 
4 5835 562 563 382 
4 503 323 504 5894 
4 381 561 562 5986 
4 5927 322 503 502 
4 322 503 502 5895 
4 562 5987 563 382 
4 502 321 501 5926 
4 321 502 501 5896 
4 5988 564 563 383 
4 500 501 320 5925 
4 501 500 320 5897 
4 565 5989 384 564 
4 499 500 319 5924 
4 500 499 319 5898 
4 499 318 498 5923 
4 5990 565 385 566 
4 318 499 498 5899 
4 497 498 317 5922 
4 5991 386 567 566 
4 496 497 316 5921 
4 498 497 317 5900 
4 5992 387 568 567 
4 497 496 316 5901 
4 388 5993 568 569 
4 496 495 316 5902 
4 5994 390 570 569 
4 5903 495 314 494 
4 9435 5246 7235 2806 
4 570 5995 571 391 
4 313 5904 494 493 
4 5573 9934 9485 3068 
4 5488 9393 9905 9999 
4 5996 572 571 392 
4 5905 312 492 493 
4 8343 8941 8939 6502 
4 6235 9130 8345 8347 
4 9452 9451 9998 3136 
4 572 5997 573 393 
4 311 5906 492 491 
4 4167 5026 4368 9255 
4 9073 6436 6290 6435 
4 6342 9021 6461 9024 
4 9168 4274 4275 4073 
4 8550 5421 6699 8580 
4 4662 7801 3451 7677 
4 2816 9987 5450 6037 
4 3473 7655 3469 4673 
4 9495 3048 3050 3049 
4 3705 3707 9748 8374 
4 4632 7737 3406 3400 
4 8378 3699 3697 9753 
4 9990 2840 6049 5462 
4 5210 5209 8471 3580 
4 8155 5178 5177 3644 
4 5191 5192 3616 8149 
4 7678 8891 3457 7802 
4 8897 8895 8321 6528 
4 8399 3657 3655 9779 
4 3591 3589 8432 9821 
4 3791 4839 4173 7346 
4 7347 3792 4174 4840 
4 7656 3472 8869 8871 
4 8963 7829 3396 6599 
4 3746 7865 8549 3772 
4 7863 8550 3743 3769 
4 8406 9788 3643 3641 
4 5537 2996 9917 9521 
4 9124 9125 6240 8253 
4 9932 5543 3008 9515 
4 5084 8418 5085 3619 
4 9440 9996 9903 5441 
4 9167 4275 4276 4074 
4 7620 3499 8837 8839 
4 8263 8262 6220 9143 
4 5998 574 573 394 
4 4544 8228 9073 6290 
4 8418 8417 7206 5085 
4 5514 10009 9973 9367 
4 3044 3045 3046 9497 
4 6353 9013 2747 7060 
4 310 5907 491 490 
4 8150 5189 7285 7286 
4 6569 8289 8827 8829 
4 575 574 395 5823 
4 4273 4274 9169 4072 
4 9161 4079 4939 8603 
4 4274 3284 9168 4275 
4 3020 9509 3021 3022 
4 3524 7600 3519 8815 
4 7475 6985 3384 3383 
4 3296 4284 9339 4283 
4 3202 9250 4192 4193 
4 9025 8203 8204 6338 
4 6790 6572 8287 8823 
4 7608 3511 3517 8823 
4 6368 8995 8189 4602 
4 3475 7649 4676 7792 
4 5030 4846 8084 8604 
4 8693 576 8694 5821 
4 5297 2908 7184 9384 
4 3405 8951 7825 6604 
4 9951 3116 9461 5597 
4 8410 7198 7199 5092 
4 6346 9017 9020 8200 
4 3004 5541 9517 9928 
4 3000 9923 5539 9519 
4 6812 7470 9640 9641 
4 9729 7563 6813 9728 
4 3514 3520 7597 4700 
4 9506 9935 3027 5552 
4 5455 10000 6042 2826 
4 309 489 490 5914 
4 3518 7599 4701 7773 
4 438 279 3173 7353 
4 7337 5328 2977 5238 
4 3681 4691 7782 8386 
4 4483 8269 4384 4383 
4 7302 8157 5173 5172 
4 9067 6296 8225 9069 
4 5164 5165 8160 7310 
4 8383 5119 8113 7171 
4 6294 8226 9069 9071 
4 4163 9259 4364 4363 
4 8445 9836 4632 3563 
4 9956 3127 9456 5602 
4 7342 6203 8071 7885 
4 3118 5208 5398 7266 
4 6021 9849 8071 3888 
4 5095 7196 8407 8408 
4 6322 8211 9041 8212 
4 9063 6300 8222 8223 
4 9334 4288 4289 4088 
4 3996 4198 4197 9245 
4 9960 2842 6050 5463 
4 9466 3108 9465 9943 
4 3379 4366 4367 9256 
4 3468 3465 8879 7664 
4 3421 7716 8931 3427 
4 9465 5593 9870 9943 
4 5477 6064 2870 10019 
4 3304 4291 4292 9331 
4 9242 4201 4200 3210 
4 8919 8333 8921 6514 
4 8921 6512 8923 3432 
4 9430 9947 5451 2818 
4 9336 4286 4287 4086 
4 4195 3994 4196 9247 
4 425 7355 3175 477 
4 4294 4293 4093 9329 
4 4203 9240 4202 4001 
4 3727 7760 4803 9736 
4 4293 4292 9330 3305 
4 4201 9241 4202 3211 
4 4223 9220 4222 4021 
4 4315 4115 4316 9307 
4 8285 6573 8287 8823 
4 6745 8465 7825 3566 
4 4365 4164 9258 4364 
4 8957 8955 8351 6493 
4 8147 8486 3608 5195 
4 3307 4294 4295 9328 
4 4203 9239 4204 3213 
4 7355 3175 477 7144 
4 4420 8896 8233 4537 
4 9370 2939 9908 5511 
4 8266 8265 6214 9149 
4 488 8785 8784 5912 
4 8376 5127 8375 7164 
4 8433 8434 5069 7222 
4 7260 5215 3133 5405 
4 5102 8401 7189 8400 
4 9152 6214 6397 9149 
4 10014 9911 9397 5484 
4 4225 4024 4226 9217 
4 9304 4118 4318 4319 
4 4270 4069 4271 9172 
4 9262 4160 4360 4361 
4 4228 4027 4229 9214 
4 4121 4322 4321 9301 
4 4030 4232 4231 9211 
4 4124 4325 4324 9298 
4 9295 4327 4328 4127 
4 4033 4235 4234 9208 
4 4331 4130 9292 4330 
4 9205 4036 4237 4238 
4 4340 4139 9283 4339 
4 4337 9286 4336 4136 
4 9289 4333 4334 4133 
4 9202 4240 4241 4039 
4 9196 4247 4045 4246 
4 4048 4250 4249 9193 
4 4142 4343 4342 9280 
4 9271 4151 4351 4352 
4 4042 9199 4244 4243 
4 4252 4051 4253 9190 
4 4054 4256 4255 9187 
4 4057 4259 4258 9184 
4 4148 4349 4348 9274 
4 4345 4145 4346 9277 
4 4261 4060 4262 9181 
4 4355 9268 4354 4154 
4 9178 4063 4264 4265 
4 4358 9265 4357 4157 
4 4268 4267 4066 9175 
4 3046 9496 9931 5562 
4 3377 4365 9258 4364 
4 5575 9954 9483 3073 
4 7471 6812 5631 9641 
4 8965 8356 8358 6488 
4 7249 8136 8456 5225 
4 3050 9494 9949 5564 
4 3013 5545 9513 9950 
4 3537 8793 7763 7762 
4 9729 5720 6813 7564 
4 9881 9946 9458 5600 
4 8455 7249 8456 5226 
4 5445 6032 2807 9966 
4 6769 8329 8326 6522 
4 9946 9459 9458 3122 
4 8304 6552 8857 8302 
4 8695 8085 3989 8086 
4 8878 7661 6641 6642 
4 8786 8088 8087 4081 
4 5419 2788 8563 9345 
4 5393 7272 3109 5203 
4 9333 4290 4089 4289 
4 3997 4199 4198 9244 
4 9405 5276 7205 2867 
4 4935 4075 9166 4277 
4 2725 6309 9057 7082 
4 9340 9339 4083 4283 
4 9250 3991 9251 4192 
4 7663 6642 4669 4668 
4 3111 3108 9465 3109 
4 7181 5109 8393 8392 
4 6627 4654 7809 4653 
4 9222 4220 4221 4019 
4 4113 9309 4314 4313 
4 6580 8809 8279 8807 
4 8352 8953 8350 6495 
4 8897 8899 7684 3448 
4 8459 7829 6748 3554 
4 8136 5224 7027 5225 
4 9948 2933 6095 5508 
4 8551 8591 5034 6594 
4 9333 4290 4289 3302 
4 4199 4198 9244 3208 
4 9111 9110 6254 6417 
4 3716 5141 8171 8540 
4 9447 9915 9979 5611 
4 7196 5094 8121 8408 
4 8970 8360 4185 7753 
4 8331 8913 8911 6518 
4 9432 5249 7232 2813 
4 3147 3145 9447 3144 
4 8169 8536 3708 5145 
4 9508 9927 3022 5550 
4 2721 6301 9065 7086 
4 3636 8500 5181 8153 
4 9901 2808 6033 5446 
4 8273 6587 8275 8799 
4 9411 9861 5470 9936 
4 6567 8292 4585 6788 
4 7182 5108 8117 8394 
4 8197 8196 6352 9011 
4 4288 9334 4289 3301 
4 4198 3207 4197 9245 
4 7172 5309 2932 9372 
4 9415 2848 9939 5466 
4 3102 5589 9961 9469 
4 7296 5368 7297 5178 
4 3572 7823 4790 4789 
4 8335 9106 6259 8333 
4 7283 5192 7282 5382 
4 9538 3159 5419 2789 
4 3712 5143 8170 8538 
4 5530 9857 9920 9528 
4 8154 8502 3640 5179 
4 6083 5496 9977 2909 
4 3612 5193 8148 8488 
4 8409 5093 7198 5092 
4 3290 5233 9161 4080 
4 5443 2802 9902 6030 
4 9337 4286 4085 4285 
4 4195 3993 9248 4194 
4 8862 4437 3480 3475 
4 3632 5183 8152 8498 
4 2825 5454 6041 9893 
4 7146 438 3173 7353 
4 5606 9452 9904 9998 
4 2859 9410 9880 9409 
4 4642 4641 7717 3418 
4 8460 6747 3556 5221 
4 5112 3673 5111 8390 
4 8165 8528 3692 5153 
4 6664 8834 7621 7782 
4 8870 7653 6646 3469 
4 9410 9411 2856 9936 
4 2854 2853 9412 7211 
4 9142 6223 8353 8351 
4 6563 6786 4581 8294 
4 3560 7827 4796 4795 
4 7641 6653 4680 4679 
4 574 5999 575 395 
4 580 9533 400 579 
4 8415 8414 7203 5088 
4 9449 9907 5609 10003 
4 3451 8890 3456 4423 
4 9909 5515 9973 9366 
4 5210 6742 8471 8141 
4 4291 4290 4090 9332 
4 9243 4199 4200 3998 
4 7179 5112 5111 8390 
4 7672 8887 3459 7800 
4 3281 4271 4272 9171 
4 8431 7220 5071 7219 
4 7186 5104 7187 8398 
4 9261 3374 4362 4361 
4 6677 8806 6676 7589 
4 3278 4268 4269 9174 
4 4358 3371 9264 4359 
4 4236 4235 9207 3245 
4 9294 4329 4328 3341 
4 4350 4349 9273 3362 
4 4341 4340 9282 3353 
4 4247 3257 9195 4248 
4 3251 9201 4241 4242 
4 3254 9198 4244 4245 
4 3248 9204 4238 4239 
4 4331 9291 4332 3344 
4 4337 9285 4338 3350 
4 4260 3269 4259 9183 
4 4251 3260 4250 9192 
4 4254 3263 4253 9189 
4 4257 3266 4256 9186 
4 9288 4335 4334 3347 
4 4344 4343 9279 3356 
4 4347 4346 9276 3359 
4 3365 9270 4352 4353 
4 3272 4262 4263 9180 
4 4233 4232 9210 3242 
4 9297 4325 3338 4326 
4 3368 9267 4355 4356 
4 4266 3275 4265 9177 
4 4230 4229 9213 3239 
4 3335 4322 4323 9300 
4 4227 4226 9216 3236 
4 4320 3332 4319 9303 
4 5097 7193 8405 7194 
4 3512 7607 7605 4697 
4 5290 9391 2895 7191 
4 6762 4506 8344 6504 
4 3987 4847 3989 8086 
4 3329 4316 4317 9306 
4 9219 4224 4223 3233 
4 8088 4081 4848 3988 
4 3285 9167 4275 4276 
4 9453 3135 3132 3133 
4 8483 3602 7812 6736 
4 6342 9021 8202 4583 
4 2979 9354 10024 9530 
4 8957 8959 3403 6492 
4 4273 4274 3283 9169 
4 5215 3568 6744 8466 
4 6741 8473 7819 3582 
4 9504 5554 9955 3031 
4 5908 309 489 490 
4 3720 8541 9740 8172 
4 8437 7818 4640 7721 
4 8168 8534 3704 5147 
4 8945 8947 3411 6498 
4 2854 9411 9412 9861 
4 5607 9451 9971 3139 
4 8166 8530 3696 5151 
4 8146 8484 3604 5197 
4 8280 8281 4601 6367 
4 7591 6677 4705 4704 
4 2959 5521 9884 9360 
4 5384 7281 3090 7280 
4 5585 3093 9933 9473 
4 3592 8478 6738 5203 
4 6088 5501 9942 2919 
4 3445 3449 6525 8896 
4 8411 7199 7200 5091 
4 2815 9899 5449 6036 
4 9157 4480 9343 5038 
4 8322 8893 8320 6530 
4 5252 7229 9429 2819 
4 3382 7477 9254 9253 
4 5216 7258 5406 3134 
4 2965 5524 10025 9357 
4 8167 8532 3700 5149 
4 8143 8476 3588 5205 
4 8995 6368 8997 6474 
4 6272 9091 6426 9094 
4 9501 3036 3038 3037 
4 9414 5267 7214 2849 
4 3744 285 7864 3763 
4 3745 419 7866 3765 
4 7272 7271 3109 5203 
4 5587 3097 9953 9471 
4 9335 4288 4287 3300 
4 4197 4196 9246 3206 
4 7384 3288 9164 9165 
4 2935 7170 7171 9371 
4 3497 4688 4689 7784 
4 9259 3376 4364 4363 
4 8332 8334 8917 6516 
4 9045 6450 9044 6320 
4 8377 5125 7165 7166 
4 4224 4022 9219 4223 
4 4316 4116 4317 9306 
4 7764 4710 3721 7766 
4 9518 9859 5540 9928 
4 8856 7639 6651 6653 
4 9923 5538 9853 9520 
4 5542 9932 9516 9860 
4 4296 4096 4297 9326 
4 4206 9237 4205 4004 
4 8230 8229 6286 9077 
4 5456 9976 6043 2828 
4 4365 4165 4366 9257 
4 7294 7295 5370 3062 
4 4271 4070 4272 9171 
4 4227 4226 4025 9216 
4 4119 4320 4319 9303 
4 4161 9261 4362 4361 
4 4229 4028 4230 9213 
4 4322 4122 4323 9300 
4 4232 4031 4233 9210 
4 4325 9297 4125 4326 
4 4329 9294 4328 4128 
4 4034 4236 4235 9207 
4 4340 4140 4341 9282 
4 4349 4149 4350 9273 
4 9204 4238 4239 4037 
4 9198 4043 4244 4245 
4 9201 4241 4242 4040 
4 9291 4131 4331 4332 
4 4049 4251 4250 9192 
4 4058 4260 4259 9183 
4 4052 4254 4253 9189 
4 4055 4257 4256 9186 
4 4247 9195 4046 4248 
4 9285 4137 4337 4338 
4 4335 9288 4334 4134 
4 4343 4143 4344 9279 
4 4346 4146 4347 9276 
4 9270 4352 4353 4152 
4 4262 4061 4263 9180 
4 9267 4355 4356 4155 
4 4064 4266 4265 9177 
4 4358 9264 4158 4359 
4 4268 4067 4269 9174 
4 9454 9969 5604 3132 
4 8414 8413 7202 5088 
4 6044 5457 9912 2831 
4 3715 4708 7768 8369 
4 4295 4095 4296 9327 
4 9238 4204 4205 4003 
4 5489 9974 6076 2894 
4 5334 7331 2990 7330 
4 9997 9454 5604 3131 
4 8583 9341 4381 4845 
4 6063 2869 5476 9914 
4 9047 6318 6449 9045 
4 4658 8419 7805 3615 
4 8797 3534 6587 8799 
4 6262 8242 8241 9101 
4 6060 2862 5473 9894 
4 6458 6336 9028 9029 
4 4291 4290 9332 3303 
4 4199 9243 4200 3209 
4 9347 3166 3157 7344 
4 6683 8794 4471 4470 
4 2993 9918 5535 9523 
4 3065 9487 9926 5571 
4 8312 8313 4553 6303 
4 8338 6251 8339 4514 
4 9961 3102 9469 9468 
4 3331 9304 4318 4319 
4 4226 4225 9217 3235 
4 3280 4270 4271 9172 
4 3373 9262 4360 4361 
4 4806 8079 7758 9734 
4 4229 4228 9214 3238 
4 4322 3334 4321 9301 
4 4232 4231 9211 3241 
4 4325 3337 4324 9298 
4 4235 3244 4234 9208 
4 4327 9295 4328 3340 
4 9292 4331 4330 3343 
4 3247 9205 4237 4238 
4 9283 4340 4339 3352 
4 4250 3259 4249 9193 
4 9199 3253 4244 4243 
4 3262 4252 4253 9190 
4 3250 9202 4240 4241 
4 3256 4247 9196 4246 
4 9286 4337 4336 3349 
4 9271 4351 3364 4352 
4 4333 9289 4334 3346 
4 4259 3268 4258 9184 
4 4256 3265 4255 9187 
4 4343 3355 4342 9280 
4 4346 4345 9277 3358 
4 4349 3361 4348 9274 
4 3271 4261 4262 9181 
4 9268 3367 4355 4354 
4 3274 9178 4264 4265 
4 3370 4358 9265 4357 
4 4268 3277 4267 9175 
4 9444 10027 10023 5614 
4 9921 9530 9529 2981 
4 6541 8310 8312 6777 
4 4288 9335 4287 4087 
4 4196 3995 4197 9246 
4 9897 5591 9467 9985 
4 3679 3681 4690 9763 
4 8995 8994 6370 6475 
4 9220 4223 4222 3232 
4 3328 4315 4316 9307 
4 10011 5516 9909 9365 
4 6547 8306 8863 8865 
4 4667 6639 3461 7665 
4 4431 8874 3467 6644 
4 9988 9887 9460 5598 
4 9772 9774 4743 7634 
4 6559 8843 8845 8295 
4 4577 6558 6784 8297 
4 9919 5532 9856 9526 
4 5577 9992 9481 3077 
4 9369 10015 9908 5512 
4 6226 9137 8260 8259 
4 6072 10007 2887 5485 
4 5134 8368 8108 7156 
4 9344 7137 7131 2674 
4 9505 9955 9879 5553 
4 8332 8915 6767 6516 
4 8555 4621 8545 5433 
4 7320 7321 5344 3010 
4 4294 4293 9329 3306 
4 9240 3212 4203 4202 
4 9522 5536 9917 9854 
4 8191 8190 6364 8999 
4 2812 6035 9964 5448 
4 5572 9863 9934 9486 
4 6062 2866 5475 9978 
4 4672 3645 4673 9784 
4 8514 5167 6720 3664 
4 8935 6762 8342 6504 
4 3070 5374 7291 7290 
4 9873 9495 9949 5563 
4 6577 3524 3519 8815 
4 7693 6625 6624 8910 
4 4098 4299 4298 9324 
4 9235 4207 4208 4006 
4 3584 5207 8142 8474 
4 5589 3101 9991 9469 
4 7174 2927 5306 5116 
4 6093 5506 9888 2928 
4 3511 6573 3517 8823 
4 8073 3979 9549 9552 
4 5109 7182 8393 8394 
4 9237 4206 4205 3215 
4 4297 4296 9326 3309 
4 2852 9412 9413 9924 
4 7157 2962 9357 9358 
4 4100 4301 4300 9322 
4 9233 4209 4210 4008 
4 3622 7029 6731 9802 
4 9823 8434 3585 4643 
4 4010 9231 4212 4211 
4 4303 9320 4302 4102 
4 4305 9318 4304 4104 
4 9875 9377 9376 2925 
4 3465 3468 8879 6539 
4 3421 8931 6508 3427 
4 3107 5592 9466 9985 
4 3691 5120 5121 8381 
4 3992 8692 9249 9250 
4 9338 8783 9339 4084 
4 9543 8585 7138 5429 
4 3034 9502 9993 5556 
4 5477 9404 9914 10019 
4 5490 9910 6077 2897 
4 5580 9982 9478 3082 
4 9229 4213 4214 4012 
4 9316 4306 4307 4106 
4 7824 4632 7737 3406 
4 4385 6595 8790 6753 
4 2852 9412 9924 5469 
4 9459 9988 3121 5599 
4 8174 4186 8077 5816 
4 4483 9156 8359 8269 
4 3518 4462 8812 3523 
4 6308 9055 8219 8218 
4 6544 8309 8311 6778 
4 8885 8887 7670 3462 
4 8589 7757 4622 3389 
4 9983 3054 9492 5566 
4 8249 9115 8248 6248 
4 3784 7036 3754 7350 
4 5817 8097 8081 7883 
4 8082 8098 7884 5818 
4 7035 7348 3752 3782 
4 3099 9889 9470 9471 
4 8481 8145 5200 6737 
4 2798 9996 5441 6028 
4 3149 10022 9445 9446 
4 3677 5113 5114 8388 
4 8987 6376 4608 8185 
4 9900 2839 6048 5461 
4 9067 6296 4548 8225 
4 8963 6755 8356 6488 
4 2979 9354 3164 5618 
4 5453 9882 9957 9428 
4 3520 8814 7597 7599 
4 3152 5415 7249 5225 
4 4207 9235 4208 3217 
4 4299 4298 9324 3311 
4 4296 4295 9327 3308 
4 4204 9238 4205 3214 
4 2835 6046 10006 5459 
4 5185 3628 8496 8151 
4 8141 5211 7263 7264 
4 5588 9889 9991 9470 
4 2934 6096 9883 5509 
4 4301 4300 9322 3313 
4 4209 9233 4210 3219 
4 6328 9035 8209 8208 
4 9231 4212 4211 3221 
4 3315 4303 9320 4302 
4 9318 3317 4305 4304 
4 9451 5607 9998 3136 
4 2859 9410 7209 2857 
4 6544 8311 8871 6778 
4 4213 9229 4214 3223 
4 3319 9316 4306 4307 
4 3075 5186 5376 7288 
4 6545 8307 8867 8869 
4 3378 4365 4366 9257 
4 4753 9785 9787 7654 
4 9958 5472 9880 9409 
4 4185 8078 8175 5815 
4 3054 3053 9493 3052 
4 7248 9349 5418 7247 
4 8438 3577 5064 5063 
4 7360 7375 4179 8068 
4 3230 9222 4220 4221 
4 9309 3326 4314 4313 
4 8409 5093 5092 3635 
4 2860 9958 9408 9409 
4 9418 2842 9960 5463 
4 4216 9227 4215 4014 
4 4308 9314 4108 4309 
4 7374 4180 7359 8067 
4 5531 9920 9527 2985 
4 8329 8907 6769 6520 
4 8903 6770 8327 6523 
4 9225 4217 4218 4016 
4 9312 4110 4310 4311 
4 9957 9428 9427 2822 
4 8277 6583 8803 6795 
4 7387 6886 3285 3284 
4 9227 4216 4215 3225 
4 4308 3321 9314 4309 
4 8380 5123 8379 7168 
4 4217 9225 4218 3227 
4 3323 9312 4310 4311 
4 4371 4171 9162 9252 
4 9905 5487 2890 6074 
4 4661 9799 3623 4662 
4 3760 7141 7846 2770 
4 2772 7143 3762 7848 
4 5528 2979 9530 2981 
4 7322 7323 5342 3006 
4 3711 5130 5131 8371 
4 3651 4676 4675 9781 
4 10002 2865 9407 9406 
4 9730 6984 7382 7383 
4 8107 5227 8365 9736 
4 6411 6412 9121 6242 
4 8903 8324 8327 6524 
4 9455 9997 9892 5603 
4 6552 6782 8855 8302 
4 8290 6567 8831 6788 
4 3002 5340 7325 7324 
4 5434 8556 8546 4622 
4 4509 9118 6246 8250 
4 2884 10014 5484 6071 
4 2960 2959 5522 9359 
4 9454 9453 9969 3132 
4 8423 3607 5079 5078 
4 7159 2957 2959 9360 
4 6556 8847 8849 8298 
4 7260 5215 7259 3133 
4 3053 3051 3050 9494 
4 9003 9002 6362 6471 
4 3144 7254 7253 5221 
4 5458 2832 10012 6045 
4 8951 6758 8350 6495 
4 3096 7278 7277 5197 
4 3688 8164 8525 9759 
4 7682 4767 9805 9804 
4 6562 8839 8841 8293 
4 9080 6284 9081 6432 
4 5338 2998 7326 7327 
4 7658 3470 7654 8873 
4 9374 9989 2930 9373 
4 9952 9376 9375 2926 
4 9113 9111 6252 6416 
4 7268 7269 5396 3114 
4 2923 7176 9377 2925 
4 9390 10013 9910 5491 
4 9031 9029 8206 6334 
4 5491 10013 6078 2898 
4 8794 6683 3533 7764 
4 8336 8338 8927 6510 
4 9554 9555 5718 7384 
4 8310 6541 8312 8875 
4 3298 3299 6981 7560 
4 6980 3204 3205 7467 
4 9496 3047 3049 3046 
4 9451 9450 9971 3139 
4 8271 6592 4480 4478 
4 9413 9924 9866 5468 
4 7279 3092 7280 5195 
4 3302 3303 6973 7556 
4 3209 3208 7463 6972 
4 5328 5329 7336 2978 
4 4479 8590 8180 8101 
4 3189 9544 7381 7380 
4 6314 9049 8216 8215 
4 3034 9503 3032 3033 
4 9865 9490 9922 5568 
4 5582 9867 9925 9476 
4 9935 9864 9507 5551 
4 2836 9965 5460 6047 
4 9437 2804 9436 9995 
4 7329 2992 7330 5145 
4 9912 5458 9423 10012 
4 2927 7174 9375 2928 
4 9918 5534 9855 9524 
4 2762 2763 6383 7044 
4 4393 3406 3404 8950 
4 7207 2862 9408 2861 
4 7381 3189 5233 3290 
4 9858 9488 9926 5570 
4 6104 5517 10005 2951 
4 9862 5584 9474 9933 
4 4222 9221 4221 4020 
4 4315 4114 9308 4314 
4 3327 4315 9308 4314 
4 9221 4222 4221 3231 
4 9448 3145 9447 9979 
4 9833 9835 4791 7730 
4 3496 6558 8845 8847 
4 3304 3305 6967 7554 
4 3211 3210 7461 6966 
4 6575 8282 8284 6791 
4 9427 2825 2823 7226 
4 7294 7293 3064 5181 
4 8794 4610 8182 4471 
4 3985 8363 9543 8585 
4 7169 2937 2939 9370 
4 9162 5030 8084 8604 
4 9460 9887 9461 3119 
4 9872 5520 9361 9937 
4 8883 8314 8316 6536 
4 3521 7602 3515 8819 
4 3463 8883 7666 3460 
4 4273 9170 3282 4272 
4 7470 3202 6812 6814 
4 6815 3296 7563 6813 
4 3520 3518 7599 4701 
4 9514 5544 9950 9874 
4 5492 10008 6079 2901 
4 6103 5516 10011 2948 
4 6439 9067 6298 9066 
4 3299 3300 6979 7559 
4 3206 3205 7466 6978 
4 5574 9484 9878 9954 
4 5077 8126 8425 7213 
4 9927 5549 9868 9509 
4 3307 6963 3306 7552 
4 3213 3212 7459 6962 
4 9260 3375 4363 4362 
4 9497 9931 9871 5561 
4 9906 6081 5494 2904 
4 6809 5046 8106 9350 
4 8811 3522 7594 3525 
4 7390 3281 6883 3282 
4 5498 9913 10018 9383 
4 7529 6908 3330 3329 
4 7438 3234 3233 6835 
4 3375 7484 6953 3374 
4 7393 6880 3279 3278 
4 6950 7487 3371 3372 
4 3239 7432 3240 6841 
4 6914 7523 3335 3336 
4 7429 6844 3243 3242 
4 6917 7520 3338 3339 
4 6877 3276 7396 3275 
4 6947 7490 3368 3369 
4 6847 3246 7426 3245 
4 3341 3342 6920 7517 
4 6874 7399 3272 3273 
4 7493 6944 3366 3365 
4 3362 3363 6941 7496 
4 3359 3360 6938 7499 
4 3356 3357 6935 7502 
4 3257 6859 7414 3258 
4 6865 7408 3263 3264 
4 3269 6871 7402 3270 
4 6862 7411 3260 3261 
4 3255 6856 3254 7417 
4 6868 7405 3266 3267 
4 3252 6853 3251 7420 
4 3249 6850 3248 7423 
4 3344 3345 6923 7514 
4 3350 3351 6929 7508 
4 3347 3348 6926 7511 
4 3353 3354 6932 7505 
4 3236 7435 3237 6838 
4 7526 3332 6911 3333 
4 9218 4225 4224 3234 
4 4318 3330 4317 9305 
4 9967 6029 5442 2800 
4 4270 3279 4269 9173 
4 3372 9263 4359 4360 
4 3333 4320 4321 9302 
4 4227 9215 4228 3237 
4 4231 4230 9212 3240 
4 4324 3336 4323 9299 
4 4234 4233 9209 3243 
4 4327 3339 4326 9296 
4 9293 3342 4330 4329 
4 9206 3246 4237 4236 
4 4345 4344 9278 3357 
4 4348 4347 9275 3360 
4 4335 3348 9287 4336 
4 4332 9290 4333 3345 
4 4338 9284 4339 3351 
4 3264 4254 4255 9188 
4 3258 4249 9194 4248 
4 3252 9200 4242 4243 
4 3261 4251 4252 9191 
4 3267 4257 4258 9185 
4 9203 3249 4240 4239 
4 9197 3255 4246 4245 
4 4342 4341 9281 3354 
4 4260 3270 9182 4261 
4 4351 4350 9272 3363 
4 9269 3366 4354 4353 
4 4264 3273 4263 9179 
4 3369 9266 4356 4357 
4 4267 3276 4266 9176 
4 7228 8440 8131 5062 
4 5478 6065 2873 10021 
4 6956 7481 3377 3378 
4 9448 3145 9979 5610 
4 3307 3308 6960 7551 
4 3214 3213 7458 6958 
4 7758 6801 3198 3730 
4 6800 7759 3729 3197 
4 2939 9908 5511 6098 
4 7471 3200 5629 5631 
4 5720 5630 3294 7564 
4 9952 5505 9875 9376 
4 9730 7886 7885 3886 
4 8193 8194 9005 4593 
4 6350 9015 9014 6465 
4 4649 9815 7699 7703 
4 9434 2811 9433 9994 
4 9841 9843 4797 7742 
4 3305 3306 6965 7553 
4 3212 3211 7460 6964 
4 3675 4687 3673 9765 
4 9170 4273 4071 4272 
4 3304 6971 3303 7555 
4 3210 3209 7462 6970 
4 8590 6014 5040 4479 
4 6113 9352 7886 7885 
4 7234 8446 8133 5056 
4 2793 9442 2794 2792 
4 4162 9260 4363 4362 
4 9976 5456 9425 2828 
4 9059 6304 4554 8221 
4 3026 9506 3027 3028 
4 8235 9087 4533 6276 
4 5473 2860 9958 9408 
4 4225 9218 4224 4023 
4 4117 4318 4317 9305 
4 4779 7706 9818 9820 
4 5521 2956 9937 9360 
4 4068 4270 4269 9173 
4 9263 4159 4359 4360 
4 9215 4227 4228 4026 
4 4320 4120 4321 9302 
4 4230 4029 4231 9212 
4 4123 4324 4323 9299 
4 4032 4234 4233 9209 
4 4126 4327 4326 9296 
4 4330 9293 4329 4129 
4 4237 9206 4236 4035 
4 4144 4345 4344 9278 
4 4342 4341 4141 9281 
4 4147 4348 4347 9275 
4 4251 4050 4252 9191 
4 4257 4056 4258 9185 
4 4044 9197 4246 4245 
4 4254 4053 4255 9188 
4 9290 4332 4333 4132 
4 9284 4338 4339 4138 
4 9287 4335 4336 4135 
4 9200 4041 4242 4243 
4 4240 9203 4239 4038 
4 4249 4047 9194 4248 
4 4059 4260 9182 4261 
4 4350 4150 4351 9272 
4 4354 9269 4353 4153 
4 4062 4264 4263 9179 
4 9266 4356 4357 4156 
4 4065 4267 4266 9176 
4 9436 5445 2807 9966 
4 8945 8943 8345 6499 
4 4172 5234 3384 9162 
4 9373 2933 9948 5508 
4 6541 3470 8875 8873 
4 8596 5417 6207 2970 
4 5523 9980 9916 9358 
4 3052 5365 7299 5175 
4 3291 7566 4281 3292 
4 5496 9385 9977 2909 
4 9504 3030 3033 3031 
4 3143 9448 10003 5610 
4 7249 7248 5416 5226 
4 9059 6443 9058 6306 
4 4480 8271 9157 9343 
4 6113 5527 9352 7885 
4 9045 6318 4565 8214 
4 9410 2856 5471 9936 
4 3072 5185 7290 7289 
4 7699 4649 7703 3431 
4 5506 9952 9375 2926 
4 6292 8227 9071 9073 
4 2846 9415 9416 9981 
4 5189 3080 7285 5379 
4 8409 5093 7197 7198 
4 6105 5518 9945 2952 
4 6584 8277 8274 8803 
4 2671 7135 2767 7040 
4 9151 9154 6213 2677 
4 8329 8907 8326 6522 
4 2888 9970 5486 6073 
4 3144 5411 7254 5221 
4 3719 5134 5135 8368 
4 2956 9361 9937 9360 
4 9446 10022 9915 5612 
4 3301 3302 6975 7557 
4 3208 3207 7464 6974 
4 8430 7813 4647 7707 
4 3488 7790 7642 8855 
4 3297 3298 6983 7561 
4 3204 3203 7468 6982 
4 5425 4827 8577 8571 
4 3308 3309 6887 7550 
4 3215 3214 7457 6816 
4 6342 9021 6462 6461 
4 8282 6575 8284 8819 
4 8592 5033 8552 6593 
4 8949 3410 7734 7730 
4 5135 5136 8367 7155 
4 9140 6224 4495 8261 
4 8811 6579 8278 8280 
4 5454 9957 9427 2822 
4 5189 5190 8492 7285 
4 3507 7781 7618 8831 
4 8901 7688 7682 3446 
4 6743 5213 8468 8140 
4 7480 6957 3379 3378 
4 4166 5025 4367 9256 
4 3671 5110 5111 8392 
4 7183 5107 8395 8117 
4 6628 6627 7689 8906 
4 9052 6312 4559 8217 
4 7706 8925 7710 3430 
4 6639 7665 8880 8882 
4 8961 7746 7742 3397 
4 9876 9951 5596 9462 
4 4538 8231 9080 6284 
4 5499 10016 6086 2914 
4 8570 7869 4814 4823 
4 6292 6436 9071 6437 
4 3470 7658 8875 8873 
4 3466 6541 3470 8875 
4 3309 3310 6888 7549 
4 3216 3215 7456 6817 
4 7249 9531 5416 3155 
4 3418 7713 8930 8932 
4 4596 8192 9002 6362 
4 4656 4657 3443 7685 
4 6456 6457 9031 6332 
4 6993 7853 401 581 
4 9392 9974 5489 2894 
4 3300 3301 6977 7558 
4 3207 3206 7465 6976 
4 9430 9431 2816 9987 
4 7382 6984 3290 3289 
4 10000 9426 9425 2826 
4 8456 8136 6749 5225 
4 5391 7273 3104 5201 
4 8481 7275 8482 5199 
4 3453 4662 3451 7677 
4 6085 5498 10018 2913 
4 7649 3477 3475 4676 
4 9455 3129 9892 9456 
4 6304 6442 9061 9059 
4 7754 7751 6595 8790 
4 8368 5135 8367 7156 
4 8092 8593 8364 4810 
4 4640 4639 7719 3416 
4 2943 6100 10009 5513 
4 8205 8204 8838 4449 
4 3529 7585 4706 4707 
4 7388 6885 3284 3283 
4 7341 8555 7152 5435 
4 4408 8920 4407 6617 
4 8550 6687 3743 4807 
4 6101 5514 9973 2944 
4 2854 9411 2856 2855 
4 3746 6688 4808 8549 
4 5237 2789 7243 5045 
4 9419 2840 9418 9990 
4 7248 5418 5226 5228 
4 9975 6069 5482 2880 
4 9349 3165 5418 7247 
4 3041 9499 9986 5559 
4 6730 3626 8495 7802 
4 5624 7340 8568 10029 
4 6294 9069 6438 6437 
4 8567 10028 5623 7245 
4 6811 7476 7477 3382 
4 3791 7871 8567 7846 
4 3792 7872 8568 7848 
4 7598 3519 7774 8815 
4 580 400 6798 6007 
4 6799 484 304 6008 
4 6682 3532 7582 4717 
4 7699 3431 8918 8916 
4 8891 6531 8319 8320 
4 7606 3511 7777 8823 
4 6478 6479 8987 6376 
4 7785 3676 4737 4738 
4 3528 3532 7588 8803 
4 8842 3495 7623 7627 
4 3421 8931 7817 7714 
4 9999 9393 9392 2893 
4 2882 9911 5483 6070 
4 5631 5632 3798 9641 
4 9118 6413 6246 9119 
4 4828 3788 8572 5426 
4 6882 3281 7391 3280 
4 3465 8879 7798 7662 
4 3235 7436 3236 6837 
4 3332 7527 6910 3331 
4 7485 3373 6952 3374 
4 7383 3289 9163 9164 
4 4372 4172 4846 8084 
4 3677 4689 7784 8388 
4 3238 7433 3239 6840 
4 6913 7524 3334 3335 
4 3277 6879 7394 3278 
4 7488 6949 3371 3370 
4 3241 7430 3242 6843 
4 6916 7521 3337 3338 
4 6876 7397 3274 3275 
4 3244 7427 3245 6846 
4 3340 3341 6919 7518 
4 7491 6946 3368 3367 
4 7400 6873 3272 3271 
4 6922 3343 3344 7515 
4 3248 6849 3247 7424 
4 3361 3362 6940 7497 
4 3358 3359 6937 7500 
4 3355 3356 6934 7503 
4 7494 3364 6943 3365 
4 3259 6861 7412 3260 
4 7409 6864 3263 3262 
4 3257 6858 3256 7415 
4 6855 7418 3253 3254 
4 6870 3269 7403 3268 
4 7406 6867 3266 3265 
4 6852 3250 3251 7421 
4 3346 3347 6925 7512 
4 3349 3350 6928 7509 
4 3352 3353 6931 7506 
4 8472 5209 8471 7265 
4 3668 7788 4742 4741 
4 8927 8925 6510 3430 
4 4091 4950 4292 9331 
4 4201 9242 3999 4859 
4 9549 9546 7473 5628 
4 5808 9553 6985 5810 
4 10004 6087 5500 2916 
4 6102 5515 9909 2947 
4 9729 3890 5721 5720 
4 8197 8824 8198 4456 
4 6346 9017 6464 6463 
4 4280 9161 9163 4079 
4 4813 4824 8569 7867 
4 6955 7482 3376 3377 
4 7454 3218 3217 6819 
4 3311 3312 6890 7547 
4 9543 7137 5429 8587 
4 9984 3017 9511 5547 
4 3232 7439 3233 6834 
4 7530 6907 3329 3328 
4 4276 9167 4074 4934 
4 3129 3127 9456 3126 
4 3224 3223 7448 6825 
4 7539 6898 3320 3319 
4 3220 3219 7452 6821 
4 3313 3314 6892 7545 
4 8421 7807 4656 3611 
4 7543 6894 3316 3315 
4 6589 8272 8273 4611 
4 4710 3719 3721 7766 
4 3489 6555 8849 8851 
4 5233 9341 9161 4080 
4 9433 2812 9964 5448 
4 2866 5475 9978 9406 
4 4953 4295 4094 9328 
4 4204 9239 4002 4862 
4 7534 3324 6903 3325 
4 3229 3228 7443 6830 
4 4630 7826 7739 3398 
4 7473 3385 3192 3386 
4 3222 3221 7450 6823 
4 6896 7541 3317 3318 
4 2670 8590 5040 8079 
4 9072 9070 6295 8317 
4 4219 9223 4220 3229 
4 3325 9310 4312 4313 
4 3711 4706 7770 8371 
4 3791 4839 7346 7871 
4 7347 3792 4840 7872 
4 4547 6293 8317 8318 
4 7476 3383 9252 9253 
4 9439 9967 5442 2800 
4 3524 7600 8815 8813 
4 8438 3577 7820 4639 
4 9223 4018 4219 4220 
4 9310 4112 4312 4313 
4 7455 6818 3217 3216 
4 3311 6889 3310 7548 
4 6564 8837 8294 8291 
4 4274 9169 4072 4932 
4 10022 3149 9445 5613 
4 8984 2762 7044 7046 
4 8413 5090 5089 3629 
4 7637 3483 4681 7789 
4 3517 7608 8823 8821 
4 9386 9385 10001 2906 
4 7138 2673 2668 7133 
4 9005 8194 9007 6358 
4 8908 6627 7695 6625 
4 9947 9430 9429 2818 
4 9373 2933 9372 9948 
4 3219 3218 7453 6820 
4 3312 3313 6891 7546 
4 3221 7451 6822 3220 
4 7544 3314 6893 3315 
4 6895 7542 3316 3317 
4 6280 9083 6431 6430 
4 7598 6673 3521 4725 
4 7606 6671 3513 4729 
4 7694 6626 3437 4773 
4 6680 3530 7586 4719 
4 7590 6678 3525 4721 
4 2922 9378 9929 9377 
4 7273 9467 7274 3104 
4 6615 4783 3423 7714 
4 7384 6810 7383 3288 
4 6643 4757 3463 7662 
4 5503 9378 9869 9929 
4 4727 6672 7604 3517 
4 3462 7668 6640 4759 
4 7596 6675 3524 4723 
4 3633 9791 3635 4667 
4 4771 3439 6629 7690 
4 3466 7796 7660 8875 
4 6243 2692 9122 9123 
4 8927 6510 3425 3430 
4 7712 8927 3425 7815 
4 3576 7821 4788 4787 
4 3226 3225 7446 6827 
4 7537 6900 3322 3321 
4 2852 2850 9413 2851 
4 2940 10015 5512 6099 
4 6719 5165 8516 8160 
4 9259 4163 4364 5022 
4 6575 3521 3515 8819 
4 3463 8883 3460 6536 
4 2820 9428 2822 2821 
4 3228 3227 7444 6829 
4 3324 7535 6902 3323 
4 4440 8213 8856 8854 
4 7538 6899 3321 3320 
4 3225 3224 7447 6826 
4 8925 8927 7710 3430 
4 5504 2922 9929 9377 
4 6579 3522 8811 3525 
4 6901 7536 3322 3323 
4 3227 3226 7445 6828 
4 4753 9787 3644 4754 
4 7441 3230 6832 3231 
4 6905 7532 3326 3327 
4 3556 9843 4798 4797 
4 9220 4223 4881 4021 
4 4115 4974 4316 9307 
4 9493 9983 9885 5565 
4 9334 4289 4947 4088 
4 3996 4856 4198 9245 
4 7668 8883 3460 7799 
4 7604 3515 7775 8819 
4 9532 5425 7851 304 
4 3468 8879 8877 7664 
4 9445 3150 10023 5613 
4 8931 7716 8929 3427 
4 8811 3522 7596 7772 
4 9047 6318 9045 8214 
4 7449 3223 3222 6824 
4 7540 6897 3319 3318 
4 6356 9007 6469 6468 
4 4768 4767 3616 9805 
4 6549 8305 8303 8861 
4 6718 5163 8518 8161 
4 2936 9370 9959 5511 
4 9438 2802 2800 2801 
4 5546 9512 9886 9984 
4 2934 2932 2933 9372 
4 8876 8878 8224 4429 
4 4939 8083 8603 8787 
4 8941 8943 3414 6500 
4 9415 2848 9414 9939 
4 3232 3231 7440 6833 
4 6906 7531 3327 3328 
4 4069 4929 4271 9172 
4 4118 9304 4977 4319 
4 4024 4884 4226 9217 
4 8885 6534 8887 3462 
4 9262 4160 4361 5019 
4 4027 4887 4229 9214 
4 4322 4121 4980 9301 
4 4926 4268 4066 9175 
4 4030 4890 4232 9211 
4 4983 4325 4124 9298 
4 4358 9265 4157 5016 
4 9178 4923 4063 4265 
4 9295 4328 4986 4127 
4 4033 4893 4235 9208 
4 4355 9268 4154 5013 
4 4060 4920 4262 9181 
4 4048 4908 4250 9193 
4 4051 4911 4253 9190 
4 4130 4331 9292 4989 
4 9271 5010 4151 4352 
4 9205 4036 4238 4896 
4 4998 4340 4139 9283 
4 9199 4042 4244 4902 
4 9286 4337 4995 4136 
4 9289 4334 4992 4133 
4 4054 4914 4256 9187 
4 4259 4057 4917 9184 
4 4247 9196 4045 4905 
4 4241 9202 4039 4899 
4 4142 5001 4343 9280 
4 4145 5004 4346 9277 
4 4148 5007 4349 9274 
4 4827 5425 8577 4187 
4 4493 6756 8353 6492 
4 6560 3498 8843 8841 
4 9890 9992 5576 9482 
4 7241 7242 8453 5049 
4 8201 8830 8832 4452 
4 398 6752 6002 578 
4 8590 5040 8079 8101 
4 4275 9168 4073 4933 
4 9972 6080 5493 2902 
4 8804 8806 8188 4465 
4 9222 4221 4879 4019 
4 9309 4113 4314 4972 
4 2959 5521 6108 9884 
4 3140 9449 3143 3141 
4 3547 9848 4624 4623 
4 5190 3620 5189 8492 
4 2846 9415 9981 5466 
4 7612 3509 3513 8827 
4 9535 4474 7759 3197 
4 5481 6068 2879 10010 
4 8176 3181 7874 7360 
4 7634 7638 3486 8853 
4 8506 7299 5175 5176 
4 3034 3035 9502 3037 
4 5157 8523 8524 7317 
4 2955 9361 2954 2956 
4 3145 3143 9448 3142 
4 8973 6801 3730 9536 
4 7339 3984 9551 8070 
4 3530 7592 3527 8807 
4 7859 3757 479 7855 
4 2959 9884 9359 9360 
4 3202 7469 3203 6814 
4 3296 3297 6815 7562 
4 3439 8911 7696 3438 
4 9159 5043 7376 3187 
4 3568 9835 4792 4791 
4 5044 9160 3188 7377 
4 8177 7876 7359 3184 
4 4779 4780 9820 3592 
4 8996 6371 8993 2756 
4 6961 7479 3379 3380 
4 9891 9503 9993 5555 
4 8069 9550 3983 7244 
4 8935 3423 3419 7718 
4 6656 6657 7631 4684 
4 5123 8378 8379 7167 
4 9079 8322 6287 4539 
4 9398 2881 2882 2880 
4 4951 4293 4092 9330 
4 4202 9241 4000 4860 
4 6263 9103 8334 4521 
4 7226 2823 5254 5064 
4 8309 6544 4557 6778 
4 6570 8822 8824 3508 
4 8399 5102 7188 8400 
4 2850 2848 9414 2849 
4 8432 8433 5069 7221 
4 5440 9903 6027 2797 
4 8984 8275 6381 8985 
4 7698 8915 3436 3437 
4 4520 6260 8243 9104 
4 9379 2918 2920 2919 
4 8132 7231 8443 5059 
4 3504 4733 7618 6667 
4 6559 8845 8297 8295 
4 8187 8804 8188 4466 
4 8375 5127 8374 7163 
4 5219 6746 8138 8462 
4 9799 8415 3623 4662 
4 7661 6641 6642 4668 
4 6884 7389 3282 3283 
4 4686 3671 3673 9768 
4 7338 7337 2977 5238 
4 5232 7374 7363 7378 
4 7116 6408 2689 2690 
4 5157 5158 8523 7317 
4 6785 6560 8843 8296 
4 2768 7134 2671 6698 
4 2672 7139 2668 6697 
4 7096 9084 7094 2712 
4 4425 8884 8228 8886 
4 3081 3080 9479 3082 
4 9429 2820 2818 2819 
4 8907 7692 3444 3441 
4 3105 3102 9468 3103 
4 7483 3375 6954 3376 
4 8545 7867 7152 2784 
4 2766 7042 5038 2765 
4 7528 6909 3331 3330 
4 3234 7437 3235 6836 
4 9458 3125 3122 3123 
4 3497 8838 8836 6561 
4 6881 7392 3279 3280 
4 6951 3373 7486 3372 
4 7434 3238 3237 6839 
4 7525 6912 3334 3333 
4 3276 7395 3277 6878 
4 6948 7489 3369 3370 
4 7398 6875 3274 3273 
4 6945 7492 3366 3367 
4 7401 6872 3271 3270 
4 3357 3358 6936 7501 
4 3363 3364 6942 7495 
4 3259 7413 6860 3258 
4 6866 7407 3264 3265 
4 7404 6869 3268 3267 
4 3360 3361 6939 7498 
4 6857 3255 3256 7416 
4 3250 7422 6851 3249 
4 7410 6863 3262 3261 
4 3354 3355 6933 7504 
4 3252 6854 7419 3253 
4 6927 3348 3349 7510 
4 3351 3352 6930 7507 
4 3345 3346 6924 7513 
4 3342 3343 6921 7516 
4 6848 3246 3247 7425 
4 3339 3340 6918 7519 
4 7428 3244 3243 6845 
4 7431 3241 3240 6842 
4 7522 6915 3337 3336 
4 9464 5594 9930 9870 
4 3413 6501 8938 8936 
4 7637 3487 7633 4682 
4 6210 9153 6396 6395 
4 3466 3470 7658 8875 
4 7364 7379 5231 7375 
4 2816 9430 9987 5451 
4 9977 9385 9384 2909 
4 6427 6272 9091 6426 
4 4164 5023 4365 9258 
4 3651 8401 4676 9781 
4 3455 8891 7674 3457 
4 10007 9396 2887 5485 
4 8456 8136 9847 6749 
4 2798 9996 9439 9440 
4 8949 8951 3410 6496 
4 4952 4294 4093 9329 
4 4203 9240 4001 4861 
4 7887 3884 3885 6988 
4 8572 3788 7853 5426 
4 8804 6581 8802 3526 
4 9092 6273 8329 8326 
4 2945 9366 2944 2947 
4 2824 9426 7226 5255 
4 5497 9913 6084 2910 
4 9445 3150 9444 10023 
4 8961 8963 3397 6489 
4 8416 8122 7204 5086 
4 8406 5095 7195 8407 
4 6664 4690 4691 7782 
4 5112 7178 5113 8116 
4 7735 4631 7739 3402 
4 2794 9441 2797 2795 
4 2840 9418 9990 5463 
4 5169 8511 8512 7305 
4 5719 9554 5718 6810 
4 7861 436 7857 3755 
4 2842 9417 9418 9960 
4 9072 9074 6293 2717 
4 9391 2895 2897 2894 
4 3016 7317 9511 3019 
4 7216 8428 8127 5074 
4 2972 8599 6017 4817 
4 8134 7237 8449 5053 
4 7828 4627 4626 6598 
4 2839 2836 9420 2837 
4 4743 9772 7634 7636 
4 6564 6563 4581 8294 
4 5119 5120 8113 7171 
4 4421 4535 8232 4540 
4 6420 7104 2702 2701 
4 4599 8190 8997 6366 
4 7693 7695 6625 8910 
4 6959 3286 7386 3285 
4 9436 2807 9435 9966 
4 7243 8105 6691 5045 
4 3671 3669 8392 9769 
4 7190 8119 5100 8402 
4 7125 6399 2680 2681 
4 8453 7242 5047 5049 
4 4948 9333 4290 4089 
4 3997 4199 9244 4857 
4 8255 4399 8254 8938 
4 7057 9009 2748 9012 
4 4664 3456 7673 7671 
4 3594 8479 7814 3596 
4 4949 4291 4090 9332 
4 4200 9243 3998 4858 
4 2811 9433 9994 5448 
4 7176 2923 5304 5114 
4 9362 2953 2954 2952 
4 6277 9088 8324 8327 
4 8129 7223 8435 5067 
4 2804 9436 9995 5445 
4 3539 3541 7760 3727 
4 5475 2865 10002 9406 
4 3444 7686 6631 4769 
4 8272 8797 6589 8273 
4 4416 8238 8904 8237 
4 3324 9311 4311 4312 
4 4218 9224 4219 3228 
4 4755 3468 6645 7660 
4 3040 7305 9499 3043 
4 7712 6616 3427 4781 
4 4614 8180 8181 8791 
4 7579 4714 7765 8543 
4 5169 8511 7305 5170 
4 4650 7811 4651 6622 
4 9424 2831 2828 2829 
4 8840 8842 6659 7623 
4 2908 9384 2909 2910 
4 2808 2807 9435 2806 
4 3108 3107 9466 3106 
4 7154 2968 9352 9355 
4 9392 9391 9974 2894 
4 8903 3442 3446 6524 
4 6584 3532 3528 8803 
4 4165 5024 4366 9257 
4 396 576 575 5822 
4 3886 9730 6988 5719 
4 7603 3516 7601 4699 
4 4645 7711 7709 3426 
4 4635 7822 4636 6607 
4 5456 10000 9425 2826 
4 6758 8350 8348 6496 
4 9068 9070 6297 2719 
4 9394 2889 2890 2888 
4 2812 9432 2815 2813 
4 2845 2842 9417 2843 
4 4404 3426 8926 8928 
4 6755 8356 8354 6489 
4 6799 484 483 304 
4 7367 7567 3386 7882 
4 5109 7181 5110 8392 
4 2958 2959 2960 9359 
4 9422 2835 10006 5459 
4 2669 8587 5039 8080 
4 6724 8156 7028 5175 
4 7078 6446 2727 2728 
4 8413 9797 3629 3627 
4 3521 7602 8819 8817 
4 2933 2934 9372 5509 
4 6407 6234 6408 9129 
4 2869 2866 9405 2867 
4 7474 7475 3191 3384 
4 8881 3463 8883 7666 
4 8951 8949 3410 7734 
4 7004 5159 6716 8163 
4 9004 6363 9001 2752 
4 8970 8360 6591 4185 
4 7974 3797 8072 6023 
4 9989 2930 9373 5508 
4 3320 4308 9315 4307 
4 4214 9228 4215 3224 
4 3131 9454 3132 3130 
4 8105 9351 6808 5045 
4 8961 8963 7746 3397 
4 8448 8447 5055 3559 
4 8995 6368 6474 6475 
4 2860 2859 9409 2858 
4 8798 8796 3531 6585 
4 3322 9313 4309 4310 
4 9226 4217 4216 3226 
4 3661 5106 8396 8397 
4 8356 8963 8354 6489 
4 7886 7887 3885 6988 
4 3889 8064 6024 8074 
4 2694 6247 9120 9117 
4 5510 2936 2934 9371 
4 4661 3447 7679 7675 
4 8413 7202 5088 5089 
4 2761 8985 7045 7046 
4 9336 4287 4945 4086 
4 3994 4854 4196 9247 
4 8350 8951 8348 6496 
4 5312 2938 7169 9369 
4 8870 8872 8221 4432 
4 8901 8903 3446 6524 
4 7710 8927 3425 3430 
4 7845 2972 2784 4817 
4 4882 4224 4022 9219 
4 4116 4975 4317 9306 
4 3553 8450 8451 5052 
4 4753 9785 7654 7656 
4 8427 8426 5076 3601 
4 8442 8441 5061 3571 
4 3158 6018 4818 8600 
4 4070 4930 4272 9171 
4 9261 4161 4362 5020 
4 4885 4227 4025 9216 
4 4119 4978 4320 9303 
4 4028 4888 4230 9213 
4 4122 4981 4323 9300 
4 4067 4927 4269 9174 
4 9264 4158 4359 5017 
4 4064 4924 4266 9177 
4 9297 4984 4125 4326 
4 4031 4891 4233 9210 
4 4356 9267 4155 5014 
4 4061 4921 4263 9180 
4 4894 4236 4034 9207 
4 9294 4329 4987 4128 
4 5011 9270 4353 4152 
4 4143 5002 4344 9279 
4 4146 5005 4347 9276 
4 4260 4058 4918 9183 
4 4049 4909 4251 9192 
4 4052 4912 4254 9189 
4 4140 4999 4341 9282 
4 4242 9201 4040 4900 
4 4239 9204 4037 4897 
4 9198 4043 4245 4903 
4 9195 4046 4248 4906 
4 9288 4335 4993 4134 
4 4055 4915 4257 9186 
4 9291 4131 4332 4990 
4 9285 4137 4338 4996 
4 4149 5008 4350 9273 
4 9976 9425 9424 2828 
4 2812 9432 9433 9964 
4 8430 8429 5073 3595 
4 7632 4741 3670 7630 
4 8322 6287 4539 8320 
4 6000 396 576 575 
4 7647 7651 3471 4675 
4 575 8692 5822 8693 
4 4097 4298 4297 9325 
4 9236 4005 4206 4207 
4 488 489 308 5913 
4 8868 8870 8220 6542 
4 5159 5160 8521 7315 
4 6426 6270 9094 6425 
4 5487 9394 2890 2888 
4 6654 4745 3484 7642 
4 5167 5168 8159 7307 
4 4946 9335 4288 4087 
4 3995 4855 4197 9246 
4 3792 3776 7848 4816 
4 3791 7846 4815 3774 
4 9387 2903 2904 2902 
4 9996 2798 9439 5442 
4 9404 2870 9403 10019 
4 4541 8229 9075 6288 
4 9442 9968 10026 5439 
4 4421 4535 8894 8232 
4 4209 9234 4208 4007 
4 9323 4099 4299 4300 
4 4717 3718 6707 7767 
4 489 5913 8784 8783 
4 4210 9232 4009 4211 
4 4101 4301 9321 4302 
4 9319 4303 4304 4103 
4 6637 6636 7671 8886 
4 2924 9376 2925 2926 
4 7605 4696 3693 8381 
4 6326 9038 8210 4573 
4 2802 5443 9438 2800 
4 3978 3979 9552 5810 
4 3683 3685 4692 9760 
4 6553 8300 8855 8302 
4 4213 9230 4212 4011 
4 9317 4305 4306 4105 
4 5175 8506 5176 3648 
4 10005 5517 9364 2951 
4 8232 6282 9083 9081 
4 2965 2963 2962 9357 
4 9750 3701 4701 8376 
4 2872 7201 5280 5089 
4 2734 2735 7071 6453 
4 8695 4847 8081 8086 
4 8786 8082 8088 4848 
4 5492 9389 10008 2901 
4 2866 9978 9405 9406 
4 7063 7062 9019 2744 
4 3978 7975 7976 9553 
4 3455 6531 8891 3457 
4 9170 4273 4931 4071 
4 2922 9378 2921 2920 
4 9224 4218 4219 4017 
4 9311 4111 4311 4312 
4 8594 4809 6005 6207 
4 8809 8811 7594 3525 
4 8901 8324 6524 6526 
4 9018 7063 2745 7061 
4 9260 4162 4363 5021 
4 8970 3736 6591 6686 
4 8157 6723 8508 5173 
4 9553 9552 7475 5810 
4 9218 4225 4883 4023 
4 4117 4976 4318 9305 
4 3445 6632 7681 8898 
4 9417 5264 7217 2843 
4 4068 4928 4270 9173 
4 9263 4159 4360 5018 
4 4886 9215 4228 4026 
4 4120 4979 4321 9302 
4 4029 4889 4231 9212 
4 4123 4982 4324 9299 
4 4925 4267 4065 9176 
4 4126 4327 9296 4985 
4 4032 4892 4234 9209 
4 4357 9266 4156 5015 
4 4062 4922 4264 9179 
4 4354 9269 4153 5012 
4 9293 4330 4988 4129 
4 4895 9206 4237 4035 
4 4144 5003 4345 9278 
4 4147 5006 4348 9275 
4 9284 4339 4997 4138 
4 9287 4336 4994 4135 
4 9290 4333 4991 4132 
4 4150 5009 4351 9272 
4 4240 9203 4038 4898 
4 4059 9182 4919 4261 
4 9197 4044 4246 4904 
4 9200 4041 4243 4901 
4 5000 4342 4141 9281 
4 4056 4916 4258 9185 
4 4047 4907 4249 9194 
4 4050 4910 4252 9191 
4 4053 4913 4255 9188 
4 7840 8574 3171 4826 
4 4825 3169 8573 7838 
4 3509 6571 3513 8827 
4 4096 4955 4297 9326 
4 4206 9237 4004 4864 
4 4095 4954 4296 9327 
4 4205 9238 4003 4863 
4 489 5909 488 308 
4 8963 3396 3397 6489 
4 9956 9881 9457 5601 
4 9221 4222 4880 4020 
4 4114 4973 4315 9308 
4 9999 9392 5489 2893 
4 3423 8935 3419 6506 
4 2769 7349 3751 4823 
4 8846 6656 6657 7631 
4 8273 8275 4611 6381 
4 8951 3405 3410 6496 
4 4731 3505 6670 7610 
4 8901 8903 7688 3446 
4 5479 6066 2874 10020 
4 4098 4957 4299 9324 
4 4208 9235 4006 4866 
4 9074 9076 6291 2716 
4 6525 3445 8896 8898 
4 5494 9387 2904 2902 
4 4210 9233 4008 4868 
4 4100 4959 4301 9322 
4 9231 4010 4212 4870 
4 4303 9320 4102 4961 
4 4305 9318 4104 4963 
4 9229 4214 4872 4012 
4 9227 4216 4874 4014 
4 4307 9316 4106 4965 
4 9225 4218 4876 4016 
4 9314 4967 4108 4309 
4 9312 4110 4311 4969 
4 3455 7672 6638 4761 
4 6582 3530 3527 8807 
4 7119 2687 6405 2686 
4 6263 8334 8332 4521 
4 8911 3439 6519 3438 
4 5480 2876 2874 9401 
4 9223 4018 4220 4878 
4 9310 4112 4313 4971 
4 8470 6742 9828 4787 
4 8995 6368 8189 8997 
4 9128 6408 7116 7117 
4 7682 7684 4767 9804 
4 9228 4214 4215 4013 
4 4308 9315 4307 4107 
4 8915 6517 3436 3437 
4 6402 2684 2683 7122 
4 8798 6681 3531 7581 
4 8907 3444 6522 3441 
4 3672 7786 4740 4739 
4 4217 9226 4216 4015 
4 9313 4109 4309 4310 
4 8071 9733 7885 3887 
4 5099 3647 8404 8403 
4 8445 8444 5058 3565 
4 7101 6423 2704 2705 
4 9441 5440 2794 2797 
4 5480 6067 2876 10017 
4 8884 6637 3458 7669 
4 9411 2854 9412 7211 
4 3507 7614 4732 7781 
4 9758 4694 7613 7609 
4 8346 6239 9127 4504 
4 8304 4567 8302 6323 
4 7618 3504 6667 8833 
4 5478 2873 9403 10021 
4 6762 8342 8340 6506 
4 2829 9424 7224 5257 
4 2771 3753 4824 7351 
4 5423 6391 8977 8065 
4 9423 2832 9422 10012 
4 9398 2882 5483 2880 
4 9146 7126 6399 7125 
4 4562 9047 6316 8215 
4 8884 8228 8227 4544 
4 3407 4793 7738 6604 
4 6020 4480 4478 9157 
4 8330 8332 8915 6517 
4 9074 6293 6291 8318 
4 9808 3609 4655 3611 
4 3015 3014 3017 9512 
4 6330 9033 6456 6455 
4 9390 9389 10013 2898 
4 9131 6232 8256 8257 
4 7115 7113 2693 9122 
4 7573 8065 8553 4377 
4 9384 5497 2909 2910 
4 10023 3150 6200 5613 
4 5519 9362 2954 2952 
4 8920 7813 7707 6619 
4 4441 8213 8854 8212 
4 9019 9022 6345 2743 
4 8342 8935 8340 6506 
4 6577 3524 8815 8813 
4 7778 3508 7605 4696 
4 7887 6112 7886 3885 
4 9426 2825 9893 9427 
4 3785 3169 301 8560 
4 3787 8562 3171 403 
4 6227 4496 8352 8350 
4 7088 7089 9072 2718 
4 9022 9023 6343 2742 
4 6573 3517 8823 8821 
4 7974 3797 9641 9731 
4 3129 9455 3131 3128 
4 8896 6525 8898 8234 
4 8275 6379 6381 8985 
4 3650 4751 3478 7648 
4 9385 5496 10001 2906 
4 8879 3468 8877 6539 
4 8931 8929 6508 3427 
4 5629 5631 3797 9641 
4 6216 9147 6399 6398 
4 7757 8570 8546 4814 
4 3654 7646 4749 3481 
4 5630 9729 5720 3889 
4 6479 6480 8986 6378 
4 5328 7337 5048 5238 
4 3790 8566 8554 4844 
4 8252 4508 8251 8932 
4 5490 9391 2897 2894 
4 8194 8818 4594 4459 
4 4651 7697 7693 6624 
4 7785 8519 3674 7624 
4 4474 9535 3387 3197 
4 10011 9365 9364 2948 
4 9319 4303 3316 4304 
4 4210 9232 4211 3220 
4 9321 4301 3314 4302 
4 9438 2801 5243 7238 
4 9234 4209 4208 3218 
4 4299 9323 4300 3312 
4 3670 4741 3493 7630 
4 10016 5499 9382 2914 
4 6420 9104 7105 7104 
4 9450 3140 5608 3139 
4 7029 5189 6731 8150 
4 2859 9410 9409 7209 
4 8974 9537 6800 3729 
4 5457 9424 2831 2828 
4 6568 8290 8288 8831 
4 8110 5129 5130 7161 
4 7688 8903 3442 3446 
4 8201 8200 8830 4453 
4 6001 396 397 576 
4 10027 3153 6201 5614 
4 7686 8903 3442 7806 
4 4390 8956 8263 8264 
4 2807 2808 9435 5446 
4 8986 6380 8983 8183 
4 3318 9317 4305 4306 
4 9230 4213 4212 3222 
4 7178 7177 5303 5113 
4 7610 3509 7779 8827 
4 2917 9380 2916 2919 
4 4206 9236 4207 3216 
4 4298 4297 9325 3310 
4 5310 7170 5120 7171 
4 7810 8911 7694 3438 
4 7563 9729 6813 7564 
4 3574 7821 8469 7724 
4 8935 8933 3423 7718 
4 7575 7567 3192 3732 
4 8305 6548 6549 4563 
4 9453 3135 5605 3132 
4 7471 7470 6812 9641 
4 7590 3527 7771 8807 
4 6422 9099 6264 6423 
4 9389 5492 10013 2898 
4 7586 3528 7769 8803 
4 7631 6657 7629 4685 
4 9368 2943 10009 5513 
4 10014 2884 9397 9396 
4 2832 9422 10012 5459 
4 3230 3229 7442 6831 
4 6904 7533 3325 3326 
4 5030 4846 8604 6002 
4 7690 8907 3441 7808 
4 7869 2786 7246 8546 
4 7678 6635 3452 4763 
4 2709 9089 7097 7098 
4 8306 8305 9048 6317 
4 4636 7727 7723 6608 
4 6423 9098 7102 7101 
4 5517 10011 9364 2948 
4 2876 5481 2879 9400 
4 9439 9438 9967 2800 
4 2762 2763 7044 6481 
4 9380 5501 2916 2919 
4 9147 9146 6218 6399 
4 7072 7071 6453 9038 
4 5910 307 488 308 
4 9395 10007 9396 2887 
4 4813 8545 8569 7756 
4 8126 5077 5078 7213 
4 9377 7176 9376 2925 
4 7199 5282 2877 5091 
4 9422 2835 9421 10006 
4 5502 9379 2920 2919 
4 5213 5212 5403 7262 
4 9894 2862 9408 9407 
4 8510 8158 6722 5171 
4 8593 9347 3157 7344 
4 2836 2839 9420 5461 
4 3736 3735 9541 7753 
4 8232 4535 8233 9083 
4 5163 5162 5353 7312 
4 7228 8131 5063 5062 
4 7033 3756 7860 454 
4 3758 7038 461 7862 
4 9729 9732 8064 3889 
4 2962 5523 6110 9916 
4 3440 6521 8904 8902 
4 7051 8996 7049 2756 
4 2711 7096 9085 7095 
4 4642 7713 3422 3418 
4 2842 2845 9417 5464 
4 5351 7314 3024 7313 
4 7723 8940 6610 6608 
4 5822 576 8693 5821 
4 8897 8899 3448 6527 
4 2870 5478 9403 10019 
4 7588 3532 8801 8803 
4 3472 6544 8869 8871 
4 9374 9888 9375 2928 
4 3685 5118 8384 8385 
4 3401 8955 7740 6603 
4 4396 4395 6605 8944 
4 6546 3476 8867 8865 
4 3639 5095 8407 8408 
4 2940 9368 10015 5513 
4 9111 6252 6416 6417 
4 6379 8274 8275 4609 
4 7644 6652 3482 8859 
4 9111 8247 9113 6252 
4 7477 7478 3381 9254 
4 8437 8436 5066 3581 
4 5127 3703 8376 8375 
4 7764 3721 4711 9739 
4 8434 8433 5069 3587 
4 6809 5626 5046 9350 
4 3653 8401 5102 8400 
4 7698 8913 8915 3437 
4 6754 4482 8357 6486 
4 6000 8697 5999 575 
4 6676 6677 7589 4704 
4 2738 7068 9032 7069 
4 9534 4475 3198 3539 
4 9833 4791 7732 7730 
4 6600 7741 6601 8958 
4 7473 3385 5628 3192 
4 9432 2812 2815 5449 
4 2942 5124 7166 5315 
4 2869 2866 5476 9405 
4 7220 5070 5261 2834 
4 5103 2900 5294 7187 
4 8798 8184 8796 6585 
4 2950 5128 7162 5319 
4 2943 2942 9367 2944 
4 2724 9060 7083 7081 
4 9129 6408 9128 6236 
4 10014 2884 9396 5485 
4 4428 8878 8225 8880 
4 7639 6651 6653 4679 
4 8228 9075 9073 6290 
4 2940 9368 9369 10015 
4 9389 9388 10008 2901 
4 3484 6654 7642 8857 
4 5913 488 8784 5912 
4 9363 10005 9364 2951 
4 6564 6787 8835 8291 
4 2693 6245 9122 9120 
4 9337 4286 4944 4085 
4 3993 4853 4195 9248 
4 5287 5096 2886 7194 
4 7614 7610 4732 9759 
4 6692 6809 5046 8106 
4 7087 7088 9070 2719 
4 6360 9003 6471 6470 
4 8876 8224 8223 4430 
4 7295 3061 3063 9489 
4 2751 9006 7056 7055 
4 7678 6635 8893 3452 
4 3405 8951 3410 7734 
4 8503 7796 3642 7658 
4 8267 6212 9153 9152 
4 8133 7234 5056 5057 
4 7746 8963 3396 3397 
4 3091 9475 7281 3089 
4 4536 8323 6528 6527 
4 5718 9555 5717 6990 
4 2836 2835 9421 2834 
4 9112 2698 7107 7109 
4 6477 6478 8990 6374 
4 7722 4785 6614 3415 
4 6623 3433 7702 4775 
4 7113 7111 2694 9120 
4 7628 4739 3674 7624 
4 2989 7331 9525 2991 
4 577 8696 6001 576 
4 8840 8205 8838 4448 
4 8169 7329 8536 5145 
4 7066 7068 9030 2739 
4 8285 8287 4595 6357 
4 8500 7293 5181 8153 
4 7279 8486 8147 5195 
4 9074 9072 6293 8318 
4 2880 2879 9399 2878 
4 7085 2720 7087 9068 
4 8594 8596 2970 7153 
4 6348 8199 9015 9017 
4 8287 8286 4592 6355 
4 9236 4005 4207 4865 
4 4097 4956 4298 9325 
4 7706 7708 4779 9818 
4 9070 6297 6295 8316 
4 8415 8414 5088 3625 
4 9828 6742 8471 3578 
4 2878 7198 5283 5092 
4 4751 3650 7652 7648 
4 9349 7975 5616 6204 
4 7321 3009 3011 9515 
4 5909 8606 5908 489 
4 7323 3005 3007 9517 
4 4209 9234 4007 4867 
4 9323 4958 4099 4300 
4 6656 8846 4445 4444 
4 9232 4009 4211 4869 
4 4960 4101 9321 4302 
4 4962 9319 4304 4103 
4 3102 5590 3105 9468 
4 6276 9087 6429 6428 
4 7325 3001 3003 9519 
4 6559 6558 4577 8297 
4 8418 8417 5085 3619 
4 9382 10018 9383 2913 
4 9841 4797 7744 7742 
4 484 6799 483 7854 
4 580 581 7852 6798 
4 9230 4213 4871 4011 
4 4306 9317 4105 4964 
4 6482 7043 8981 8979 
4 9542 7136 5430 8586 
4 3069 9485 3071 7291 
4 9152 8266 6214 9149 
4 8940 7725 7723 6610 
4 3158 4818 2786 7847 
4 2936 2935 2934 9371 
4 8818 3516 8820 4458 
4 6021 5423 7153 9849 
4 7729 4634 7733 3404 
4 6761 8343 8939 6502 
4 3534 3536 7584 4716 
4 7327 2997 2999 9521 
4 6555 6556 8849 8299 
4 5482 2880 2879 9399 
4 7319 3012 3014 9513 
4 8105 3543 9351 7831 
4 7114 2691 9126 9123 
4 2886 9395 2887 2888 
4 8997 6366 6473 6474 
4 6434 9075 6288 6435 
4 4172 4372 9342 8084 
4 5143 8170 8538 7331 
4 3502 7622 6665 8835 
4 3614 7688 8489 7806 
4 9224 4219 4877 4017 
4 9311 4111 4312 4970 
4 9067 6439 6296 6438 
4 9540 3726 9547 8106 
4 7271 7270 5394 5204 
4 8168 7327 8534 5147 
4 5160 5159 8521 3680 
4 2772 4822 3168 7870 
4 2770 3167 7868 4821 
4 5183 8152 8498 7291 
4 2879 2876 9400 2877 
4 6575 3521 8819 8817 
4 7741 7743 6601 8958 
4 7159 5322 2958 9359 
4 9483 3074 3072 7289 
4 7325 8532 8167 5149 
4 3463 8881 8883 6536 
4 7323 8530 8166 5151 
4 9816 4777 8480 6737 
4 2950 9363 2951 2952 
4 7661 6641 4668 4667 
4 8165 7321 8528 5153 
4 5499 10018 9382 2913 
4 8226 8225 8880 4545 
4 7384 7385 3287 9165 
4 5164 5165 7310 5355 
4 2804 2802 9437 2803 
4 7646 3654 4749 7650 
4 9251 3201 4191 7471 
4 4282 9340 3295 7564 
4 9461 3119 3117 7267 
4 9463 7269 3115 3113 
4 3547 8453 5049 3549 
4 8860 8862 4437 3480 
4 2802 2804 9437 5444 
4 8277 8276 4607 6375 
4 7612 3513 8825 8827 
4 9088 6277 9089 8327 
4 3674 4739 3494 7624 
4 6544 6545 8309 4557 
4 3023 7314 9508 3025 
4 7183 5108 5107 8117 
4 4610 8983 8183 8182 
4 7657 7659 3467 4671 
4 9388 2900 2902 2901 
4 4637 7723 6610 6608 
4 9403 2873 9402 10021 
4 8953 3407 7738 6604 
4 6512 8335 4519 6514 
4 3150 3153 9444 5614 
4 4493 8353 6493 6492 
4 5136 5137 8366 5327 
4 7741 4628 6600 6601 
4 9228 4215 4873 4013 
4 4308 9315 4107 4966 
4 6415 9113 6250 6416 
4 3667 5109 8393 8394 
4 8143 7269 8476 5205 
4 9370 2939 9369 9908 
4 9070 9068 6297 8316 
4 5467 2850 2848 9414 
4 9141 6222 4491 8262 
4 9226 4217 4875 4015 
4 9313 4109 4310 4968 
4 3574 4789 7724 7728 
4 4640 7719 7721 3416 
4 3443 4657 7687 7685 
4 9366 5515 2944 2947 
4 6747 9843 3556 4797 
4 6392 8066 8978 5424 
4 6446 9052 9053 6312 
4 5529 9921 9529 2981 
4 7726 8470 9828 4787 
4 9381 5500 2914 2916 
4 5452 9429 2820 2818 
4 8198 4589 6350 9014 
4 5141 7333 8171 8540 
4 2943 9368 10009 9367 
4 2984 7333 9527 2987 
4 8889 3455 8891 7674 
4 7295 8502 8154 5179 
4 2905 9386 2904 2906 
4 5193 8148 8488 7281 
4 6275 4532 8326 8327 
4 7055 9004 7053 2752 
4 7585 3529 7587 4707 
4 7159 2959 9359 9360 
4 5353 5163 7312 7311 
4 9046 9048 6319 2730 
4 7136 8586 8590 2670 
4 2736 9034 9036 7070 
4 4813 8545 5433 2784 
4 6230 6405 9135 9134 
4 4621 8555 8588 6005 
4 8481 3598 9816 6737 
4 7130 2676 6393 6211 
4 7172 2931 2933 9373 
4 7307 5167 5358 3036 
4 2732 7074 2731 6450 
4 6258 6419 9105 6420 
4 8890 3456 4423 8888 
4 3574 4789 3412 7724 
4 7074 7076 9046 2731 
4 6342 9021 9024 8202 
4 8268 4486 4385 4481 
4 7750 4799 6599 3393 
4 7758 6801 7760 3539 
4 9827 3578 4786 7720 
4 3039 3041 9500 3038 
4 8361 6753 4477 6019 
4 7089 7090 9074 2717 
4 4654 6628 7689 7691 
4 8314 4549 6297 8316 
4 6556 6555 4572 8299 
4 7651 8868 3473 7794 
4 2917 7179 5302 5111 
4 7875 7349 8179 3781 
4 6418 6256 9107 9110 
4 9835 3568 6744 4791 
4 8809 6579 8811 3525 
4 10016 9382 9381 2914 
4 3398 7739 8954 8956 
4 5268 5078 7213 7212 
4 2750 9008 7058 7056 
4 3598 7700 4776 9814 
4 5130 7160 7161 5320 
4 7277 8484 8146 5197 
4 5253 7228 7227 5063 
4 6668 8826 8828 7609 
4 4535 4420 8233 4537 
4 7139 6697 8552 7133 
4 6698 7134 7040 8551 
4 2876 2874 9401 2875 
4 9104 6260 9105 6420 
4 7134 8579 8549 6700 
4 2807 9436 7235 2805 
4 6460 6461 9024 6340 
4 6289 9076 8319 8320 
4 3530 7592 8807 8805 
4 8909 3439 8911 7696 
4 9385 2907 7184 2909 
4 6685 4714 7579 4713 
4 9425 2828 2827 7224 
4 9386 5495 2904 2906 
4 7374 3194 7570 5232 
4 6572 6571 8286 8825 
4 9953 5586 9877 9472 
4 6699 8550 8580 7139 
4 4501 8347 6499 6498 
4 5514 2943 9367 2944 
4 6402 9140 7123 7122 
4 6405 7119 9134 7120 
4 8605 5910 487 488 
4 2866 2864 9406 7205 
4 8852 8854 3483 7637 
4 5398 3118 7266 7267 
4 9061 6304 9059 8221 
4 457 3785 301 8560 
4 458 8562 3787 403 
4 7335 9528 9529 2982 
4 9121 9124 6242 8252 
4 9374 5507 2928 2930 
4 4078 9164 4279 4937 
4 9762 8522 4735 7622 
4 7873 3783 7351 8178 
4 2835 2836 9421 5460 
4 6586 6584 8274 8801 
4 9820 4779 3592 6738 
4 4558 4556 8219 4434 
4 4747 8510 7644 9778 
4 2847 9415 2848 7214 
4 2854 9411 5470 2856 
4 2786 5434 8546 4814 
4 3145 3147 9447 5611 
4 6336 4578 9028 8205 
4 8359 8968 8357 6486 
4 5231 3193 7375 7571 
4 7167 9368 2941 2943 
4 6326 6453 9039 9038 
4 3051 7300 7301 9494 
4 7975 3978 3979 9552 
4 8905 8907 7692 3444 
4 9430 7229 2818 2817 
4 5823 574 5824 8691 
4 7329 2992 2995 9523 
4 9099 9098 6266 6423 
4 9004 8284 6361 9006 
4 7293 3064 3067 9487 
4 6463 6462 6344 9020 
4 9395 2887 2888 5486 
4 5631 3798 3797 9641 
4 5914 490 5915 8782 
4 8195 9007 6356 9010 
4 2799 9439 2800 7238 
4 7793 3652 4749 4750 
4 4462 8810 8812 3523 
4 5207 8142 8474 7267 
4 2892 7191 9392 2894 
4 6553 3486 8855 8853 
4 5234 4172 4372 9342 
4 2842 9418 7217 2841 
4 8917 6623 3433 7702 
4 8337 8336 8925 6511 
4 3179 7844 7358 4820 
4 2885 7195 9396 2887 
4 4438 8860 3480 6650 
4 2915 9381 2914 2916 
4 8937 7722 6614 3415 
4 2980 7335 9529 2982 
4 6001 8696 6000 576 
4 9729 3890 5720 3889 
4 8081 3987 7883 9159 
4 8082 7884 9160 3988 
4 3081 5578 9480 3078 
4 9131 6406 6232 9134 
4 7274 7273 5391 5201 
4 2812 9433 7232 2810 
4 8195 8194 8818 4594 
4 5808 3978 9553 5810 
4 6543 8310 8311 8873 
4 6613 7717 3418 8932 
4 3890 5528 6114 10024 
4 6410 6411 9124 6240 
4 8333 8335 8921 6514 
4 8353 8957 8351 6493 
4 3523 8810 6674 4463 
4 2835 9422 7221 2833 
4 8226 8225 4545 9069 
4 8195 4590 4594 4458 
4 5557 9501 3038 3037 
4 3108 5593 3111 9465 
4 2929 7174 5307 9374 
4 6548 8305 6549 8861 
4 7361 7842 4819 3178 
4 8858 7639 7643 6651 
4 4653 4652 7695 6625 
4 8284 6359 6361 9006 
4 7128 6396 2677 2678 
4 6449 6318 6450 9045 
4 6283 4536 8323 8321 
4 4603 8278 8280 6369 
4 2809 2808 2811 9434 
4 6676 8808 7593 7589 
4 2746 9016 7061 7059 
4 7300 8156 5175 5174 
4 8849 6556 8298 8299 
4 5363 7302 5173 5172 
4 9847 6749 7027 3550 
4 8792 8359 8269 4384 
4 6432 7092 2714 2713 
4 6730 4763 7802 8494 
4 5493 9388 2902 2901 
4 6457 6458 9029 6334 
4 2949 7163 9364 2951 
4 5123 3695 8380 8379 
4 8303 6549 8859 6781 
4 9389 2899 7188 2901 
4 8228 4425 8886 4541 
4 8933 8935 3423 6506 
4 7094 7092 2713 9082 
4 4571 8209 4573 4444 
4 7573 3190 3731 7566 
4 8323 8897 8321 6528 
4 6583 6582 8276 8805 
4 8214 8856 8858 4439 
4 8806 4464 8808 8189 
4 6006 8589 4622 4810 
4 8328 8909 6520 6519 
4 8975 2669 8587 5039 
4 5236 6752 399 579 
4 573 5825 5824 8690 
4 8206 4576 4575 4447 
4 4430 8876 4429 6642 
4 491 5916 5915 8781 
4 8199 4588 4586 4454 
4 8279 8278 6371 8993 
4 6223 4493 8353 8351 
4 8876 3464 8874 7659 
4 5363 7302 7301 5173 
4 9084 6281 9085 8325 
4 7310 7311 3030 9504 
4 7134 6700 2768 2671 
4 6310 6446 6445 9053 
4 2891 9393 2890 2893 
4 7240 8135 5051 5050 
4 7078 6446 7079 9052 
4 8975 4841 4476 8269 
4 5136 7155 5326 2967 
4 3140 9449 5609 3143 
4 7674 7672 4762 9798 
4 6749 8136 7027 5225 
4 2874 2873 9402 2872 
4 4464 4599 8189 4602 
4 2873 9403 7202 2871 
4 7139 6699 2672 2668 
4 5037 7131 2675 2674 
4 575 8692 5823 5822 
4 6358 9005 6470 6469 
4 5105 5104 7186 8118 
4 9363 5518 2951 2952 
4 5097 7193 5098 8120 
4 8905 8326 6522 6523 
4 6441 6442 9061 6302 
4 7308 5167 3036 5357 
4 3505 7614 3507 8831 
4 4747 7791 3656 4748 
4 8545 7152 5433 2784 
4 9053 6310 4561 8218 
4 4649 4648 7703 3431 
4 8824 8826 8198 4455 
4 7207 9407 5274 2863 
4 4404 4513 4509 8249 
4 6543 6541 8310 8873 
4 7582 3536 7767 8799 
4 7059 7060 9014 6465 
4 4440 4441 8854 6653 
4 2740 7066 2739 6458 
4 7786 8517 3670 7630 
4 489 5914 5913 8783 
4 7659 3464 3467 4670 
4 9154 6211 4482 8357 
4 7231 8132 5060 5059 
4 7698 7694 4774 9812 
4 8496 5185 8151 7289 
4 5072 8128 5071 7219 
4 4562 4565 8214 4439 
4 572 5826 5825 8689 
4 5916 492 5917 8780 
4 7696 7690 4772 9809 
4 3026 7312 7313 9506 
4 9473 3095 3092 7279 
4 8925 8336 6510 6511 
4 2912 7181 9382 2914 
4 6279 4534 8324 8325 
4 6222 6402 6401 9141 
4 3479 6548 8861 8863 
4 4597 8193 4593 4460 
4 9747 7590 7594 4722 
4 571 5827 5826 8688 
4 493 5918 5917 8779 
4 7699 7701 3434 8916 
4 7703 3431 6619 8918 
4 570 5827 8687 5828 
4 494 5918 8778 5919 
4 8686 5828 5829 569 
4 495 8777 5920 5919 
4 5830 8685 5829 568 
4 496 8776 5921 5920 
4 8684 5830 5831 567 
4 8775 497 5921 5922 
4 5832 8683 5831 566 
4 498 8774 5923 5922 
4 8682 565 5832 5833 
4 8773 499 5923 5924 
4 5834 8681 5833 564 
4 8772 500 5924 5925 
4 5835 8680 5834 563 
4 5925 501 5926 8771 
4 562 5836 5835 8679 
4 8770 5927 502 5926 
4 5836 561 5837 8678 
4 5927 503 5928 8769 
4 560 5838 5837 8677 
4 504 5929 5928 8768 
4 5852 5853 8662 545 
4 5929 505 5930 8767 
4 5864 533 5865 8650 
4 5850 5851 8664 547 
4 5884 514 8631 5883 
4 5885 5884 513 8630 
4 516 5881 8633 5882 
4 5871 8644 5870 527 
4 5872 5873 8642 525 
4 5875 8640 5874 523 
4 5873 5874 8641 524 
4 5877 8637 520 5878 
4 5868 8647 5867 530 
4 5875 5876 8639 522 
4 5867 8648 5866 531 
4 5871 5872 8643 526 
4 5869 8646 5868 529 
4 5879 519 8636 5878 
4 5879 8635 518 5880 
4 5881 517 8634 5880 
4 8638 5876 5877 521 
4 8645 528 5869 5870 
4 8632 515 5882 5883 
4 8649 5866 532 5865 
4 5885 8629 512 5886 
4 5890 508 8625 5889 
4 8674 5840 5841 557 
4 509 8626 5889 5888 
4 515 5940 5939 8757 
4 507 5890 8624 5891 
4 517 5942 5941 8755 
4 516 5941 5940 8756 
4 528 8744 5953 5952 
4 8743 529 5953 5954 
4 527 8745 5952 5951 
4 8742 530 5954 5955 
4 526 8746 5951 5950 
4 523 8749 5948 5947 
4 8750 522 5946 5947 
4 8715 5981 5982 557 
4 8627 510 5887 5888 
4 8628 511 5886 5887 
4 506 5931 5930 8766 
4 5942 518 5943 8754 
4 5956 531 8741 5955 
4 5945 520 8752 5944 
4 5949 524 8748 5948 
4 5945 8751 521 5946 
4 5949 8747 525 5950 
4 5956 5957 8740 532 
4 5851 5852 8663 546 
4 5839 5840 8675 558 
4 8659 542 5855 5856 
4 8656 539 5858 5859 
4 508 5932 8764 5933 
4 519 5943 8753 5944 
4 5938 514 5939 8758 
4 509 8763 5934 5933 
4 8762 510 5934 5935 
4 8761 511 5935 5936 
4 512 8760 5937 5936 
4 535 5863 5862 8652 
4 544 5853 8661 5854 
4 537 5861 5860 8654 
4 8765 5932 507 5931 
4 5937 513 5938 8759 
4 5863 534 5864 8651 
4 5859 538 5860 8655 
4 540 8657 5858 5857 
4 541 8658 5857 5856 
4 543 8660 5855 5854 
4 5861 536 5862 8653 
4 8716 5980 5981 556 
4 5967 5968 8729 543 
4 5965 5966 8731 541 
4 5963 8734 5962 538 
4 5958 5959 8738 534 
4 5963 5964 8733 539 
4 5960 5961 8736 536 
4 5970 8727 5969 545 
4 5959 5960 8737 535 
4 5964 5965 8732 540 
4 5966 5967 8730 542 
4 537 5962 5961 8735 
4 8728 5968 5969 544 
4 5957 5958 8739 533 
4 5838 5839 8676 559 
4 5846 5847 8668 551 
4 5843 5844 8671 554 
4 5844 5845 8670 553 
4 5849 8666 5848 549 
4 5842 5843 8672 555 
4 5845 5846 8669 552 
4 5841 5842 8673 556 
4 5849 5850 8665 548 
4 8667 5847 5848 550 
4 5971 8726 5970 546 
4 5983 8714 5982 558 
4 5974 8723 5973 549 
4 5978 5979 8718 554 
4 5976 5977 8720 552 
4 5975 5976 8721 551 
4 5973 8724 5972 548 
4 5979 5980 8717 555 
4 5977 5978 8719 553 
4 8722 5974 5975 550 
4 8725 5971 5972 547 
4 506 8623 5892 5891 
4 8713 5983 5984 559 
4 8622 505 5892 5893 
4 8712 560 5984 5985 
4 8621 504 5893 5894 
4 8711 561 5985 5986 
4 8620 503 5894 5895 
4 8710 562 5986 5987 
4 8619 502 5895 5896 
4 5987 5988 8709 563 
4 5897 501 8618 5896 
4 5988 5989 8708 564 
4 500 5898 5897 8617 
4 565 5990 5989 8707 
4 499 5899 5898 8616 
4 5990 5991 8706 566 
4 498 5900 5899 8615 
4 5991 5992 8705 567 
4 5900 497 5901 8614 
4 5992 5993 8704 568 
4 496 5902 5901 8613 
4 8703 5993 5994 569 
4 7588 9742 7582 4718 
4 495 5902 8612 5903 
4 8702 5994 5995 570 
4 5904 8611 5903 494 
4 5996 8701 5995 571 
4 2884 9397 2882 5484 
4 5905 8610 5904 493 
4 5997 8700 5996 572 
4 7670 7668 4760 9795 
4 7592 7586 4720 9744 
4 8609 5905 5906 492 
4 9792 7662 7666 4758 
4 9351 8563 5625 5045 
4 5479 2874 2873 9402 
4 7612 9756 7606 4730 
4 7119 2687 2686 6231 
4 8699 5997 5998 573 
4 8283 8282 6363 9001 
4 2929 9374 2928 2930 
4 3488 6553 3486 8855 
4 5231 4619 3193 7571 
4 7600 7596 4724 9749 
4 7608 7604 4728 9754 
4 9825 4784 7714 7718 
4 4775 8482 7812 6736 
4 8315 8314 6299 9065 
4 5907 8608 5906 491 
4 2840 2839 9419 2838 
4 6741 7819 8472 4785 
4 2734 2735 6327 7071 
4 6635 6773 8891 6530 
4 4427 6639 8880 8882 
4 7602 7598 4726 9752 
4 7646 8509 7791 3654 
4 8134 7237 5053 5054 
4 8915 8913 6517 3437 
4 9750 3701 4700 4701 
4 3532 6584 8801 8803 
4 6553 8300 6554 8853 
4 7572 7366 6693 8075 
4 3154 3153 9443 3152 
4 8698 5998 5999 574 
4 2763 6384 7043 2764 
4 7570 3194 4620 5232 
4 2761 2762 7046 6480 
4 8127 7216 5074 5075 
4 9341 3291 7566 4281 
4 8945 8345 8347 6499 
4 8288 8289 9013 6351 
4 2883 2884 9397 2882 
4 5094 5093 7197 8121 
4 9471 3099 3096 7277 
4 3728 5626 6809 9350 
4 7580 3720 9740 8542 
4 9456 3126 7263 7262 
4 5606 3135 9452 3136 
4 8783 8784 9339 4942 
4 8693 8692 4851 9250 
4 2808 2811 9434 5447 
4 5138 5139 8542 7336 
4 6417 2699 2698 7107 
4 8965 7750 6599 3393 
4 3456 6636 4424 8888 
4 5163 8161 7312 7311 
4 9097 6267 8330 8331 
4 2846 2845 9416 2844 
4 5579 3081 9479 3082 
4 8607 5907 5908 490 
4 7091 9078 9076 2715 
4 3125 9458 3122 5600 
4 9086 6278 6429 6430 
4 6412 7113 2694 2693 
4 5123 5124 8378 7167 
4 5125 5126 8111 7165 
4 9801 4661 7679 7675 
4 6277 6275 9089 8327 
4 7647 7651 4675 9782 
4 6657 7631 4684 4685 
4 8119 7190 5100 5101 
4 9393 5488 2890 2893 
4 5034 8591 4178 6594 
4 3455 6531 8889 8891 
4 2786 7142 3767 2769 
4 6717 9764 8521 8162 
4 5301 2915 7180 5110 
4 8323 8897 6528 6527 
4 8290 8288 9016 6349 
4 9119 9121 6244 8251 
4 9737 4711 4712 3723 
4 9431 2816 2815 2814 
4 8920 4407 6617 8922 
4 8895 6772 8321 6528 
4 7140 2771 3768 2784 
4 5090 7200 2875 5281 
4 9047 6448 6449 6316 
4 9539 2975 3164 3163 
4 6545 8309 8307 8869 
4 2744 7062 2743 6462 
4 5028 4170 4370 9253 
4 6443 6442 6304 9059 
4 2850 2852 9413 5468 
4 7204 8122 5087 5086 
4 9348 8594 2971 7153 
4 9002 6364 6472 8999 
4 9010 6354 6467 6468 
4 6402 6224 9140 9141 
4 3590 7710 8477 7815 
4 8594 8555 7341 6005 
4 4375 5621 9159 5043 
4 9160 5044 4376 5622 
4 9428 5453 2820 2822 
4 9500 3041 5558 3038 
4 9039 8211 6324 4568 
4 2960 9980 5522 6109 
4 8091 4809 8588 8594 
4 5376 3075 7288 7289 
4 5910 8605 5909 488 
4 8226 4427 4546 4545 
4 7793 8507 3650 7648 
4 8399 5102 5103 7188 
4 5070 8432 5069 7221 
4 8794 3533 4471 6588 
4 3486 7638 8855 8853 
4 9120 6245 8342 8340 
4 8987 8990 6376 8185 
4 6545 6544 8309 8869 
4 2746 2747 7059 6465 
4 5530 9528 2985 2982 
4 4799 8458 7829 6748 
4 8194 4594 4593 4459 
4 6562 6786 8839 8293 
4 8354 8961 8355 6490 
4 6452 6453 9039 6324 
4 6563 6564 8837 8294 
4 2760 2761 7045 6479 
4 8194 8193 8816 4593 
4 9426 5455 2825 2826 
4 8804 4466 6677 4465 
4 5127 5128 8374 7163 
4 3028 9505 5553 3031 
4 2845 2846 9416 5465 
4 3739 7837 7833 8571 
4 5474 2865 2862 9407 
4 4765 7680 9802 8492 
4 3470 6647 7654 8873 
4 7223 8129 5068 5067 
4 3735 7831 9541 7753 
4 2839 2840 9419 5462 
4 5236 4382 7882 8100 
4 8478 6738 5203 7002 
4 9117 6247 8340 8341 
4 8348 8949 8349 6497 
4 7721 7818 6613 8934 
4 2687 2688 9132 7120 
4 7805 6632 7687 8900 
4 3503 3506 7613 4693 
4 2710 9088 7098 7095 
4 8822 8824 3508 7605 
4 5542 3008 3007 9516 
4 6681 8800 7587 7768 
4 2759 2760 7048 6478 
4 2757 7049 2756 6475 
4 2724 2725 7081 6443 
4 3440 4656 3443 7685 
4 5596 3116 3115 9462 
4 9440 2798 5441 2797 
4 6774 8887 6638 6532 
4 2736 2735 7072 9036 
4 4804 7832 3387 3392 
4 8828 8830 3503 7613 
4 5367 7298 3056 5177 
4 9249 3992 4193 4194 
4 4284 9338 4084 4285 
4 8577 8075 8571 4187 
4 8838 3497 8836 7619 
4 6558 6559 8845 8297 
4 7241 5240 5049 5050 
4 2682 7126 9144 2681 
4 4186 3737 8969 7578 
4 2816 9431 2815 5450 
4 4424 6636 4425 8886 
4 5626 8564 5046 9350 
4 2700 2699 7108 9108 
4 8194 8195 9007 4594 
4 2964 2965 2966 9356 
4 9789 4756 7660 7664 
4 7692 7686 4770 9807 
4 8571 7837 8559 3170 
4 6568 3505 3507 8831 
4 7719 3413 8938 8936 
4 4078 4280 9163 4938 
4 4782 7716 7712 9822 
4 7301 7302 8157 5173 
4 8406 5095 5096 7195 
4 7469 9249 3203 7468 
4 3297 9338 7561 7562 
4 3003 9518 5540 3004 
4 8305 8306 4563 6317 
4 8333 8919 6766 6514 
4 8802 8804 3526 7585 
4 6398 7127 2680 2679 
4 6623 7702 3436 4775 
4 9361 5520 2954 2956 
4 4785 3419 7722 6614 
4 9526 5532 2987 2988 
4 3513 6571 8825 8827 
4 437 2773 277 2775 
4 2777 478 427 2774 
4 7655 8868 3473 3469 
4 5136 3721 8367 8366 
4 9440 2798 2797 2796 
4 8949 8348 6496 6497 
4 5191 3084 7284 5381 
4 8354 8961 6490 6489 
4 9844 4625 3551 3549 
4 4512 8248 9113 6250 
4 8193 8816 4593 4460 
4 3000 2999 5538 9520 
4 2753 7053 2752 6471 
4 3449 7803 7679 8896 
4 2939 2940 9369 5512 
4 6745 7825 8464 4793 
4 9009 8287 6357 6355 
4 8955 6757 8351 6493 
4 2831 5458 2832 9423 
4 6784 6556 4572 8299 
4 8842 8840 6659 4447 
4 8788 5236 7882 8100 
4 2962 2960 5523 9358 
4 7719 4639 3413 3416 
4 4415 8238 8906 8904 
4 9351 5625 6808 5045 
4 3050 9495 3049 5563 
4 4661 3447 4660 7679 
4 9378 2922 5503 2920 
4 7577 6685 7579 4713 
4 6444 9055 9058 6308 
4 6211 9154 4482 8359 
4 10026 3798 6025 5439 
4 3417 4786 7720 3415 
4 7700 3433 3435 4776 
4 7153 6021 9849 8071 
4 7628 6660 3494 8843 
4 6328 6454 9038 9035 
4 3526 3529 7585 4706 
4 5155 7319 7320 3012 
4 2865 2862 9407 2863 
4 6405 6404 6228 9135 
4 9080 6286 6433 9077 
4 3471 7651 4674 4675 
4 7308 5167 7307 3036 
4 9071 6436 9073 7089 
4 8300 6554 8853 8301 
4 9404 2870 2869 2868 
4 7111 6413 2694 2695 
4 9788 7659 7657 4671 
4 3412 8943 7728 6609 
4 2832 2831 9423 2830 
4 5491 9390 2898 2897 
4 5516 9365 2948 2947 
4 6274 6427 9090 6428 
4 9365 2946 2948 2947 
4 2860 2859 5472 9409 
4 2682 9144 7124 9142 
4 9135 6228 4498 8259 
4 9033 9031 8207 6332 
4 4535 8894 8232 8233 
4 4508 9121 8252 8251 
4 8949 3410 7730 6606 
4 4389 8958 8956 8264 
4 4604 8188 8994 6370 
4 9079 6287 6285 4539 
4 8519 5162 8161 7312 
4 5029 9252 8697 8696 
4 3057 3059 9491 5567 
4 2722 9062 9064 7084 
4 4176 3889 6024 8074 
4 4777 7704 9816 8480 
4 7297 5368 3056 5177 
4 7283 3084 5191 5382 
4 6666 8830 4453 4452 
4 9477 5581 3085 3087 
4 2696 7110 9114 9116 
4 9103 6263 6261 4521 
4 3497 3500 7619 4689 
4 9390 2896 2898 2897 
4 3493 7632 6658 8847 
4 6703 7861 4844 4833 
4 2825 9426 2826 2824 
4 6582 3530 8807 8805 
4 3439 8909 8911 6519 
4 7760 7762 3540 4803 
4 8335 6512 8921 6514 
4 4794 3401 3407 7736 
4 6439 2721 2720 7085 
4 7329 5336 5145 5146 
4 8353 8957 6493 6492 
4 7478 7479 3380 9255 
4 6997 5215 6744 8466 
4 5572 3067 9486 3068 
4 4694 3506 7613 7609 
4 7293 5372 5181 5182 
4 3296 9339 7562 7563 
4 9250 7469 3202 7470 
4 6618 8925 7706 3430 
4 5225 8456 5226 3548 
4 7859 4843 6704 4834 
4 7742 8961 3397 6602 
4 2911 9383 2910 2913 
4 7827 8461 3560 3558 
4 8596 2969 3161 7342 
4 3454 8895 7680 6634 
4 6747 8460 7021 5221 
4 4837 4477 5037 9344 
4 8905 8907 3444 6522 
4 8915 6767 6516 6623 
4 7682 8901 3446 6633 
4 9376 5505 2925 2926 
4 7704 8919 6620 3435 
4 2793 9442 5439 2794 
4 8940 4398 8255 8938 
4 4413 8908 8240 8910 
4 6760 4501 8347 6499 
4 2745 2746 7061 6464 
4 4371 4170 5029 9252 
4 3720 5140 6994 8172 
4 6762 8935 6614 6504 
4 9044 6320 4566 8213 
4 6447 9049 9052 6314 
4 396 397 576 6701 
4 5477 9404 2870 2869 
4 9383 5498 2910 2913 
4 2996 9522 2995 5536 
4 8591 4178 6594 9850 
4 9254 5027 8698 8699 
4 2786 5434 7246 8546 
4 8347 8945 6499 6498 
4 9758 4694 3689 3687 
4 6413 9118 7112 7111 
4 2700 9106 9108 7106 
4 7571 3193 8104 3793 
4 7080 9054 2726 9056 
4 8566 3790 3773 6703 
4 7572 6693 7833 8075 
4 7750 4799 3396 6599 
4 8469 5212 8140 7262 
4 8280 8998 6367 6369 
4 7570 3194 8103 3794 
4 5594 3112 3111 9464 
4 7369 5044 5622 3186 
4 5621 7368 5043 3185 
4 4542 6291 6774 8318 
4 3797 4175 8072 6023 
4 7051 2755 2756 6474 
4 4519 8335 6766 6514 
4 9150 7129 2678 2679 
4 7064 2741 2742 6460 
4 8306 6547 8863 6780 
4 278 7146 3173 2773 
4 8234 8233 4537 9086 
4 5196 5386 7279 5195 
4 7314 9507 9508 3025 
4 9165 4936 8607 8608 
4 2692 7114 2691 6410 
4 7633 7637 4682 9773 
4 8275 6796 4611 6381 
4 7638 3488 3486 8855 
4 7339 9539 5420 9346 
4 2723 2724 7083 6442 
4 3175 426 7144 2774 
4 9848 3547 4624 3549 
4 6793 8280 4601 6367 
4 7277 5388 5197 5198 
4 5137 3723 8366 8365 
4 8291 8292 9019 6345 
4 6427 2709 2708 7097 
4 6559 6785 8843 8295 
4 6004 5236 399 579 
4 3105 5591 3107 9467 
4 9554 3884 6988 5718 
4 8284 6359 4595 6791 
4 3512 3510 7607 4697 
4 5142 7333 5141 5332 
4 8307 6545 8867 6779 
4 9341 7381 5233 9161 
4 2697 6416 2698 7109 
4 8826 6669 7611 7609 
4 6545 8309 4557 6779 
4 4508 4402 4510 8251 
4 7312 9505 9506 3028 
4 2692 7115 6411 2693 
4 2938 2939 2940 9369 
4 8866 8868 4434 3471 
4 4631 9838 7735 7739 
4 3454 7676 3452 4764 
4 9137 6403 6226 9140 
4 6293 4547 6774 8318 
4 7174 9374 9375 2928 
4 2862 7207 9408 9407 
4 7049 7050 8994 6475 
4 3572 7823 8467 3570 
4 7323 3007 9516 9517 
4 4542 6289 8319 8320 
4 8998 7052 9000 2754 
4 6591 8970 6686 8790 
4 4490 8264 9146 6218 
4 6777 8312 4553 6303 
4 8338 6764 6251 4514 
4 7476 9553 7475 6985 
4 8311 8310 6307 9057 
4 7634 3486 6655 8853 
4 9518 7325 3003 9519 
4 4800 7748 3395 3393 
4 2684 2685 9138 7123 
4 7118 2688 9132 9130 
4 7331 2990 7330 9524 
4 9525 7331 9524 2991 
4 4793 3405 7738 6604 
4 2708 6426 7100 2707 
4 3449 3445 7683 8896 
4 9128 6236 4503 8255 
4 9542 3986 8584 5430 
4 8887 7672 3459 6638 
4 5135 3719 8368 8367 
4 8858 8860 4438 6650 
4 8810 8808 6674 4463 
4 4406 4512 8924 8247 
4 9076 9074 6291 8319 
4 5582 9476 3088 3087 
4 3059 3060 9490 5568 
4 9337 3298 7561 7560 
4 9248 3204 7468 7467 
4 8939 7726 3417 6611 
4 7105 9102 2703 2702 
4 3011 7321 9515 9514 
4 2999 7327 9521 9520 
4 6431 7094 2713 2712 
4 7281 9474 3090 7280 
4 3506 4694 7613 4693 
4 8963 6755 6488 6599 
4 9496 7302 9495 3049 
4 2710 6429 2711 7095 
4 6567 6667 8831 6788 
4 6239 6237 9127 4504 
4 8417 8416 7205 5085 
4 5176 8504 5177 6725 
4 4390 4389 6601 8956 
4 7269 9463 3115 9462 
4 8689 8688 4855 9246 
4 8779 4946 8780 9335 
4 8688 8687 4856 9245 
4 8778 8779 9334 4947 
4 9244 8687 4857 8686 
4 8778 9333 8777 4948 
4 9243 4858 8685 8686 
4 8777 8776 4949 9332 
4 9242 4859 8684 8685 
4 8776 8775 4950 9331 
4 9241 4860 8683 8684 
4 8775 8774 4951 9330 
4 4861 9240 8683 8682 
4 8774 8773 4952 9329 
4 9239 4862 8681 8682 
4 8773 8772 4953 9328 
4 9238 4863 8680 8681 
4 8772 8771 4954 9327 
4 9237 4864 8679 8680 
4 8771 8770 4955 9326 
4 9236 4865 8678 8679 
4 8770 8769 4956 9325 
4 4866 9235 8678 8677 
4 8769 8768 4957 9324 
4 8717 8716 5009 9272 
4 4867 9234 8677 8676 
4 8663 8664 9221 4880 
4 9232 8674 8675 4869 
4 9323 8767 8768 4958 
4 9215 8657 8658 4886 
4 8662 8661 4882 9219 
4 8654 8653 4890 9211 
4 8657 8656 4887 9214 
4 8652 8651 4892 9209 
4 8661 9218 8660 4883 
4 8653 8652 4891 9210 
4 8659 8658 4885 9216 
4 8656 8655 4888 9213 
4 8660 8659 4884 9217 
4 4893 8651 8650 9208 
4 8727 8726 4999 9282 
4 4889 8655 8654 9212 
4 9230 8672 8673 4871 
4 8670 8671 9228 4873 
4 8668 8669 9226 4875 
4 8671 8672 9229 4872 
4 8669 8670 9227 4874 
4 8667 8668 9225 4876 
4 8665 8666 9223 4878 
4 8664 8665 9222 4879 
4 8666 8667 9224 4877 
4 4913 9188 8631 8630 
4 9205 4896 8647 8648 
4 9203 4898 8645 8646 
4 9197 8640 4904 8639 
4 9195 8638 4906 8637 
4 9204 4897 8646 8647 
4 9200 4901 8642 8643 
4 4868 9233 8676 8675 
4 9206 4895 8648 8649 
4 9190 4911 8632 8633 
4 8635 4909 9192 8634 
4 4908 8635 9193 8636 
4 8649 4894 8650 9207 
4 8638 9196 4905 8639 
4 8640 9198 4903 8641 
4 8662 8663 9220 4881 
4 4900 9201 8644 8643 
4 4899 9202 8645 8644 
4 4910 9191 8634 8633 
4 8629 4915 9186 8628 
4 4902 9199 8642 8641 
4 4907 9194 8637 8636 
4 8625 9182 8624 4919 
4 4912 9189 8632 8631 
4 9185 4916 8627 8628 
4 4918 9183 8626 8625 
4 4917 9184 8627 8626 
4 4914 8629 9187 8630 
4 8728 8727 4998 9283 
4 8736 8737 9292 4989 
4 8736 9291 8735 4990 
4 9290 8734 8735 4991 
4 8738 8739 9294 4987 
4 8737 8738 9293 4988 
4 8731 8732 9287 4994 
4 8732 8733 9288 4993 
4 8730 8731 9286 4995 
4 8733 8734 9289 4992 
4 8728 8729 9284 4997 
4 8729 8730 9285 4996 
4 8717 5008 8718 9273 
4 9271 8716 5010 8715 
4 8725 8724 5001 9280 
4 8722 8721 5004 9277 
4 8724 8723 5002 9279 
4 8719 8718 5007 9274 
4 8723 8722 5003 9278 
4 8721 8720 5005 9276 
4 8720 8719 5006 9275 
4 8726 8725 5000 9281 
4 8767 8766 4959 9322 
4 8751 4975 9306 8750 
4 8747 4979 9302 8746 
4 8765 4960 8766 9321 
4 9312 4969 8756 8757 
4 4971 9310 8755 8754 
4 4978 8747 9303 8748 
4 4980 8745 9301 8746 
4 4983 9298 8743 8742 
4 8745 4981 9300 8744 
4 9299 4982 8743 8744 
4 4973 9308 8753 8752 
4 9305 4976 8749 8750 
4 4977 9304 8749 8748 
4 4974 8751 9307 8752 
4 9297 4984 8741 8742 
4 9313 4968 8757 8758 
4 4972 9309 8754 8753 
4 9311 4970 8755 8756 
4 8739 8740 9295 4986 
4 8741 9296 8740 4985 
4 4965 9316 8761 8760 
4 4964 9317 8762 8761 
4 4967 9314 8759 8758 
4 4966 9315 8760 8759 
4 9320 8765 4961 8764 
4 9319 4962 8763 8764 
4 9318 4963 8762 8763 
4 5011 9270 8715 8714 
4 8624 8623 4920 9181 
4 8673 8674 9231 4870 
4 9269 5012 8713 8714 
4 8623 8622 4921 9180 
4 9268 5013 8712 8713 
4 8622 8621 4922 9179 
4 8711 9267 5014 8712 
4 9178 4923 8620 8621 
4 9266 8711 5015 8710 
4 8620 8619 4924 9177 
4 5016 9265 8710 8709 
4 8619 8618 4925 9176 
4 5017 9264 8709 8708 
4 8618 8617 4926 9175 
4 9263 5018 8707 8708 
4 8617 8616 4927 9174 
4 5019 9262 8707 8706 
4 8616 8615 4928 9173 
4 5020 9261 8706 8705 
4 8615 8614 4929 9172 
4 9260 5021 8704 8705 
4 8614 8613 4930 9171 
4 3718 6707 7767 8541 
4 5022 9259 8704 8703 
4 8613 9170 8612 4931 
4 5023 9258 8703 8702 
4 9169 8612 4932 8611 
4 7322 7323 3006 9516 
4 8690 8689 4854 9247 
4 8780 8781 9336 4945 
4 9257 5024 8701 8702 
4 9168 4933 8610 8611 
4 9488 7295 3063 9489 
4 5025 9256 8701 8700 
4 9518 3002 7325 7324 
4 2743 7065 2742 6461 
4 3768 7845 2784 4817 
4 4934 9167 8610 8609 
4 9475 9474 3091 7281 
4 8277 6375 6377 8989 
4 6255 9109 8337 8336 
4 9093 6273 6271 8329 
4 9255 5026 8699 8700 
4 6605 4395 8946 8944 
4 3286 7385 7386 9166 
4 9485 9484 3071 7291 
4 9426 2825 9427 7226 
4 8967 7752 3395 6596 
4 7258 5217 7257 3137 
4 2998 7326 7327 9520 
4 8691 8690 4853 9248 
4 8781 8782 9337 4944 
4 9484 3070 7291 7290 
4 7613 3503 4693 7780 
4 4935 9166 8609 8608 
4 6576 6575 8282 8817 
4 7320 7321 3010 9514 
4 8485 8147 3608 7000 
4 7873 4831 422 3783 
4 3781 7875 282 4829 
4 9488 7295 7294 3062 
4 6627 4654 6628 7689 
4 8314 8881 6537 6536 
4 9101 6262 9104 6421 
4 8442 7822 4635 7731 
4 4572 8299 8301 6329 
4 3789 8565 8553 4843 
4 3159 9538 3160 2789 
4 7797 3464 7659 4670 
4 3043 3045 9498 5560 
4 7729 7731 3409 8946 
4 3045 3046 9497 5561 
4 3487 3485 7633 4682 
4 7055 2751 2752 6470 
4 9510 3019 3021 5548 
4 8228 8227 4544 9073 
4 8358 8965 6488 6487 
4 4801 8456 6749 3548 
4 2750 2751 7056 6469 
4 9509 5549 3021 3022 
4 7096 6430 2711 2712 
4 9042 2733 7075 2732 
4 9472 3094 7279 7278 
4 9462 7269 7268 3114 
4 6305 8312 6303 9062 
4 7334 7335 2983 9528 
4 8338 6251 6253 9114 
4 9839 8462 4795 7740 
4 3535 8796 3531 7583 
4 9078 7093 2714 2715 
4 5190 5191 6732 8490 
4 6597 7749 8962 8964 
4 7685 3440 8904 8902 
4 8808 8810 6674 7593 
4 9758 7613 3687 8384 
4 9066 6298 4550 8224 
4 2749 2750 7058 6468 
4 7009 3712 8170 8537 
4 7845 3768 3761 4817 
4 9850 3179 7358 8971 
4 7016 3612 8148 8487 
4 7013 3590 8477 6739 
4 8856 4440 8854 6653 
4 9071 9069 6437 7088 
4 8860 8858 7643 6650 
4 8599 3789 8565 8553 
4 2737 2738 7069 6456 
4 9507 3025 3027 5551 
4 7232 8444 8443 5058 
4 8501 8154 3640 7015 
4 7154 5136 5327 2967 
4 7707 8920 6617 8922 
4 300 7838 3741 2780 
4 404 7840 3742 2782 
4 3789 3775 8565 6704 
4 5132 7158 5322 2958 
4 5028 9253 8698 8697 
4 8073 7975 3979 9552 
4 7191 5099 8403 8402 
4 5272 7208 2858 5082 
4 7175 2924 5305 5115 
4 6654 6552 6782 8855 
4 3121 9460 3119 5598 
4 6008 6803 8098 5818 
4 8097 6007 6802 5817 
4 4512 4406 4516 8247 
4 7333 2986 7332 9526 
4 9118 9115 6248 6414 
4 2709 6428 2710 7098 
4 3129 9455 5603 3131 
4 8589 8593 8092 4810 
4 8951 6758 6495 6604 
4 7293 9486 3066 7292 
4 8107 8594 8596 6207 
4 6636 4424 8888 8886 
4 8876 8878 4429 6642 
4 6683 4710 3533 7764 
4 2684 2683 7122 6225 
4 4818 3759 3767 7847 
4 7329 9522 2994 7328 
4 4621 3541 8588 7756 
4 6384 8982 7043 8980 
4 3324 7534 7535 9311 
4 3228 9224 7443 7444 
4 8301 8300 6327 9037 
4 8236 4530 6274 9090 
4 6272 8237 9091 9094 
4 8287 6790 4595 6357 
4 573 393 394 5824 
4 9133 6231 8348 8349 
4 6984 3189 7382 3290 
4 311 310 491 5915 
4 7089 6436 2717 2718 
4 9163 4938 8605 8606 
4 8874 8872 7657 6644 
4 9092 2708 7097 7100 
4 3632 7012 8497 8152 
4 8782 8783 9338 4943 
4 8692 8691 4852 9249 
4 7082 7081 6443 9058 
4 8527 8165 3692 7023 
4 4534 6277 8324 8327 
4 4464 4599 8808 8189 
4 2695 7112 2696 9116 
4 3636 6999 8499 8153 
4 4396 4500 4497 8257 
4 8207 4574 4576 4446 
4 3499 6563 8837 8839 
4 7016 6734 3610 8487 
4 393 572 392 5825 
4 312 311 492 5916 
4 8811 6793 6578 6675 
4 9145 6219 8354 8355 
4 7538 7539 3320 9315 
4 3224 9228 7447 7448 
4 8535 8169 3708 6998 
4 7009 3710 8537 6709 
4 3076 5187 7288 7287 
4 4562 8214 8858 4439 
4 8809 6579 6580 8278 
4 2905 7185 7186 9386 
4 7536 7537 3322 9313 
4 9226 3226 7446 7445 
4 571 391 392 5826 
4 313 312 493 5917 
4 8270 6590 4478 6797 
4 8943 6760 8345 6499 
4 570 390 391 5827 
4 314 313 494 5918 
4 5828 390 389 569 
4 495 315 314 5919 
4 388 5829 389 569 
4 316 497 317 5921 
4 387 5830 388 568 
4 495 316 315 5920 
4 498 318 317 5922 
4 5831 387 386 567 
4 318 499 319 5923 
4 319 500 320 5924 
4 501 321 320 5925 
4 322 321 502 5926 
4 5879 519 339 338 
4 5882 516 336 335 
4 5875 523 343 342 
4 5877 521 341 340 
4 5881 517 337 336 
4 518 5880 337 338 
4 5866 351 531 352 
4 522 5876 341 342 
4 520 340 5878 339 
4 515 5883 334 335 
4 509 5889 328 329 
4 5890 508 328 327 
4 5884 514 334 333 
4 513 5885 332 333 
4 511 331 5887 330 
4 510 5888 329 330 
4 326 325 506 5930 
4 344 5874 524 343 
4 347 528 5870 348 
4 5868 350 349 530 
4 5872 346 345 526 
4 347 346 5871 527 
4 5873 344 525 345 
4 5867 351 350 531 
4 348 5869 349 529 
4 327 326 507 5931 
4 5942 518 337 338 
4 344 5949 525 345 
4 351 5956 531 352 
4 334 515 335 5939 
4 349 348 529 5953 
4 347 528 348 5952 
4 350 349 530 5954 
4 347 346 527 5951 
4 351 350 531 5955 
4 341 522 342 5946 
4 346 345 526 5950 
4 521 5945 341 340 
4 331 512 5886 332 
4 517 337 336 5941 
4 519 339 338 5943 
4 516 336 335 5940 
4 520 340 339 5944 
4 524 344 343 5948 
4 523 343 342 5947 
4 508 5932 328 327 
4 326 327 507 5891 
4 328 509 329 5933 
4 329 510 330 5934 
4 332 513 333 5937 
4 331 512 332 5936 
4 511 331 330 5935 
4 514 334 333 5938 
4 353 533 352 5865 
4 377 376 5841 557 
4 533 5957 353 352 
4 5840 558 378 377 
4 325 324 505 5929 
4 5981 376 377 557 
4 534 353 354 5864 
4 325 326 506 5892 
4 367 366 5851 547 
4 366 5970 365 546 
4 366 365 5852 546 
4 536 355 356 5862 
4 538 357 358 5860 
4 365 5853 545 364 
4 364 5968 363 544 
4 355 5960 536 356 
4 363 5967 362 543 
4 357 537 5961 356 
4 357 5962 538 358 
4 360 5964 359 540 
4 362 363 543 5855 
4 359 360 540 5858 
4 360 361 541 5857 
4 361 362 542 5856 
4 363 364 544 5854 
4 358 359 539 5859 
4 357 537 356 5861 
4 355 535 354 5863 
4 5965 360 361 541 
4 5963 358 359 539 
4 5969 365 545 364 
4 5966 361 362 542 
4 5958 534 353 354 
4 5959 355 535 354 
4 372 371 5846 552 
4 375 374 5843 555 
4 370 369 5848 550 
4 5842 376 375 556 
4 371 370 5847 551 
4 373 372 5845 553 
4 369 368 5849 549 
4 368 367 5850 548 
4 373 5844 374 554 
4 372 5976 371 552 
4 5972 367 368 548 
4 369 5973 368 549 
4 371 5975 370 551 
4 559 5839 378 379 
4 558 5982 378 377 
4 375 5979 374 555 
4 372 373 5977 553 
4 5971 366 367 547 
4 376 5980 375 556 
4 5974 369 370 550 
4 5978 373 374 554 
4 5983 559 378 379 
4 5927 322 323 503 
4 324 323 504 5928 
4 324 325 505 5893 
4 560 380 5838 379 
4 380 560 5984 379 
4 561 380 381 5837 
4 323 324 504 5894 
4 380 561 381 5985 
4 381 562 5836 382 
4 322 323 503 5895 
4 562 381 5986 382 
4 563 5835 382 383 
4 321 322 502 5896 
4 5987 563 382 383 
4 384 5834 564 383 
4 5832 386 385 566 
4 565 5833 384 385 
4 321 501 320 5897 
4 5988 384 564 383 
4 500 319 320 5898 
4 5989 565 384 385 
4 499 318 319 5899 
4 386 5990 385 566 
4 318 498 317 5900 
4 387 5991 386 567 
4 497 316 317 5901 
4 5992 387 388 568 
4 5993 388 389 569 
4 316 495 315 5902 
4 390 5994 389 569 
4 495 315 5903 314 
4 390 5995 570 391 
4 313 5904 314 494 
4 6439 7086 7085 9066 
4 5996 571 391 392 
4 5905 313 312 493 
4 9474 5584 3091 3093 
4 6574 6672 8819 6791 
4 6775 8883 6640 6535 
4 9330 3305 7554 7553 
4 3211 9241 7460 7461 
4 4399 4398 6610 8938 
4 2939 7169 9370 9369 
4 8485 3606 6735 7000 
4 8592 4177 5033 6593 
4 572 5997 393 392 
4 311 5906 312 492 
4 8806 8804 6677 4465 
4 3716 6995 8539 8171 
4 8501 6727 7015 3638 
4 3561 8447 9838 7739 
4 6451 6322 9041 9044 
4 3299 9336 7559 7560 
4 3205 9247 7466 7467 
4 2720 6438 7087 2719 
4 8506 8156 6724 5175 
4 4501 6233 8347 8349 
4 3041 3040 9499 3043 
4 307 5911 5910 487 
4 577 6001 6002 397 
4 9481 3078 3076 7287 
4 8322 8893 6530 6529 
4 4656 8421 3613 7685 
4 7298 7297 3056 5177 
4 3011 5544 3013 9514 
4 6752 8788 578 579 
4 9527 7333 9526 2987 
4 6440 9063 9066 6300 
4 8427 7811 4650 7701 
4 8604 577 6001 6002 
4 7077 9050 9048 2729 
4 8451 7828 4626 7749 
4 7237 9437 2803 7236 
4 8529 8166 3696 7020 
4 5574 9484 3073 3071 
4 7365 8974 8972 6009 
4 3302 9333 7556 7557 
4 3208 9244 7463 7464 
4 7387 7388 3284 9168 
4 7251 3148 7252 5223 
4 9459 3122 3120 7265 
4 8531 8167 3700 7018 
4 8533 8168 3704 7011 
4 7735 4631 3402 3400 
4 8475 8143 3588 7019 
4 3505 7614 8831 8829 
4 9110 6417 7107 7108 
4 3281 7390 7391 9171 
4 9000 7054 2753 2754 
4 7484 7485 3374 9261 
4 7393 7394 3278 9174 
4 7487 7488 3371 9264 
4 9213 7433 7432 3239 
4 7523 7524 3335 9300 
4 7396 7397 3275 9177 
4 7429 9210 7430 3242 
4 7520 9297 7521 3338 
4 7490 7491 3368 9267 
4 7399 7400 3272 9180 
4 9294 3341 7518 7517 
4 7427 7426 9207 3245 
4 7493 7494 3365 9270 
4 7408 7409 3263 9189 
4 9273 3362 7497 7496 
4 9279 3356 7503 7502 
4 9276 3359 7500 7499 
4 7403 3269 7402 9183 
4 9282 3353 7506 7505 
4 7411 7412 3260 9192 
4 7405 7406 3266 9186 
4 3257 7414 7415 9195 
4 3344 9291 7514 7515 
4 3248 7423 7424 9204 
4 9285 3350 7509 7508 
4 9288 3347 7512 7511 
4 7421 3251 7420 9201 
4 7418 3254 7417 9198 
4 9216 7436 7435 3236 
4 7526 7527 3332 9303 
4 6481 7044 8983 8981 
4 7270 7271 8144 5204 
4 3017 3016 9511 3019 
4 7529 7530 3329 9306 
4 9219 7439 7438 3233 
4 3162 6391 6017 8977 
4 3065 9488 3063 5570 
4 7067 7066 6458 9028 
4 4621 8555 8545 7756 
4 7271 7272 8478 5203 
4 3308 9327 7550 7551 
4 3214 9238 7457 7458 
4 5998 573 393 394 
4 310 5907 311 491 
4 7386 7387 3285 9167 
4 8335 6257 8337 4519 
4 9524 5534 2991 2993 
4 7583 4709 7766 8368 
4 6578 6577 8281 8813 
4 6574 6573 8285 8821 
4 4937 9164 8607 8606 
4 6569 6568 8288 8829 
4 8988 2760 7045 7048 
4 7103 9102 9100 2703 
4 3053 3054 9493 5565 
4 7454 9234 3218 7453 
4 3312 9323 7546 7547 
4 9232 7451 3220 7452 
4 9321 3314 7545 7544 
4 7542 9319 7543 3316 
4 7481 7482 3377 9258 
4 7075 7074 6450 9044 
4 8421 8124 5081 3613 
4 7127 9150 9148 2679 
4 8531 3698 6712 7018 
4 9335 3300 7559 7558 
4 3206 9246 7465 7466 
4 7208 7209 5272 2858 
4 7092 9080 6432 7093 
4 9236 7455 3216 7456 
4 9325 3310 7549 7548 
4 9146 6220 6400 9143 
4 6728 3634 6999 8499 
4 8356 6755 8358 6488 
4 3127 9457 3125 5601 
4 6019 9155 6209 2676 
4 3303 9332 7555 7556 
4 9243 3209 7463 7462 
4 3084 7283 5191 7284 
4 9469 3102 3100 7275 
4 6540 6645 8875 6777 
4 8556 8593 6006 7344 
4 8927 6764 6509 6616 
4 8535 3706 6710 6998 
4 3714 6995 6708 8539 
4 8877 6539 6540 8313 
4 8339 8929 6509 6508 
4 6717 9764 8520 4737 
4 8226 4427 8880 8882 
4 395 574 394 5823 
4 5114 3679 8388 8115 
4 9230 7449 3222 7450 
4 7540 7541 3318 9317 
4 8527 3690 6714 7023 
4 310 309 490 5914 
4 5131 3713 8371 8109 
4 3630 7012 6729 8497 
4 8915 6623 7702 7812 
4 8529 3694 6713 7020 
4 7819 8935 7722 6614 
4 9329 3306 7553 7552 
4 9240 3212 7460 7459 
4 8533 3702 6711 7011 
4 6297 4549 6775 8316 
4 3147 3149 9446 5612 
4 7531 7532 3327 9308 
4 7441 9221 3231 7440 
4 3586 8475 7019 6740 
4 3668 7788 8515 3666 
4 7762 3725 4803 9736 
4 6203 8071 7885 3887 
4 8602 8098 8082 5818 
4 8097 8601 5817 8081 
4 8334 8917 6516 6515 
4 3053 9493 7300 9494 
4 8316 6775 8317 6535 
4 7327 5338 5147 5148 
4 3307 9328 7551 7552 
4 3213 9239 7458 7459 
4 4526 8240 9098 6266 
4 7175 2924 7176 5305 
4 7480 7481 3378 9257 
4 7158 7159 5322 2958 
4 7323 5342 5151 5152 
4 3101 3099 5588 9470 
4 2738 7068 6457 2739 
4 4643 3422 7715 3420 
4 7657 8872 7653 6646 
4 5340 7325 5150 5149 
4 8340 8933 6507 6506 
4 7062 7065 9022 2743 
4 4515 8246 8245 9110 
4 6111 2965 5524 10025 
4 8503 6726 7007 3642 
4 6480 7046 8986 8983 
4 3770 7878 8552 3744 
4 7879 8551 3771 3745 
4 6459 9025 9028 6338 
4 7298 3055 3057 9492 
4 7224 8436 8435 5066 
4 2706 7102 9096 2705 
4 3621 8417 9801 7679 
4 2724 2725 6307 7081 
4 5215 8466 7260 7259 
4 6392 6018 3166 8978 
4 3291 5627 3189 7380 
4 9482 5576 3074 3077 
4 6733 3614 7008 8489 
4 8438 3579 4639 7719 
4 7193 9393 2891 7192 
4 2758 2759 7047 6477 
4 4634 9834 7729 7733 
4 6635 7678 8891 3457 
4 8969 6592 8271 8789 
4 9737 7763 7762 4712 
4 4612 4610 8183 4470 
4 5814 8094 3984 8070 
4 4425 8228 4544 4541 
4 4666 9793 3633 4667 
4 8093 5813 8069 3983 
4 9061 6302 4551 8222 
4 8436 9824 3583 7717 
4 3304 9331 7554 7555 
4 3210 9242 7461 7462 
4 8310 4555 6307 9060 
4 3139 9451 7257 3137 
4 8444 9834 3567 7733 
4 5396 7269 5206 5205 
4 6797 8272 6383 6384 
4 2698 2699 6255 7107 
4 7528 7529 3330 9305 
4 9218 7438 7437 3234 
4 9170 7390 7389 3282 
4 3375 7483 7484 9260 
4 7434 9215 7435 3237 
4 7525 7526 3333 9302 
4 7392 7393 3279 9173 
4 7486 9263 7487 3372 
4 7431 9212 7432 3240 
4 7522 7523 3336 9299 
4 3276 7395 7396 9176 
4 7489 7490 3369 9266 
4 3339 7520 9296 7519 
4 9209 7429 7428 3243 
4 7398 7399 3273 9179 
4 7492 7493 3366 9269 
4 3342 9293 7516 7517 
4 7426 3246 7425 9206 
4 7401 7402 3270 9182 
4 3360 9275 7498 7499 
4 9278 3357 7502 7501 
4 3354 9281 7504 7505 
4 7417 3255 7416 9197 
4 7413 7414 3258 9194 
4 7410 7411 3261 9191 
4 7404 7405 3267 9185 
4 3363 9272 7495 7496 
4 7407 7408 3264 9188 
4 3345 9290 7513 7514 
4 3348 9287 7510 7511 
4 3351 9284 7507 7508 
4 3252 7419 7420 9200 
4 3249 7422 7423 9203 
4 3097 3095 5586 9472 
4 6379 8275 6796 4609 
4 2731 7076 2730 6449 
4 7566 9341 4281 7881 
4 7296 7297 8155 5178 
4 7366 7566 3292 7881 
4 8842 8206 8840 4447 
4 7283 5192 8149 7282 
4 3014 5546 3017 9512 
4 7253 7254 8460 5221 
4 3085 9478 7284 3083 
4 6232 9131 9134 8257 
4 5184 5183 5374 7291 
4 8157 7302 8509 5172 
4 2786 4818 3767 7847 
4 8450 9842 3555 7745 
4 8429 9815 3597 7703 
4 5164 8160 8517 7310 
4 2965 2962 5524 9357 
4 6255 9112 8336 4517 
4 7479 7480 3379 9256 
4 6694 4188 7835 8076 
4 9503 3034 5555 3033 
4 5050 8452 3551 3549 
4 3014 7319 9513 9512 
4 7321 5344 5153 5154 
4 3408 8947 7730 6606 
4 2757 7050 2758 8992 
4 8556 7757 8546 4622 
4 7844 3179 3765 4820 
4 9827 9828 3578 7720 
4 5143 5144 7331 5334 
4 5118 8383 8384 7172 
4 2749 7057 2748 6467 
4 3598 7700 9814 9816 
4 9522 7329 2995 9523 
4 3067 7293 9487 9486 
4 6204 6022 8073 3979 
4 2790 8069 5041 3983 
4 8438 8130 5064 3579 
4 8076 4188 8572 8578 
4 7238 8450 8449 5052 
4 8578 9533 8100 6004 
4 5190 7285 5380 3083 
4 3986 4836 8584 6390 
4 8428 8429 5073 7217 
4 9483 9482 3074 7289 
4 8959 7742 3399 6602 
4 7619 3500 4690 4689 
4 4751 7795 3472 7652 
4 3984 8070 2976 5042 
4 8923 6618 7706 3428 
4 8473 7819 3582 7718 
4 4819 7842 3763 3178 
4 3602 7698 8483 7812 
4 5208 5207 5398 7267 
4 7807 4656 3440 7685 
4 9334 3301 7558 7557 
4 9245 3207 7465 7464 
4 5121 3693 8381 8112 
4 8440 7229 8441 5061 
4 8425 8426 5076 7214 
4 6793 4603 8280 6369 
4 9735 4805 7759 8080 
4 4532 6769 8326 6522 
4 8330 8913 6518 6517 
4 5366 7299 3055 5176 
4 8277 6795 4609 6377 
4 6379 2760 2761 7045 
4 4835 3985 6389 8585 
4 9827 8471 3580 3578 
4 2809 9434 7233 7234 
4 7672 3459 6638 4761 
4 8065 6391 8553 4377 
4 4426 8227 4546 4544 
4 6556 6784 8847 8298 
4 6552 6550 8304 8857 
4 6670 4731 7610 3509 
4 8068 4179 6687 4835 
4 4639 7820 7719 3413 
4 5188 7029 3624 8493 
4 5218 7017 3564 8463 
4 7475 7476 6985 3383 
4 8423 3609 8125 5079 
4 9017 7063 6463 9020 
4 7628 3494 7624 8843 
4 9733 3189 7381 7382 
4 6351 2746 2747 7059 
4 8328 4528 6768 6519 
4 8276 6582 4607 6794 
4 4180 6688 8067 4836 
4 7243 8105 8454 6691 
4 8692 574 5823 8691 
4 6671 7606 3511 4729 
4 6673 7598 3519 4725 
4 8953 8352 6494 6495 
4 6615 3421 4783 7714 
4 6281 6279 9085 8325 
4 7585 3526 4706 7770 
4 3679 5114 5115 8115 
4 5106 7184 8395 8396 
4 3465 4757 6643 7662 
4 5914 490 8782 8783 
4 5370 7295 5180 5179 
4 7235 8447 8446 5055 
4 4393 3404 8948 8950 
4 574 5999 395 394 
4 5193 5194 7281 5384 
4 9737 4711 3723 9739 
4 5081 8124 5082 3613 
4 3713 5131 5132 8109 
4 2733 2734 7073 6452 
4 4714 6750 3722 8543 
4 5908 310 309 490 
4 6626 7694 3438 4773 
4 3528 6680 7586 4719 
4 8596 2969 5417 3161 
4 5186 5185 5376 7289 
4 7053 7054 9002 6471 
4 6678 7590 3527 4721 
4 9237 3215 7457 7456 
4 3309 9326 7549 7550 
4 6629 4771 7690 3441 
4 7349 8570 8179 4823 
4 6425 2706 7099 2707 
4 6790 8287 4592 6355 
4 6672 4727 7604 3515 
4 7668 3460 6640 4759 
4 3522 6675 7596 4723 
4 8483 8146 3604 6996 
4 7310 9503 9504 3033 
4 9027 9030 6337 2739 
4 9419 7219 7218 2838 
4 8091 3727 5227 9736 
4 7974 3797 6023 6025 
4 3447 4420 8896 8894 
4 7759 8974 3729 3795 
4 3723 9737 9739 8366 
4 7829 8963 7750 6599 
4 9151 6213 8357 8358 
4 7143 2772 7870 7848 
4 7141 7846 2770 7868 
4 9416 7216 7215 2844 
4 7632 3493 7630 8847 
4 8287 9008 9009 6357 
4 7063 2744 2745 6463 
4 7388 7389 3283 9169 
4 6434 7091 2716 2715 
4 3467 7659 4670 4671 
4 8199 8826 8828 4454 
4 9472 3095 9473 7279 
4 2979 9354 2977 3164 
4 8114 3683 5116 8386 
4 2961 2960 2962 9358 
4 8788 5236 8100 579 
4 5083 8419 8123 3617 
4 7482 7483 3376 9259 
4 7230 9431 7231 2814 
4 6648 3478 7652 8867 
4 3181 4830 7874 7360 
4 7598 6673 3519 8815 
4 7103 6422 2703 2704 
4 7003 9767 8519 8161 
4 6256 8245 9107 9110 
4 9217 7437 7436 3235 
4 7528 7527 9304 3331 
4 7606 6671 3511 8823 
4 7391 7392 3280 9172 
4 3373 7485 7486 9262 
4 3600 8481 3598 9814 
4 9214 7434 7433 3238 
4 7524 7525 3334 9301 
4 7395 3277 7394 9175 
4 7521 7522 3337 9298 
4 9211 7431 7430 3241 
4 7488 7489 3370 9265 
4 9178 7398 7397 3274 
4 7427 3244 9208 7428 
4 3340 9295 7518 7519 
4 7491 7492 3367 9268 
4 7400 7401 3271 9181 
4 9292 3343 7516 7515 
4 7425 3247 7424 9205 
4 9271 7494 3364 7495 
4 9280 3355 7504 7503 
4 3358 9277 7500 7501 
4 7413 3259 7412 9193 
4 3256 7415 7416 9196 
4 7409 7410 3262 9190 
4 3349 9286 7509 7510 
4 3352 9283 7506 7507 
4 9289 3346 7513 7512 
4 7403 7404 3268 9184 
4 7406 7407 3265 9187 
4 7418 9199 7419 3253 
4 9274 3361 7498 7497 
4 7422 3250 7421 9202 
4 6437 7088 2719 2718 
4 3421 6615 8931 7714 
4 6731 5189 8492 8150 
4 7876 4832 7359 3184 
4 7825 8951 7738 6604 
4 8879 3465 6643 7662 
4 8188 8806 8189 4602 
4 7150 3788 272 6993 
4 3786 6992 432 7148 
4 580 401 581 6798 
4 3727 3725 5227 9736 
4 2973 7340 5624 10029 
4 9220 3232 7440 7439 
4 7530 7531 3328 9307 
4 5623 10028 2787 7245 
4 7619 3497 4689 7784 
4 8794 4610 8183 8182 
4 3675 3673 5112 8390 
4 3628 7025 8495 8151 
4 6795 8277 4607 6375 
4 3584 7022 8473 8142 
4 8589 4622 4810 3389 
4 7476 7477 3382 9253 
4 7731 6605 8946 8944 
4 7300 8507 8156 5174 
4 7637 4681 8396 7789 
4 7455 7454 9235 3217 
4 9324 3311 7548 7547 
4 6764 8338 6253 4517 
4 6586 6682 8799 6796 
4 7826 8447 4630 7739 
4 3534 8797 7580 7584 
4 2720 2721 6299 7085 
4 7079 9050 2729 2728 
4 3180 4832 7359 7843 
4 9445 3150 3148 7251 
4 4830 7841 7360 3177 
4 3219 9233 7452 7453 
4 9322 3313 7546 7545 
4 9231 3221 7451 7450 
4 7543 7544 3315 9320 
4 7541 7542 3317 9318 
4 6770 6277 4534 8327 
4 3126 5212 7263 7262 
4 8589 9537 7757 3389 
4 7846 8567 4815 7245 
4 7340 8568 7848 4816 
4 8973 6010 8971 7362 
4 6635 7678 3457 4763 
4 8310 6541 4555 6777 
4 4532 6275 6770 8327 
4 7449 9229 3223 7448 
4 7539 7540 3319 9316 
4 7632 7788 4741 3489 
4 8991 6476 6372 8994 
4 8939 8937 8344 6503 
4 3717 5133 8108 8369 
4 6621 7701 8914 8916 
4 6568 3505 8831 8829 
4 4408 4518 4515 8245 
4 8237 8236 4531 9091 
4 9534 4475 7758 3198 
4 3412 8943 7724 7728 
4 2685 6404 2686 7121 
4 4386 6597 8962 8964 
4 4558 8868 8219 8220 
4 6435 7090 2717 2716 
4 5162 3026 7312 7313 
4 9349 3156 9347 6022 
4 6424 9095 9098 6268 
4 7441 3230 9222 7442 
4 7532 7533 3326 9309 
4 3229 9223 7442 7443 
4 7533 7534 3325 9310 
4 5064 8130 5065 3579 
4 7013 8144 8477 3592 
4 2710 2711 6279 7095 
4 2708 2709 6275 7097 
4 7077 2729 2730 6448 
4 3194 4180 7374 8103 
4 7375 3193 4179 8104 
4 5122 3693 5121 8112 
4 5310 7170 2935 5120 
4 3889 8064 6114 6024 
4 8293 8294 9023 6341 
4 2933 7172 9373 9372 
4 7341 5435 2972 3162 
4 4733 3507 7618 6667 
4 8269 4476 8102 4383 
4 9227 3225 7447 7446 
4 7537 7538 3321 9314 
4 6576 6673 8815 6792 
4 6330 9033 8208 4574 
4 9225 3227 7445 7444 
4 7535 7536 3323 9312 
4 7177 2921 5303 5113 
4 6790 6671 6572 8823 
4 3609 8125 5079 5080 
4 8883 7668 3460 6640 
4 7604 6672 3515 8819 
4 6407 2688 7118 2689 
4 8811 3522 6675 7596 
4 8418 7803 4659 7683 
4 6643 8879 6537 6776 
4 8931 6615 6763 6507 
4 9015 6348 6464 6465 
4 6771 6281 4536 8325 
4 7573 8553 4379 4377 
4 4439 8858 4438 6650 
4 7096 9083 9086 6430 
4 8808 4464 6674 4463 
4 3408 8947 7732 7730 
4 7005 9831 8469 8140 
4 4485 8358 6488 6487 
4 7470 3201 7471 6812 
4 3295 7563 6813 7564 
4 3675 5112 5113 8116 
4 6398 6397 9149 2679 
4 6645 3466 7660 8875 
4 8927 6616 7712 3425 
4 5120 3689 5119 8113 
4 6750 5138 8543 8173 
4 4415 6628 4416 8904 
4 3977 3976 6989 7976 
4 4499 6758 8348 6496 
4 9081 6282 6431 6432 
4 8066 8554 7575 4378 
4 9026 2741 7067 2740 
4 8104 8363 3793 8585 
4 6754 8967 8358 6487 
4 9851 7361 8972 3178 
4 4734 3502 3504 7616 
4 8314 6299 9065 9068 
4 8204 4578 4582 4449 
4 8214 4565 8213 8856 
4 4599 8808 8189 8190 
4 8103 8362 3794 8584 
4 3733 7376 4189 7371 
4 7377 3734 7373 4190 
4 8215 4562 8214 8858 
4 5824 573 8690 8691 
4 7686 3442 6631 4769 
4 8157 8509 9780 7024 
4 491 5915 8782 8781 
4 7788 7636 3489 8849 
4 4489 6755 8354 6489 
4 4654 8423 3609 7689 
4 6565 8292 8833 8835 
4 4755 6645 3466 7660 
4 6616 7712 3425 4781 
4 8966 3390 4385 6485 
4 7708 8921 3432 7814 
4 7858 3758 7862 7347 
4 7856 3756 7860 7346 
4 3484 4746 3482 7640 
4 3531 3535 7583 4709 
4 5046 7338 8106 9346 
4 8197 4589 4591 4456 
4 4715 7580 3720 4716 
4 8114 3683 5117 5116 
4 6352 9014 9011 6466 
4 5083 8123 5084 3617 
4 9543 3985 8585 5429 
4 5158 7004 3684 8523 
4 8996 8998 8280 6369 
4 7383 7384 3288 9164 
4 4939 5911 4845 8787 
4 3191 7475 6985 3384 
4 9340 4941 4082 4283 
4 4850 3990 9251 4192 
4 8471 5210 8141 7264 
4 4751 9783 8506 7652 
4 3626 7674 8495 7802 
4 6649 3481 7650 8863 
4 8459 7829 3554 7746 
4 9425 9424 2828 7224 
4 6377 8277 8989 8988 
4 2722 2723 7084 6441 
4 9440 2796 7240 7239 
4 8465 7825 3566 7734 
4 9770 7014 8160 8517 
4 4548 8878 8224 8225 
4 5813 8093 6015 3983 
4 8094 5814 3984 6016 
4 6716 5159 8522 8163 
4 2727 7080 2726 6445 
4 9788 4671 3643 3641 
4 9016 8288 9013 6351 
4 7653 6646 3469 4672 
4 7273 7274 8145 5201 
4 6273 9093 9092 8329 
4 9347 9349 6022 8073 
4 9005 9007 7056 6469 
4 4426 8884 8227 4544 
4 3717 5133 5134 8108 
4 7869 7142 2786 2769 
4 6569 6670 8827 6789 
4 7041 2764 2765 6394 
4 8596 5417 2970 3161 
4 2691 7117 9126 2690 
4 7671 6636 8888 8886 
4 3501 7626 6662 8839 
4 7887 5525 9356 9355 
4 8511 3660 7006 5170 
4 6415 7110 2697 2696 
4 8145 8480 5201 6737 
4 8105 3543 7831 9541 
4 7867 2771 7140 2784 
4 5825 572 8689 8690 
4 492 5916 8781 8780 
4 8278 8996 6371 8993 
4 10028 5041 5623 2787 
4 5624 2973 10029 5042 
4 8788 4846 6752 6002 
4 6359 2750 2751 7056 
4 3750 6484 3186 7569 
4 6483 7568 3185 3748 
4 9538 5419 7244 9345 
4 2848 9415 9414 7214 
4 8945 7823 3411 7732 
4 5137 5227 8107 5417 
4 3061 3060 3063 9489 
4 3088 9475 3091 3089 
4 8324 4534 6524 6526 
4 9385 7184 9384 2909 
4 8923 7706 7708 3428 
4 7744 8959 7742 3399 
4 8570 7757 7365 4814 
4 571 5826 8689 8688 
4 5917 493 8779 8780 
4 3165 9349 5418 3155 
4 7191 9391 9392 2894 
4 5056 8133 5057 3563 
4 2682 6401 2683 7124 
4 5827 570 8687 8688 
4 494 5918 8779 8778 
4 8686 8687 5828 569 
4 495 8778 8777 5919 
4 8685 8686 5829 568 
4 8776 496 8777 5920 
4 5830 8684 8685 567 
4 8775 497 8776 5921 
4 8683 8684 5831 566 
4 498 8775 8774 5922 
4 565 8683 8682 5832 
4 8773 499 8774 5923 
4 8681 8682 5833 564 
4 500 8773 8772 5924 
4 8680 8681 5834 563 
4 8772 501 5925 8771 
4 5835 562 8679 8680 
4 502 8770 5926 8771 
4 5836 561 8678 8679 
4 5927 8770 503 8769 
4 560 5837 8678 8677 
4 5928 504 8768 8769 
4 8677 5838 8676 559 
4 8676 5839 8675 558 
4 5929 505 8767 8768 
4 513 5884 8631 8630 
4 8674 5841 8673 556 
4 514 8632 8631 5883 
4 5980 8716 8717 556 
4 5840 8674 8675 557 
4 8642 5873 8641 524 
4 8638 5877 8637 520 
4 8644 5871 8643 526 
4 8640 5875 8639 522 
4 519 8637 8636 5878 
4 517 8635 8634 5880 
4 8663 5852 8662 545 
4 532 8649 5865 8650 
4 516 5881 8634 8633 
4 5874 8640 8641 523 
4 5876 8638 8639 521 
4 5872 8642 8643 525 
4 8644 8645 5870 527 
4 8635 5879 518 8636 
4 8647 8648 5867 530 
4 8645 528 8646 5869 
4 8648 8649 5866 531 
4 8646 8647 5868 529 
4 8632 515 8633 5882 
4 8716 5981 8715 557 
4 5939 515 8757 8758 
4 8629 5885 512 8630 
4 5940 516 8756 8757 
4 5941 517 8755 8756 
4 5957 8739 8740 533 
4 518 5942 8755 8754 
4 519 5943 8754 8753 
4 528 8745 8744 5952 
4 530 8743 8742 5954 
4 520 8753 8752 5944 
4 524 8749 8748 5948 
4 522 8751 8750 5946 
4 526 8747 8746 5950 
4 8751 5945 521 8752 
4 506 5930 8767 8766 
4 8747 5949 525 8748 
4 8741 5956 8740 532 
4 8664 5851 8663 546 
4 8743 529 8744 5953 
4 8745 527 8746 5951 
4 8741 531 8742 5955 
4 8749 523 8750 5947 
4 5890 8625 507 8624 
4 8627 510 8628 5887 
4 509 8627 8626 5888 
4 511 8629 8628 5886 
4 508 8626 8625 5889 
4 514 5938 8759 8758 
4 537 5860 8655 8654 
4 533 5864 8651 8650 
4 536 5861 8654 8653 
4 535 5862 8653 8652 
4 8656 538 5859 8655 
4 8659 542 8660 5855 
4 8656 539 8657 5858 
4 8657 540 8658 5857 
4 541 8659 8658 5856 
4 543 8661 8660 5854 
4 8760 513 5937 8759 
4 507 8765 5931 8766 
4 8763 509 8764 5933 
4 5932 8765 508 8764 
4 8762 510 8763 5934 
4 511 8762 8761 5935 
4 512 8761 8760 5936 
4 5863 534 8651 8652 
4 5853 8662 544 8661 
4 5968 8728 8729 544 
4 537 5961 8736 8735 
4 5962 8734 8735 538 
4 5964 8732 8733 540 
4 5960 8736 8737 536 
4 8738 5959 8737 535 
4 8730 5967 8729 543 
4 8732 5965 8731 541 
4 8739 5958 8738 534 
4 8731 5966 8730 542 
4 8727 8728 5969 545 
4 8734 5963 8733 539 
4 8671 5844 8670 553 
4 8669 5846 8668 551 
4 8665 5850 8664 547 
4 8666 5849 8665 548 
4 5842 8672 8673 555 
4 5847 8667 8668 550 
4 5843 8671 8672 554 
4 5845 8669 8670 552 
4 8666 8667 5848 549 
4 5971 8725 8726 547 
4 5976 8720 8721 552 
4 5979 8717 8718 555 
4 5978 8718 8719 554 
4 8722 5975 8721 551 
4 8720 5977 8719 553 
4 8723 8724 5973 549 
4 8714 8715 5982 558 
4 8724 8725 5972 548 
4 8722 8723 5974 550 
4 8726 8727 5970 546 
4 8623 506 8624 5891 
4 5983 8713 8714 559 
4 505 8623 8622 5892 
4 8712 560 8713 5984 
4 8621 504 8622 5893 
4 8711 561 8712 5985 
4 8620 503 8621 5894 
4 562 8711 8710 5986 
4 502 8620 8619 5895 
4 8710 5987 8709 563 
4 8618 501 8619 5896 
4 8709 5988 8708 564 
4 5897 500 8617 8618 
4 5989 565 8707 8708 
4 499 5898 8617 8616 
4 8707 5990 8706 566 
4 5899 498 8615 8616 
4 8706 5991 8705 567 
4 5900 497 8614 8615 
4 5992 8704 8705 568 
4 5901 496 8613 8614 
4 8704 5993 8703 569 
4 495 5902 8613 8612 
4 8702 8703 5994 570 
4 8611 8612 5903 494 
4 9430 7229 9429 2818 
4 8701 8702 5995 571 
4 7178 7177 5113 8116 
4 8610 8611 5904 493 
4 8844 8846 8208 4445 
4 5241 7240 7239 5051 
4 8700 8701 5996 572 
4 2736 6331 9034 7070 
4 6412 6413 9119 6244 
4 5910 5911 8603 487 
4 8609 8610 5905 492 
4 2807 9436 9435 7235 
4 9417 2842 9418 7217 
4 6627 4415 4414 8906 
4 6247 9120 9117 8340 
4 3720 6994 8541 8172 
4 9002 8191 6364 8999 
4 5120 7170 8113 7171 
4 8699 8700 5997 573 
4 4534 6279 6771 8325 
4 8282 9004 6363 9001 
4 8156 8507 9783 7028 
4 9827 4786 7722 7720 
4 8986 4612 8183 8184 
4 5108 3665 5107 8117 
4 8110 5130 7160 7161 
4 9439 9438 2800 7238 
4 9145 9148 6219 2680 
4 6218 9146 6400 6399 
4 5078 8126 7213 7212 
4 9129 6234 4502 8256 
4 5075 7216 5265 7215 
4 2722 6303 9062 7084 
4 3488 4745 6654 7642 
4 7092 2714 2713 6285 
4 8608 8609 5906 491 
4 7231 7230 5250 5060 
4 2696 7110 6251 9114 
4 5262 5072 7219 7218 
4 9405 2866 9406 7205 
4 9857 5529 9921 9529 
4 8896 8234 8233 4537 
4 7700 7702 4776 9814 
4 7227 7228 8131 5063 
4 2755 7052 2754 6473 
4 2700 6419 2701 7106 
4 8135 5051 5050 3551 
4 8409 3637 5093 3635 
4 8698 8699 5998 574 
4 7252 5412 7253 5222 
4 9432 2812 9433 7232 
4 2989 9525 2988 2991 
4 5224 3552 8457 7027 
4 7827 8957 7744 3403 
4 3594 7708 8479 9818 
4 8459 8137 3556 7001 
4 6226 9137 9140 8260 
4 9152 6396 7128 7129 
4 5167 5168 7307 5358 
4 4508 4402 8251 8932 
4 2883 7196 7197 9397 
4 579 580 8097 6007 
4 4402 4401 6613 8932 
4 8196 4590 6354 9010 
4 3980 8073 3979 5628 
4 2737 2736 6455 7070 
4 7759 3729 3197 3795 
4 3011 3009 3008 9515 
4 6669 3508 7611 4695 
4 8132 5060 5059 3569 
4 8128 5072 5071 3593 
4 6305 8312 9062 9060 
4 4789 7823 3411 7728 
4 6253 8338 9114 9112 
4 6554 6783 8851 8301 
4 6409 9125 9128 6238 
4 4824 8569 7351 8178 
4 6661 3497 7625 4688 
4 8328 8329 6769 6520 
4 4521 8334 6516 6515 
4 6408 6409 9128 6236 
4 6717 5161 8520 8162 
4 3069 9485 3068 3071 
4 5126 3701 5125 8111 
4 3651 8119 5100 5101 
4 3709 8110 5129 5130 
4 7632 8516 9770 4741 
4 9098 6424 6266 6423 
4 4488 8265 9147 6216 
4 5907 8607 8608 490 
4 4539 8322 6530 6529 
4 8122 5087 5086 3623 
4 8911 6768 6518 6626 
4 6580 6678 8807 6794 
4 8231 9080 6284 9081 
4 8361 6753 6019 6209 
4 8282 6575 4598 6791 
4 9531 3154 5616 6202 
4 8229 8228 8886 4541 
4 8288 8290 4587 6349 
4 8510 8158 9778 6722 
4 4372 7882 9342 8084 
4 8907 6769 6520 6629 
4 4382 5812 7882 8076 
4 4588 8200 4584 4453 
4 3116 9461 3119 3117 
4 5074 8127 5075 3599 
4 9762 6716 8522 8163 
4 4614 8791 4472 4473 
4 7853 3788 6993 5426 
4 4606 8187 4604 4466 
4 9136 6229 8350 8348 
4 7474 7475 3384 9162 
4 6583 6680 8803 6795 
4 2984 9527 2985 2987 
4 4813 8569 7362 7756 
4 7243 9345 8105 5045 
4 8697 8698 5999 575 
4 7752 8968 7830 3391 
4 8846 4571 8209 8208 
4 8467 9833 3570 7732 
4 8592 6385 8582 7133 
4 6545 6648 8867 6779 
4 3095 3093 9473 3092 
4 6550 6552 8304 4567 
4 9150 9149 7129 2679 
4 4416 4529 8237 4531 
4 3507 7618 6667 8831 
4 8920 4407 8922 8246 
4 8872 4551 8221 4432 
4 3543 9351 5625 6808 
4 8868 8866 7651 3471 
4 8129 5068 5067 3585 
4 5077 3605 8126 5078 
4 6772 8895 6634 6528 
4 7318 8164 8525 5156 
4 4495 4393 4494 8260 
4 8131 3575 5063 5062 
4 6262 8242 9101 9104 
4 8832 6664 6666 7615 
4 7568 7376 3733 7371 
4 3734 7569 7377 7373 
4 7577 3737 8969 4713 
4 6213 9151 6215 8358 
4 8797 6587 6589 8273 
4 8352 4496 6494 6495 
4 3568 7010 8465 8139 
4 9093 6273 9092 2707 
4 4749 7793 3476 7650 
4 4673 7655 8404 7794 
4 4409 4408 6619 8918 
4 6549 6652 8859 6781 
4 4559 4564 8216 4437 
4 3629 9796 3631 4665 
4 8872 8874 4431 6644 
4 7643 7645 3480 4678 
4 9148 6217 8356 8354 
4 8844 3492 7627 7629 
4 6531 8889 8319 6532 
4 6654 3488 7642 8855 
4 8271 4480 4838 9343 
4 8792 7832 7830 3392 
4 7137 7131 6013 8975 
4 400 580 579 6007 
4 3067 3064 3065 9487 
4 4511 6762 8340 6506 
4 2992 2993 2995 9523 
4 3448 7680 4765 7804 
4 4441 4570 4566 8212 
4 9097 9100 6267 2704 
4 7062 9021 6462 9020 
4 8887 8889 6638 6532 
4 7178 5303 5112 5113 
4 7595 3523 7593 4703 
4 3737 9540 7577 8969 
4 6770 8903 6631 6523 
4 9038 6328 9035 8209 
4 8846 8848 6656 7631 
4 2738 7068 2739 6335 
4 5310 5120 5119 7171 
4 8311 6543 8871 6778 
4 8447 7826 4630 3559 
4 4681 3661 8396 7789 
4 7143 2772 3168 7870 
4 3167 7141 2770 7868 
4 3005 3004 3007 9517 
4 6658 6556 6784 8847 
4 3001 3000 3003 9519 
4 6534 8885 8317 6535 
4 3099 3097 9471 3096 
4 8339 4514 6763 6508 
4 8313 6539 4553 6776 
4 4503 4399 4507 8254 
4 9463 3115 3112 3113 
4 9353 5617 3160 2793 
4 8947 6759 8349 6497 
4 9018 6347 8290 6349 
4 6765 8337 8923 6511 
4 8198 6350 9015 9014 
4 7758 3796 8973 3730 
4 7040 6386 8591 8581 
4 3666 4743 3491 7636 
4 9049 9052 6314 8216 
4 2997 2996 2999 9521 
4 2758 2759 6375 7047 
4 6755 4485 8358 6488 
4 8959 6756 8355 6490 
4 5365 7300 5175 5174 
4 9483 3074 3073 3072 
4 9154 6213 6211 8357 
4 3014 3012 3013 9513 
4 9043 9046 6321 2731 
4 579 399 6007 6806 
4 8263 4390 4490 4492 
4 9924 9412 9861 5469 
4 3659 5104 5105 8118 
4 3736 8970 4185 7753 
4 8230 4423 4538 4543 
4 3645 5097 5098 8120 
4 8994 6476 6370 6475 
4 9080 8230 6286 9077 
4 7160 5130 2955 5320 
4 7099 2706 6271 2707 
4 9797 4664 7673 7671 
4 7702 3436 4775 7812 
4 7115 6411 9121 9124 
4 7819 4785 3419 7722 
4 3701 3699 5125 8377 
4 3591 8431 5071 3593 
4 8176 7364 3181 7360 
4 2821 5253 7227 5063 
4 8592 4177 6593 9851 
4 9055 9058 6308 8219 
4 8832 8830 6666 4452 
4 7223 5068 7222 5258 
4 5080 7210 5270 2855 
4 7165 5126 7164 5316 
4 7359 8177 3184 7363 
4 5101 7190 5291 7189 
4 7203 9404 7204 2868 
4 5094 3637 5093 8121 
4 6547 6649 8863 6780 
4 9095 8239 9098 6268 
4 6307 8310 9060 9057 
4 8998 6367 7052 2754 
4 8793 8794 3533 7763 
4 7045 6479 8986 8987 
4 9024 8203 6340 4580 
4 9531 7249 7248 3155 
4 7167 9368 2943 9367 
4 4548 4428 8225 4545 
4 5268 5078 7212 2851 
4 5053 8134 5054 3557 
4 8862 8860 7645 3480 
4 9090 9087 6428 7098 
4 3542 8362 8077 5816 
4 8207 8844 4574 4446 
4 8809 6580 8279 8278 
4 9461 9460 3119 7267 
4 6665 6564 6787 8835 
4 3498 4737 7626 6662 
4 6693 7833 8075 4187 
4 9018 8290 9016 6349 
4 7204 7203 5277 5087 
4 7974 8072 9353 6023 
4 7319 5155 8526 8164 
4 3156 3165 9349 7247 
4 9831 8468 4789 7728 
4 8606 8607 5908 489 
4 476 7355 3768 425 
4 8299 6331 9034 9036 
4 8191 4462 4596 4600 
4 9118 9115 8249 6248 
4 8911 6626 7694 3438 
4 8461 9841 3558 7744 
4 8202 8201 8832 4583 
4 7590 6678 3527 8807 
4 6680 3528 7586 8803 
4 6601 4389 8958 8956 
4 7195 9395 9396 2887 
4 6766 8919 6620 6514 
4 9109 6255 9112 8336 
4 7274 8481 8145 5200 
4 8335 8333 6766 6514 
4 8907 6629 7690 3441 
4 7314 3024 7313 9507 
4 7610 6670 3509 8827 
4 6245 6243 9122 8342 
4 3472 7795 7656 8869 
4 8695 577 578 5819 
4 6637 8884 4426 4425 
4 8960 8266 8265 4487 
4 6660 6559 6785 8843 
4 8078 3388 8363 5815 
4 9817 3591 4646 3593 
4 8955 6757 6493 6603 
4 3699 9750 3701 4700 
4 279 439 3767 7353 
4 4846 8788 8604 6002 
4 4500 8256 8257 8942 
4 8810 7595 8812 3523 
4 8912 4523 8242 8241 
4 2835 9422 9421 7221 
4 7374 6206 5232 7363 
4 7165 2946 7164 9365 
4 7068 6457 9029 9031 
4 6205 7364 5231 7375 
4 3456 8890 7673 8888 
4 8903 7686 3442 6631 
4 8796 8794 6683 4470 
4 6742 5211 8470 8141 
4 2782 405 460 7858 
4 7856 455 299 2780 
4 6590 6592 8789 4478 
4 4524 8241 9099 6264 
4 7163 9363 9364 2951 
4 6208 5418 7247 8364 
4 3491 7634 6655 8851 
4 8943 6760 6499 6609 
4 5137 8107 8595 5417 
4 6813 5720 3294 7564 
4 3200 7471 6812 5631 
4 6556 6784 8298 8299 
4 8826 6668 8828 4454 
4 9389 7188 9388 2901 
4 9069 9067 6438 7087 
4 8505 8504 5176 6725 
4 5270 7210 7211 2855 
4 3570 4791 3408 7732 
4 4550 4552 8223 4430 
4 8515 9772 3666 7636 
4 2911 7182 7183 9383 
4 3422 7713 7715 8930 
4 8188 8806 4602 4465 
4 2761 2762 6381 7046 
4 3456 7673 7671 8888 
4 9923 9859 5539 9519 
4 5541 9517 9928 9860 
4 9423 7223 7222 2830 
4 7134 2671 6698 7040 
4 4585 8292 8291 6345 
4 6571 6572 8286 4592 
4 7676 7678 4764 9800 
4 6660 7628 4739 3496 
4 7190 2896 7189 9390 
4 8881 8314 6537 8315 
4 6682 3536 7582 8799 
4 6576 8282 8283 8817 
4 7139 2668 6697 7133 
4 8990 8186 6374 4605 
4 9853 5537 9917 9521 
4 6379 8274 4609 8988 
4 3669 3667 8393 7787 
4 3709 3707 5129 8373 
4 4398 8940 6610 8938 
4 4836 8579 8584 6390 
4 7379 7755 4619 7571 
4 4410 6621 8914 8916 
4 5533 9919 9855 9525 
4 7684 8897 3448 7804 
4 9932 5543 9515 9874 
4 8326 4532 6522 6523 
4 3506 8828 7613 7609 
4 5168 7306 8513 8159 
4 9489 9858 9922 5569 
4 9862 5583 9925 9475 
4 8246 9111 9110 6254 
4 4387 8266 4487 4484 
4 4634 4633 7733 3404 
4 5573 9934 9878 9485 
4 6336 9028 9029 8205 
4 4835 6389 8580 8585 
4 6383 2763 8982 7044 
4 6241 8343 9123 8344 
4 7310 5165 7309 5355 
4 4528 8328 6520 6519 
4 6582 6583 8276 4607 
4 3583 9824 3585 4642 
4 6630 7687 8900 8902 
4 7754 3736 9541 8970 
4 3411 4789 7728 6609 
4 9159 7376 7472 3187 
4 3188 9160 7565 7377 
4 5104 3659 3657 8398 
4 4797 3558 7744 3399 
4 3645 5097 8405 3643 
4 7233 5247 7234 5057 
4 6648 4751 3472 7652 
4 2970 8596 3161 7153 
4 3776 7848 4816 3176 
4 7846 3174 4815 3774 
4 3496 7786 7630 8845 
4 9496 9873 9931 5562 
4 6584 6586 8274 4609 
4 9864 9927 9508 5550 
4 2683 2682 7124 6223 
4 5190 6732 8491 8490 
4 3536 6682 7582 4717 
4 4753 9787 6725 3644 
4 8279 6582 8276 6794 
4 9879 9935 9506 5552 
4 437 7861 7146 2773 
4 9054 8309 6311 9056 
4 4658 8419 3617 7681 
4 4794 9837 7736 7738 
4 6427 9091 9090 7097 
4 3616 4767 6732 9805 
4 8939 6761 6502 6611 
4 3500 7621 7619 4690 
4 6649 4749 3476 7650 
4 3169 456 301 8560 
4 8562 459 3171 403 
4 4737 7785 3498 7626 
4 7859 7144 478 2774 
4 7317 3018 7316 9510 
4 8331 8328 6768 6519 
4 3426 7711 8926 8928 
4 6386 6698 7040 5034 
4 5471 9410 9936 9880 
4 2688 7118 2689 6235 
4 8996 8998 6369 2755 
4 3723 9737 8366 8365 
4 8345 6760 8347 6499 
4 5033 6697 6385 7133 
4 5224 3151 7250 7251 
4 7080 6311 2727 2726 
4 6647 3474 7654 8871 
4 4527 8238 8239 8906 
4 9737 7763 4711 9739 
4 4562 9047 8215 8214 
4 8189 4599 8190 8997 
4 8834 8836 6663 7621 
4 9087 9086 6429 7095 
4 3151 9444 7250 7251 
4 4185 8078 7753 8175 
4 9382 7181 9381 2914 
4 9028 9025 8204 6338 
4 6440 6439 6298 9066 
4 8800 8802 6679 7587 
4 4565 4440 8213 8856 
4 2783 7846 7245 7868 
4 2785 7340 7870 7848 
4 4841 4483 4476 8269 
4 6357 2749 2750 7058 
4 9110 6418 6254 6417 
4 6746 9839 8138 8462 
4 6208 5418 8364 5228 
4 3385 7474 5234 9342 
4 7652 3478 7648 8867 
4 4413 4412 6624 8910 
4 9118 4509 8249 8250 
4 5217 6745 7010 8464 
4 6662 6562 6786 8839 
4 4389 4388 6600 8958 
4 8940 4397 4398 6608 
4 7628 7786 4739 3496 
4 4186 8174 8077 7578 
4 6010 3179 4178 8971 
4 8972 4177 3178 6009 
4 7336 5329 2980 9529 
4 9124 6240 4505 8253 
4 3492 8844 6657 7629 
4 7859 8565 7144 6704 
4 2724 6305 2723 7083 
4 7305 3042 7304 9498 
4 8899 7682 3450 6633 
4 2722 2723 6303 7084 
4 8225 4428 8880 4545 
4 3432 7704 4777 7814 
4 6350 9014 6466 6465 
4 9101 6422 6421 2703 
4 9075 9073 6435 7090 
4 9542 8174 5816 6012 
4 6245 9122 9120 8342 
4 7669 6637 7671 8886 
4 9132 9130 6235 8347 
4 439 7142 3767 7353 
4 9102 9101 7105 2703 
4 7234 5247 5056 5057 
4 8597 7472 7471 3200 
4 2700 2701 6259 7106 
4 6647 4753 3470 7654 
4 8330 8913 8331 6518 
4 3201 9251 7470 7471 
4 3295 9340 7563 7564 
4 3077 9481 3078 3076 
4 4395 8258 8946 8944 
4 4741 7632 3489 6658 
4 6322 9041 9044 8212 
4 4564 4562 8215 4438 
4 9802 6731 8492 8150 
4 7110 2697 2696 6251 
4 4599 8190 4600 4463 
4 4799 7829 7750 3396 
4 2873 9403 9402 7202 
4 8878 4548 8224 4429 
4 3539 7760 3540 4803 
4 9338 4943 4084 4285 
4 4852 3992 9249 4194 
4 8201 8832 4583 4452 
4 8281 6577 8283 8815 
4 7567 3192 3732 3386 
4 7614 3505 3507 4732 
4 8309 6545 8307 6779 
4 8864 7649 7647 3477 
4 3446 7682 6633 4767 
4 8174 4838 5816 6012 
4 7677 3453 7675 8892 
4 7140 476 7355 3768 
4 6539 8879 8315 8313 
4 4555 6305 6307 9060 
4 2746 6349 2745 7061 
4 9002 6362 6471 6472 
4 7679 3447 8896 8894 
4 5124 2942 7166 7167 
4 9949 9494 9885 5564 
4 2697 2698 6253 7109 
4 6434 6433 9077 2715 
4 6984 7382 7383 3289 
4 6331 2736 2737 7070 
4 6344 9020 8201 4584 
4 9349 7248 5418 3155 
4 2759 2760 6377 7048 
4 9140 4495 8260 8261 
4 8188 8995 8994 6370 
4 7708 3428 4779 3594 
4 3121 9459 3122 3120 
4 486 487 5820 8786 
4 8339 8341 8931 6508 
4 8870 4554 8221 8220 
4 7052 6367 2755 2754 
4 6450 6451 9044 6320 
4 9044 9045 6320 8213 
4 7659 8874 7657 3467 
4 6255 6253 9112 4517 
4 7202 7201 2872 5089 
4 5157 7318 3016 7317 
4 5298 7183 5108 5107 
4 8064 9354 6024 8074 
4 9104 6260 6420 6421 
4 2711 7096 2712 6281 
4 6454 6453 6326 9038 
4 10030 8092 5228 3544 
4 9856 5531 9920 9527 
4 6773 6289 4542 8320 
4 5070 7220 7221 2834 
4 396 575 395 5822 
4 2900 5103 7188 7187 
4 2950 5128 7163 7162 
4 7841 7360 3177 7850 
4 7475 3384 9162 9252 
4 8315 6539 8313 6776 
4 3180 7359 7849 7843 
4 2688 9131 9132 7120 
4 2886 5096 7195 7194 
4 9091 6426 9094 7100 
4 3405 7825 4793 7738 
4 5545 9513 9950 9886 
4 6745 7010 8465 3566 
4 9890 5575 9954 9483 
4 8104 4835 8580 8585 
4 3645 4672 3643 9784 
4 2709 2710 6277 7098 
4 3102 3101 9469 3100 
4 9078 9077 7093 2715 
4 9106 8335 6259 9108 
4 8289 6569 8288 8829 
4 8788 8604 6002 578 
4 5169 7306 3040 7305 
4 7058 9007 9010 6468 
4 5504 9929 9875 9377 
4 9451 3139 3136 3137 
4 8579 8103 4836 8584 
4 5216 7258 7259 5406 
4 489 309 308 5913 
4 7365 5229 8974 6009 
4 8341 8339 6763 6508 
4 8459 6748 7001 3554 
4 8306 8308 4560 6315 
4 8340 8933 8341 6507 
4 5535 9918 9854 9523 
4 8870 8868 7655 3469 
4 9487 9863 9926 5571 
4 2729 9049 6447 6448 
4 7827 4795 7740 3403 
4 8229 4424 4543 4541 
4 6386 8591 8581 5036 
4 3410 4791 7730 6606 
4 8492 5190 8491 7285 
4 4551 4554 8221 4432 
4 6443 6444 9058 6306 
4 2685 9137 9138 7123 
4 6478 7048 8990 8987 
4 9021 7065 6461 9024 
4 6756 8959 8355 8353 
4 9877 5585 9933 9473 
4 485 6008 8098 8602 
4 7069 9033 6456 9031 
4 9455 3129 9456 7262 
4 4408 8920 8918 8245 
4 9080 6284 6432 6433 
4 7340 5624 8568 4816 
4 7861 8566 7146 6703 
4 4815 8567 5623 7245 
4 4612 8183 8184 8796 
4 4797 7742 3397 6602 
4 7706 6618 3430 4779 
4 5812 7367 7882 8076 
4 6612 7721 8934 8936 
4 9144 9142 6223 8353 
4 3184 8177 4812 7363 
4 8176 7364 4811 3181 
4 4178 9850 9734 8971 
4 6000 396 575 395 
4 7183 7182 5298 5108 
4 3987 4375 7883 9159 
4 9160 7884 4376 3988 
4 9339 4284 4083 4283 
4 9250 3991 4192 4193 
4 5241 7240 5051 5050 
4 7857 3747 4833 3755 
4 8105 9548 3545 9541 
4 309 5909 489 308 
4 7124 2682 9142 6223 
4 7853 5426 401 400 
4 3532 3528 7588 4718 
4 6246 9118 9119 8250 
4 8267 8266 4484 9152 
4 3476 7793 7648 8865 
4 2733 9042 7075 9041 
4 8814 8193 8192 4597 
4 6379 4609 6377 8988 
4 9003 9005 7055 6470 
4 4516 8922 8246 8247 
4 9876 9463 5595 9930 
4 9107 2700 7108 9108 
4 6446 6447 9052 6312 
4 8192 9003 9002 6362 
4 8283 6576 8815 6792 
4 5506 9952 9888 9375 
4 7287 5188 7286 3079 
4 6537 8879 8315 6776 
4 7072 2736 9036 9035 
4 3291 3190 7566 3292 
4 8844 8208 8207 4574 
4 6741 7022 8473 3582 
4 7180 2915 7181 5110 
4 3160 9353 2793 2791 
4 8341 8931 6763 6507 
4 8483 3602 6736 6996 
4 5473 9958 9894 9408 
4 5155 3688 8164 5156 
4 3165 3156 9349 6022 
4 4747 7644 7791 3479 
4 4696 3691 3693 8381 
4 4583 8202 4580 4451 
4 8908 4413 4414 6625 
4 9504 5554 9891 9955 
4 3543 3735 7831 9541 
4 5250 7231 5060 5059 
4 5224 3151 5415 7250 
4 3543 3736 3735 9541 
4 8192 8191 4596 9002 
4 5072 5071 5262 7219 
4 2751 6361 7055 2752 
4 9028 4578 8204 8205 
4 9884 5521 9937 9360 
4 6111 2965 10025 9356 
4 6748 8458 7001 5223 
4 5129 5130 7161 5320 
4 2726 9056 7082 9055 
4 9052 4559 8216 8217 
4 6413 9118 6246 6414 
4 6406 6405 6230 9134 
4 5244 7237 7236 5054 
4 5098 7193 5288 7192 
4 5295 7185 5105 7186 
4 8912 4412 8241 8910 
4 4397 8940 8256 8942 
4 6657 8844 4446 4445 
4 3740 7839 7835 8572 
4 8263 6220 9146 9143 
4 8883 8885 6640 6535 
4 7783 4735 7622 3499 
4 8958 4388 8960 8265 
4 7064 2741 6341 2742 
4 8456 8455 5226 3548 
4 3535 8796 7583 7766 
4 7080 9054 6311 2726 
4 4572 6331 8299 6329 
4 6645 8877 6540 8875 
4 8929 8927 6509 6616 
4 7851 5425 303 304 
4 2737 2738 6333 7069 
4 7278 8484 7277 5197 
4 4824 2771 7867 2784 
4 7268 5207 8474 7267 
4 3166 6018 8600 8978 
4 8198 8197 4589 9014 
4 8187 8991 6372 8994 
4 3057 7298 9492 9491 
4 8498 5183 7291 7292 
4 5143 8538 7332 7331 
4 4743 7634 3486 6655 
4 7327 7328 8534 5147 
4 9470 3099 9471 7277 
4 8472 9827 8471 3580 
4 7323 7324 8530 5151 
4 6578 8811 6675 8813 
4 7279 7280 8486 5195 
4 7321 7322 8528 5153 
4 7216 5074 5075 5265 
4 3436 7698 3437 4774 
4 7329 7330 8536 5145 
4 6287 6773 4539 8320 
4 9735 4177 9851 8972 
4 7696 3439 3438 4772 
4 4614 8180 8791 4473 
4 5125 5126 7165 5316 
4 7325 7326 8532 5149 
4 7190 5100 5101 5291 
4 5218 7256 7257 3138 
4 8423 3607 4654 3609 
4 8968 8967 8357 6486 
4 5078 5077 5268 7213 
4 7293 7294 8500 5181 
4 3796 7758 3198 3730 
4 8092 8589 4810 3389 
4 5253 7228 5063 5062 
4 5277 7204 5087 5086 
4 9106 2700 6259 7106 
4 6574 6672 8821 8819 
4 3522 7594 3525 4722 
4 7666 3463 3460 4758 
4 7645 8860 7643 3480 
4 3757 4834 3749 7855 
4 7670 3462 3459 4760 
4 8604 577 6002 578 
4 7592 3530 3527 4720 
4 8164 3688 8525 5156 
4 3509 7612 3513 4730 
4 2682 7126 9143 9144 
4 3423 4784 3419 7718 
4 8846 4571 8208 4445 
4 3498 7785 7624 8841 
4 3100 7276 7275 5199 
4 5231 7379 4619 7571 
4 4846 8788 8084 8604 
4 9063 9066 6300 8223 
4 4556 4561 8218 4435 
4 8231 8230 4538 9080 
4 10030 7832 3544 4804 
4 8270 6590 8789 4478 
4 2669 7137 6013 8587 
4 7600 3524 3519 4724 
4 3511 7608 3517 4728 
4 5454 9957 9893 9427 
4 9478 9477 3085 7284 
4 3120 5209 7266 7265 
4 7602 3521 3515 4726 
4 8504 7298 5176 5177 
4 3018 5158 7317 7316 
4 8810 7595 3523 7593 
4 8289 6569 8827 6789 
4 8304 6323 9043 6321 
4 2786 7869 2769 4823 
4 8481 3600 8482 9814 
4 7848 3762 4816 3176 
4 3760 7846 3174 4815 
4 4491 4391 8262 4492 
4 7634 3491 7636 8851 
4 5527 6203 7885 3886 
4 9535 8269 8102 4383 
4 6541 6543 8310 4555 
4 8336 4517 6510 6511 
4 4614 4479 8180 4473 
4 9150 9151 6215 2678 
4 7025 5187 6730 8494 
4 2733 6451 6452 9041 
4 7223 5068 5258 5067 
4 7570 7374 5232 7378 
4 8229 4424 8888 4543 
4 10030 8092 8364 5228 
4 4411 4523 4520 8242 
4 3481 7646 7650 8863 
4 7269 7270 8476 5205 
4 6590 8270 8789 8795 
4 8242 4520 8243 9104 
4 2854 2853 2852 9412 
4 7692 3444 3441 4770 
4 3465 3468 4756 7664 
4 2796 5241 7239 5051 
4 3149 9445 3150 3148 
4 7716 3421 4782 3427 
4 6263 8332 6767 4521 
4 6379 8274 8988 8985 
4 6010 8973 5230 7362 
4 9067 6298 9066 8224 
4 2789 9538 7243 9345 
4 6412 9121 9119 7113 
4 3042 7305 7304 5170 
4 8197 6352 9014 9011 
4 7286 5188 5379 3079 
4 9341 4281 4381 4845 
4 7776 7607 4697 8380 
4 7379 5231 7375 7571 
4 8332 6265 6767 4525 
4 9137 2685 6404 6403 
4 6385 8592 8582 5035 
4 5218 5409 7256 3138 
4 8818 8194 8816 4459 
4 7295 7296 8502 5179 
4 8155 8503 7007 3644 
4 5193 8488 7282 7281 
4 3616 7008 8489 8149 
4 8941 7821 3414 7724 
4 7360 3177 7850 8068 
4 7359 3180 7849 8067 
4 9480 7287 7286 3079 
4 9797 3629 3627 4664 
4 4775 3600 8482 6736 
4 6741 8472 3580 4785 
4 4407 4516 8922 8246 
4 4839 2776 7871 3774 
4 4840 3776 2778 7872 
4 7225 2824 5255 5065 
4 8290 6788 4587 6349 
4 4567 6782 8302 6323 
4 7626 3501 7620 8839 
4 5262 5072 7218 2838 
4 5185 8496 7290 7289 
4 8848 8846 6656 4444 
4 5250 7230 2814 5060 
4 7674 3455 3457 4762 
4 8900 4417 8902 8236 
4 7225 2824 7226 5255 
4 9341 3291 7380 7566 
4 5265 5075 7215 2844 
4 8505 7299 8506 5176 
4 8279 6582 8807 8276 
4 9940 5580 9982 9478 
4 4564 8215 8860 4438 
4 8190 8810 4600 4463 
4 5808 3978 6989 9553 
4 6571 8289 8286 8827 
4 9021 6344 9020 8201 
4 5190 5191 8490 7284 
4 3516 7603 8818 8820 
4 5141 7333 8540 7334 
4 8328 8331 8911 6519 
4 9983 9492 9938 5566 
4 7366 5811 6693 8075 
4 9430 9947 9987 5451 
4 7704 6620 3432 4777 
4 4787 7726 3414 6611 
4 5577 9992 9962 9481 
4 7791 7646 3479 8861 
4 4496 6227 6758 8350 
4 8066 9347 8978 5424 
4 9993 9502 9963 5556 
4 5361 3042 7304 5170 
4 7118 2688 9130 6235 
4 5349 5158 3018 7316 
4 6723 8508 3652 4749 
4 4620 7570 5232 7378 
4 7570 4620 7576 7378 
4 2669 7137 2674 6013 
4 7745 6600 6598 8960 
4 8279 6580 8807 6794 
4 4438 8860 4437 3480 
4 9481 9480 3078 7287 
4 8300 6553 6554 4569 
4 4556 8218 8866 4435 
4 9459 9458 3122 7265 
4 7803 8417 4660 7679 
4 6267 9100 8330 4525 
4 8300 4569 6327 9040 
4 8331 8911 6768 6518 
4 9508 3023 3025 3022 
4 8253 4400 8934 8936 
4 7727 6608 6607 8942 
4 8912 7697 6622 6624 
4 8186 8800 8802 4467 
4 6628 7689 7691 8906 
4 5046 7338 2975 5238 
4 8203 8834 8836 4450 
4 9502 7308 9501 3037 
4 3108 9466 9465 7272 
4 8240 9099 9098 6266 
4 7591 4705 7770 8372 
4 6993 7853 5426 401 
4 9087 8234 6278 9086 
4 3456 4424 4423 8888 
4 8360 8970 6591 8790 
4 8206 8842 4576 4447 
4 8794 8796 6683 7764 
4 4401 8252 8934 8932 
4 8898 8235 8234 4533 
4 7838 455 7856 2780 
4 7840 2782 460 7858 
4 9125 9128 6238 8254 
4 4518 8918 8244 8245 
4 8309 4557 6311 6309 
4 5094 5284 7196 7197 
4 9135 6230 9134 8258 
4 5046 8106 9350 9346 
4 4613 8181 8793 4472 
4 2938 5312 7169 7168 
4 7726 7821 4787 3414 
4 9415 9939 9981 5466 
4 6782 4569 8302 6325 
4 6786 8839 8293 8294 
4 7687 3443 7685 8902 
4 3657 3659 4679 9775 
4 7654 3474 7656 8871 
4 9774 6720 4743 3664 
4 9025 2741 6460 6459 
4 9537 7832 3389 3544 
4 6473 2754 6472 8999 
4 5420 7339 6706 2976 
4 5126 2946 7164 5316 
4 2896 5101 5291 7189 
4 2722 9063 6440 6441 
4 5312 2938 5122 7168 
4 9845 4800 7750 7748 
4 4579 6560 6785 8296 
4 7203 2868 5277 5087 
4 2736 6454 6455 9035 
4 3172 8561 7839 8572 
4 2691 6409 6410 9125 
4 7222 5068 2830 5258 
4 7128 7130 9154 2677 
4 6459 6458 6336 9028 
4 7674 3626 3457 7802 
4 9451 9450 3139 7257 
4 9049 7079 9050 2729 
4 6275 9092 9089 8326 
4 8229 8228 4541 9075 
4 8206 8205 8840 4575 
4 7778 8824 3508 7611 
4 9454 9453 3132 7260 
4 9085 6279 9088 8324 
4 8343 6761 8939 8344 
4 3672 6718 8518 4739 
4 5423 6391 3162 8977 
4 3102 9469 9468 7275 
4 4462 8810 3523 4463 
4 4666 3461 3458 7667 
4 6233 6235 4501 8347 
4 5425 6992 3786 7851 
4 7382 3290 9161 9163 
4 7061 9015 9017 6464 
4 9000 7054 2754 8999 
4 7154 2969 8595 9352 
4 9131 6407 6406 2688 
4 9887 9951 9461 5597 
4 4698 7603 7776 8379 
4 7811 8426 3601 4651 
4 4489 8354 6490 6489 
4 4795 7740 3403 6603 
4 6666 8832 7615 7617 
4 8439 7820 4638 7725 
4 8226 4427 8882 4546 
4 8450 3553 7828 4627 
4 8348 4499 6496 6497 
4 4405 4513 8926 8248 
4 8793 8791 7762 3540 
4 9009 7057 2749 7058 
4 4674 7651 7794 8403 
4 3626 7025 6730 8495 
4 4707 3715 7768 8370 
4 4407 4406 3429 8922 
4 5213 8140 7262 7261 
4 3448 7680 6634 4765 
4 9534 7758 7760 3539 
4 8236 6274 9091 9090 
4 2733 2734 6325 7073 
4 7762 3725 4712 4803 
4 7805 8420 4657 3615 
4 9959 9370 9908 5511 
4 5136 7154 7155 2967 
4 3497 8838 7625 7784 
4 9128 9129 6236 8255 
4 8836 3500 7621 7619 
4 7725 7820 3413 8938 
4 4577 6333 6335 9032 
4 9499 9986 5559 9944 
4 9787 8504 6725 3644 
4 2686 2685 7121 6229 
4 3492 3495 7627 4686 
4 5104 5295 5105 7186 
4 7193 5097 5098 5288 
4 9083 7094 9081 6431 
4 4479 4842 4614 8180 
4 9410 2859 2856 2857 
4 5165 8160 7310 7309 
4 7593 7595 4703 9748 
4 3529 8802 7585 7587 
4 9162 4172 9342 8084 
4 3142 7255 7254 5220 
4 6419 6418 9107 2700 
4 6424 2706 9095 6425 
4 6637 4665 3458 7669 
4 6628 4415 8906 8904 
4 8441 7822 4636 3571 
4 7711 8433 7816 4644 
4 9941 9984 9511 5547 
4 8185 4608 8184 8798 
4 7256 9450 7257 3138 
4 6323 9042 9043 2732 
4 5999 6000 575 395 
4 7643 7645 4678 9779 
4 3526 8804 7591 7770 
4 7205 8416 5086 5085 
4 6402 6224 6403 9140 
4 8514 5167 7026 6720 
4 7824 8444 4633 7733 
4 8343 8346 8941 6502 
4 2853 9412 7211 7212 
4 7719 7721 3416 8936 
4 7613 4693 8384 7780 
4 4731 3505 7610 4732 
4 8199 8828 4588 4454 
4 6681 8798 4469 4468 
4 8892 8232 8231 4540 
4 3150 9445 9444 7251 
4 8479 5202 3596 7002 
4 5909 5908 309 489 
4 3707 3709 4704 9745 
4 7237 5244 5053 5054 
4 8216 4564 8215 8860 
4 4182 8578 8100 6004 
4 6732 3616 9805 8490 
4 8235 4418 4530 4533 
4 5168 5167 8159 3664 
4 5094 5093 5284 7197 
4 8810 8191 8190 4600 
4 2959 2957 2956 9360 
4 8230 8229 8888 4543 
4 8335 6259 6257 4519 
4 8926 4513 8249 8248 
4 8899 7682 7684 3450 
4 9427 2825 2822 2823 
4 8962 4386 8964 8267 
4 4491 4392 8261 8952 
4 8192 8814 4597 4461 
4 5166 7308 7309 3035 
4 3516 8818 4459 4458 
4 7114 7115 2692 9123 
4 4418 6632 4419 8898 
4 7317 9510 9511 3019 
4 4605 4608 8185 4468 
4 2922 2923 9377 2925 
4 2722 9064 7086 9063 
4 3154 9531 9443 9852 
4 6221 6223 4493 8353 
4 9767 6718 8518 8161 
4 8514 7308 5167 7307 
4 9539 7338 2975 9346 
4 7622 4735 6665 3499 
4 8174 4186 8271 7578 
4 8069 3981 10028 5041 
4 9146 8264 9147 6218 
4 8070 3982 10029 5042 
4 7112 9115 2696 9116 
4 8574 7840 7836 4826 
4 8573 4825 7838 7834 
4 4526 4414 4527 8239 
4 7232 8443 5059 5058 
4 4747 6652 7644 3479 
4 9078 9079 6287 2714 
4 4683 7635 8394 7787 
4 7031 402 7151 3787 
4 302 7149 7030 3785 
4 3770 286 7878 3744 
4 7879 3771 418 3745 
4 5100 5099 7191 8402 
4 6476 2758 8991 6477 
4 8188 8187 4604 8994 
4 7743 7826 3398 8956 
4 7065 7064 9023 2742 
4 8974 9735 8972 3795 
4 7861 8566 4844 7372 
4 3464 7663 7797 8876 
4 9788 7659 3641 8407 
4 4514 8339 6509 6508 
4 6539 6540 8313 4553 
4 8243 4410 8914 8916 
4 8183 8794 8796 4470 
4 2973 7345 10029 5042 
4 10028 5041 2787 7343 
4 9058 9059 6306 8220 
4 3582 7819 3419 7718 
4 7305 9499 3043 9498 
4 4401 4508 4505 8252 
4 3490 8848 7635 7787 
4 8211 4570 4568 4442 
4 8314 6537 4549 6536 
4 6575 6576 8282 4598 
4 9052 9053 6312 8217 
4 3436 7698 3602 7812 
4 7735 7737 3400 8952 
4 9138 2684 9139 6227 
4 8415 7801 4662 7677 
4 6573 6574 8285 4595 
4 6577 6578 8281 4601 
4 7308 7309 3035 9502 
4 8513 5168 8159 3664 
4 4734 9761 7616 7618 
4 2939 2937 2936 9370 
4 6444 2726 9055 6445 
4 3483 8854 7641 7789 
4 7818 8436 3581 4641 
4 2809 5247 7233 5057 
4 8434 7816 4643 7715 
4 6670 6569 8827 8829 
4 8989 2759 7048 7047 
4 6579 4603 6580 8278 
4 2791 5237 2789 7243 
4 8232 8231 4540 9081 
4 8850 3485 7635 7633 
4 8359 8968 6486 4384 
4 6401 2682 6400 9143 
4 4421 8894 8892 8232 
4 8553 6391 4379 4377 
4 5214 7260 7261 3130 
4 3673 3671 5111 8391 
4 3520 8814 4461 4460 
4 9448 3142 7255 7254 
4 4701 7599 8376 7773 
4 7649 8401 4676 7792 
4 9038 8209 8210 4573 
4 5227 8107 5417 6207 
4 6263 9102 9103 2702 
4 4411 8912 8242 8914 
4 4401 4400 6612 8934 
4 8981 8983 6382 8182 
4 4498 4395 8258 8946 
4 8289 8288 4587 6351 
4 8210 8850 4568 4443 
4 7475 9552 7474 3191 
4 8257 4396 8942 8944 
4 4551 8872 8221 8222 
4 9100 9097 6267 8330 
4 8510 4747 3656 6722 
4 8157 6723 9780 8508 
4 8337 6255 8336 4517 
4 6112 2966 5525 9355 
4 2862 2860 9408 2861 
4 7364 6205 5231 3181 
4 3145 9448 9447 7254 
4 7144 426 478 2774 
4 5235 305 6003 485 
4 3721 5135 5136 8367 
4 9410 7210 7209 2857 
4 9990 9418 9960 5463 
4 6206 3184 5232 7363 
4 3678 9764 4737 7620 
4 3488 4744 7638 3486 
4 8800 8185 8798 4468 
4 7159 7160 2957 9360 
4 8841 6562 8293 8296 
4 9347 3166 8978 5424 
4 4648 8429 7813 3595 
4 8199 8198 4586 9015 
4 4418 8900 8898 8235 
4 9375 2927 2928 2926 
4 5425 6992 7851 303 
4 7588 3532 7582 8801 
4 3055 3054 3057 9492 
4 8554 7575 4378 4380 
4 7169 7170 2937 9370 
4 9889 5587 9953 9471 
4 4503 9128 8255 8254 
4 9478 3085 3082 3083 
4 278 437 7146 2773 
4 7582 3532 4718 4717 
4 8124 8421 9806 3613 
4 8445 7824 4632 7737 
4 9892 9956 9456 5602 
4 3679 9763 8388 8115 
4 8593 8556 6006 8589 
4 3713 9743 8371 8109 
4 6673 6576 8815 8817 
4 9115 6415 6414 2696 
4 8565 7859 7370 4843 
4 574 394 5823 5824 
4 6568 6569 8288 4587 
4 6013 7137 8975 8587 
4 8879 8881 6643 6537 
4 8933 6615 8931 6507 
4 490 310 5914 5915 
4 3018 5158 5348 7317 
4 3739 4827 8571 4187 
4 8433 7816 4644 3587 
4 7598 7602 3521 8817 
4 4417 6630 8900 8902 
4 9776 4746 7642 7640 
4 4698 7776 3695 8379 
4 3463 8881 7662 7666 
4 8826 8199 8198 4586 
4 5128 5129 7162 5319 
4 7260 9454 7261 3130 
4 7182 2911 5298 5108 
4 6224 9140 9141 8261 
4 3423 8933 7714 7718 
4 9466 7273 7272 3106 
4 7825 3405 3566 7734 
4 5104 5103 5294 7187 
4 7220 5070 5071 5261 
4 5328 5329 5138 7336 
4 5124 5125 7166 5315 
4 9093 7100 7099 2707 
4 9546 8066 7575 4378 
4 5911 8603 487 486 
4 5190 3620 8492 8491 
4 7207 9408 7208 2861 
4 5097 5096 5287 7194 
4 8306 6547 8308 8865 
4 6637 8884 4425 8886 
4 2975 7338 2977 5238 
4 5214 5215 7260 5405 
4 7829 3554 7746 3396 
4 3042 5360 7305 5170 
4 9529 2980 2982 2981 
4 431 8559 3786 482 
4 9156 4841 8975 8269 
4 3736 4623 7754 9541 
4 9039 6326 9038 8210 
4 393 573 5825 5824 
4 311 491 5916 5915 
4 8075 7833 8571 4187 
4 8800 6679 4467 4468 
4 5592 9466 9985 9943 
4 3533 3537 7763 4711 
4 6630 4418 4417 8900 
4 4710 3533 7764 4711 
4 4511 8340 6507 6506 
4 8300 4569 8301 6327 
4 9095 2706 7102 9096 
4 8802 8800 6679 4467 
4 8836 8834 6663 4450 
4 6212 9152 6397 6396 
4 7198 5093 5283 5092 
4 7832 7759 6800 3387 
4 4400 6612 8934 8936 
4 7273 7272 3106 5202 
4 10000 9976 5456 9425 
4 4566 9044 8213 8212 
4 6231 4499 8348 8349 
4 4525 8330 6518 6517 
4 8130 8438 9826 3579 
4 392 572 5826 5825 
4 492 312 5916 5917 
4 6219 4489 8354 8355 
4 8247 4512 8248 9113 
4 7725 3413 6610 8938 
4 8239 4526 8240 9098 
4 7297 7298 3056 9491 
4 5393 7272 5203 5202 
4 6113 5527 7885 3886 
4 5429 7137 2674 8587 
4 391 571 5827 5826 
4 313 493 5918 5917 
4 570 390 5827 5828 
4 494 314 5918 5919 
4 5829 5828 389 569 
4 315 495 5920 5919 
4 5830 5829 388 568 
4 316 496 5921 5920 
4 5831 5830 387 567 
4 497 317 5921 5922 
4 5832 5831 386 566 
4 318 498 5923 5922 
4 565 5832 5833 385 
4 499 319 5923 5924 
4 5834 5833 384 564 
4 500 320 5924 5925 
4 5834 5835 563 383 
4 501 321 5925 5926 
4 5836 562 5835 382 
4 5927 322 502 5926 
4 561 381 5836 5837 
4 323 5927 503 5928 
4 380 560 5838 5837 
4 324 504 5929 5928 
4 5871 346 5872 526 
4 5877 520 340 5878 
4 5873 344 5874 524 
4 5881 517 5880 337 
4 5879 519 5878 339 
4 326 506 5931 5930 
4 505 325 5929 5930 
4 528 5869 5870 348 
4 518 5879 5880 338 
4 516 5881 5882 336 
4 515 5882 5883 335 
4 532 5866 352 5865 
4 5884 514 5883 334 
4 5890 508 5889 328 
4 5889 509 5888 329 
4 5840 377 5841 557 
4 511 331 5886 5887 
4 5868 5867 350 530 
4 5874 5875 523 343 
4 5867 5866 351 531 
4 5872 5873 525 345 
4 5876 5877 521 341 
4 5875 5876 522 342 
4 5869 5868 349 529 
4 512 5885 5886 332 
4 510 5887 5888 330 
4 347 5871 5870 527 
4 335 515 5940 5939 
4 5942 518 338 5943 
4 336 516 5941 5940 
4 348 528 5953 5952 
4 347 527 5952 5951 
4 5956 351 531 5955 
4 5949 344 524 5948 
4 5945 521 341 5946 
4 346 526 5951 5950 
4 5949 525 345 5950 
4 343 523 5948 5947 
4 5956 5957 532 352 
4 5884 5885 513 333 
4 365 5853 5852 545 
4 327 5890 507 5891 
4 329 509 5934 5933 
4 5932 508 328 5933 
4 332 512 5937 5936 
4 517 5942 337 5941 
4 520 5945 340 5944 
4 529 349 5953 5954 
4 530 350 5954 5955 
4 519 339 5943 5944 
4 522 342 5946 5947 
4 326 506 5892 5891 
4 5932 327 507 5931 
4 510 330 5934 5935 
4 511 331 5935 5936 
4 513 333 5937 5938 
4 514 334 5938 5939 
4 5982 5981 377 557 
4 5851 366 5852 546 
4 542 362 5855 5856 
4 539 359 5858 5859 
4 536 356 5861 5862 
4 534 354 5863 5864 
4 538 358 5859 5860 
4 5970 5969 365 545 
4 5966 5965 361 541 
4 357 537 5962 5961 
4 5969 5968 364 544 
4 5964 5963 359 539 
4 5971 5970 366 546 
4 5959 355 5960 535 
4 5967 5966 362 542 
4 5965 5964 360 540 
4 5968 5967 363 543 
4 5960 5961 536 356 
4 355 535 5863 5862 
4 5958 5959 534 354 
4 5962 5963 538 358 
4 360 540 5858 5857 
4 361 541 5857 5856 
4 363 543 5855 5854 
4 364 5853 544 5854 
4 357 537 5861 5860 
4 533 353 5864 5865 
4 5842 375 5843 555 
4 5844 373 5845 553 
4 5847 370 5848 550 
4 5838 5839 559 379 
4 5982 5983 558 378 
4 5849 368 5850 548 
4 376 5842 5841 556 
4 5974 5973 369 549 
4 371 5847 5846 551 
4 5979 5978 374 554 
4 372 5977 5976 552 
4 5973 5972 368 548 
4 5980 5979 375 555 
4 372 5846 5845 552 
4 5977 373 5978 553 
4 374 5844 5843 554 
4 369 5849 5848 549 
4 5972 5971 367 547 
4 5975 5974 370 550 
4 5976 5975 371 551 
4 5981 5980 376 556 
4 5957 5958 533 353 
4 5839 5840 558 378 
4 367 5851 5850 547 
4 505 325 5892 5893 
4 5983 5984 559 379 
4 560 380 5984 5985 
4 504 324 5893 5894 
4 561 381 5985 5986 
4 503 323 5894 5895 
4 562 5986 5987 382 
4 502 322 5895 5896 
4 5987 5988 563 383 
4 321 501 5897 5896 
4 5989 5988 384 564 
4 320 500 5898 5897 
4 5990 565 5989 385 
4 319 499 5899 5898 
4 5991 5990 386 566 
4 318 498 5900 5899 
4 5992 5991 387 567 
4 497 317 5900 5901 
4 5993 5992 388 568 
4 316 496 5902 5901 
4 5994 5993 389 569 
4 495 315 5902 5903 
4 5994 390 5995 570 
4 5904 5903 314 494 
4 5995 5996 571 391 
4 5905 5904 313 493 
4 7590 8809 7594 3525 
4 9026 9027 6339 2740 
4 5996 5997 572 392 
4 5906 5905 312 492 
4 7672 3455 4762 4761 
4 3693 9755 8381 8112 
4 4561 4436 8217 8864 
4 4422 8892 8231 4540 
4 8913 7698 7694 3437 
4 4668 3637 9790 3635 
4 6572 6671 8825 8823 
4 5411 7254 5221 5220 
4 8986 8987 6378 8184 
4 7783 7620 3499 8837 
4 5118 5119 8383 7172 
4 4552 4551 8222 4431 
4 8346 8343 6239 4504 
4 7570 3542 8362 8077 
4 8435 7224 5066 5067 
4 4388 8960 8265 4487 
4 8066 6392 8554 4378 
4 5997 5998 573 393 
4 6586 6682 8801 8799 
4 4500 4397 8256 8942 
4 5907 5906 311 491 
4 4182 4382 7882 8076 
4 8912 4412 4523 8241 
4 4405 4404 3426 8926 
4 9996 9439 9967 5442 
4 471 7879 418 3745 
4 286 444 7878 3744 
4 7372 7861 7857 4833 
4 7129 7128 9151 2678 
4 7257 5217 5408 3137 
4 5529 9529 2982 2981 
4 7668 8885 7670 3462 
4 8147 8486 9809 3608 
4 3404 7733 8948 8950 
4 7606 7612 3513 8825 
4 3388 7571 8078 8363 
4 7283 3084 9477 7284 
4 4809 4621 8588 6005 
4 4771 3439 7690 4772 
4 8423 3609 9808 8125 
4 7694 3437 4774 4773 
4 7155 7156 2964 9356 
4 417 7879 3771 418 
4 286 287 3770 7878 
4 3462 7668 4759 4760 
4 9532 8577 6003 8099 
4 7157 7158 2961 9358 
4 3978 3977 6989 7976 
4 7818 8436 4641 7717 
4 3525 7590 4721 4722 
4 4395 4394 3409 8946 
4 8870 4432 4433 6646 
4 2804 9436 2807 2805 
4 6719 8516 9770 8160 
4 3524 7596 4723 4724 
4 3530 7586 4719 4720 
4 7051 8995 8997 6474 
4 7604 4727 3517 4728 
4 8437 7818 3581 4640 
4 2918 7178 5303 5112 
4 7838 300 455 2780 
4 404 7840 2782 460 
4 2741 9025 9026 7067 
4 9946 9988 9459 5599 
4 8796 8798 3531 7583 
4 5037 4477 6019 9158 
4 9831 6743 8468 8140 
4 5626 3728 7576 9350 
4 5119 5310 7171 2932 
4 9345 8563 9351 5045 
4 7184 5107 5106 8395 
4 7604 7608 3517 8821 
4 7596 7600 3524 8813 
4 2748 9011 6466 6467 
4 8446 7235 5055 5056 
4 4757 3463 7662 4758 
4 7617 4692 7780 8385 
4 9795 3632 8152 8498 
4 5998 5999 574 394 
4 7606 3513 4730 4729 
4 9744 3712 8170 8538 
4 9436 9995 5445 9966 
4 8264 8263 4490 9146 
4 8156 9783 8506 6724 
4 6678 8809 6580 8807 
4 5908 5907 310 490 
4 9545 3887 3888 5627 
4 6684 8797 6589 8795 
4 8913 8911 6518 6626 
4 4783 4784 3423 7714 
4 8154 8502 9789 3640 
4 3521 7598 4725 4726 
4 8461 3560 7021 5220 
4 9747 8169 8536 3708 
4 7238 8449 5053 5052 
4 2907 9385 2906 2909 
4 5074 8428 5073 7217 
4 7811 8426 4651 7697 
4 4811 7364 5231 3181 
4 2931 2930 2933 9373 
4 9807 3612 8148 8488 
4 9999 9392 9974 5489 
4 9756 8165 8528 3692 
4 4670 7797 3639 8407 
4 8105 9345 9351 5045 
4 4663 4664 3456 7673 
4 8300 6327 9037 9040 
4 7828 8450 4627 7745 
4 7142 7349 440 2769 
4 4522 8244 8243 9105 
4 9792 8500 3636 8153 
4 9389 5492 10008 10013 
4 5219 6746 8462 3560 
4 9742 3716 8171 8540 
4 8440 7229 5061 5062 
4 7079 7078 9051 2728 
4 7050 2758 8992 8991 
4 5077 8425 5076 7214 
4 5232 3184 4812 7363 
4 10007 10014 9396 5485 
4 2690 9126 6239 9127 
4 2866 2864 2865 9406 
4 7352 3760 3174 295 
4 10012 9422 10006 5459 
4 3762 7354 409 3176 
4 2971 8594 6207 2970 
4 9392 2892 2894 2893 
4 7711 9821 4645 7709 
4 4386 4486 8267 4484 
4 9050 9051 6315 2728 
4 9136 9133 6231 8348 
4 3541 8588 7756 9536 
4 9799 8415 8122 3623 
4 8166 8530 9754 3696 
4 7592 3530 7586 8805 
4 8168 8534 9749 3704 
4 7859 7370 4834 7855 
4 9433 9964 9994 5448 
4 2812 2811 9433 2810 
4 3683 8114 9760 8386 
4 8909 3439 7696 7690 
4 8123 8419 9803 3617 
4 5309 5119 7172 2932 
4 9113 9111 6416 7109 
4 9741 3717 8108 8369 
4 4411 4410 6621 8914 
4 5213 3572 6743 8468 
4 4693 3685 8384 7780 
4 7822 8441 4636 7727 
4 9148 9145 6219 8354 
4 5214 6997 3572 8467 
4 6213 6754 8357 8358 
4 3445 7683 8896 8898 
4 8143 8476 9822 3588 
4 2748 9012 7060 9011 
4 8960 4387 8962 8266 
4 7862 4840 2778 7872 
4 7116 7117 2690 9127 
4 8281 8283 4601 6365 
4 10005 5517 10011 9364 
4 8429 4648 7813 7703 
4 8167 8532 9752 3700 
4 7659 7797 4670 8407 
4 4529 6270 8238 9094 
4 9989 9373 9948 5508 
4 8119 8401 3651 9781 
4 2783 7846 4815 7245 
4 2785 7340 7848 4816 
4 6260 8243 9104 9105 
4 8434 8129 9823 3585 
4 4756 3468 4755 7660 
4 3075 9482 7288 7289 
4 4782 7712 3427 4781 
4 7130 9155 7132 2676 
4 4424 8229 8888 8886 
4 7076 9047 6449 9045 
4 7743 3398 6601 8956 
4 395 575 5823 5822 
4 3628 9798 8496 8151 
4 2771 475 7351 7140 
4 7601 7603 4699 9753 
4 9125 2691 7117 9126 
4 3444 7686 4769 4770 
4 4550 9066 8224 8223 
4 2790 5419 6705 7244 
4 9385 5496 9977 10001 
4 3705 3707 4703 9748 
4 7807 3440 7691 8904 
4 4849 8085 3990 4191 
4 4282 8087 4940 4082 
4 3681 3683 4691 8386 
4 8193 9003 8192 4597 
4 309 489 5914 5913 
4 5163 3672 6718 8518 
4 8146 8484 9812 3604 
4 3655 3657 4678 9779 
4 3721 7764 7766 8367 
4 4677 7645 7792 8400 
4 2826 9425 2828 2827 
4 7475 7476 3383 9252 
4 6442 7083 9061 9059 
4 8816 3514 7597 7601 
4 4702 7595 7773 8375 
4 8903 8905 6631 6523 
4 8564 5046 9350 9346 
4 5246 7235 2806 5056 
4 7886 6113 7885 3886 
4 5414 3148 7251 5223 
4 4512 8924 8247 8248 
4 8846 8848 8209 4444 
4 2908 5297 7184 5107 
4 8091 3727 7760 9536 
4 5378 5187 3076 7287 
4 2842 2840 9418 2841 
4 8909 8907 6520 6629 
4 9368 2941 2943 2940 
4 2835 2832 9422 2833 
4 7801 8414 4663 7673 
4 2847 9415 2846 2848 
4 3468 8877 7660 7664 
4 8929 7716 7712 3427 
4 3179 6010 7358 8971 
4 6754 6213 4485 8358 
4 3526 8804 6677 7591 
4 7361 8972 3178 6009 
4 7173 2929 7174 5307 
4 5302 7179 5112 5111 
4 5378 5188 7287 3079 
4 6484 7369 5622 3186 
4 7368 5621 6483 3185 
4 6583 6680 8805 8803 
4 8506 8505 5176 3648 
4 8967 6754 8357 6486 
4 2816 9430 2818 2817 
4 7123 2684 7122 9139 
4 7175 7174 5306 5116 
4 2798 2799 9439 2800 
4 3736 9541 8970 7753 
4 9961 5589 9991 9469 
4 7797 3464 8876 7659 
4 3796 9734 8973 8971 
4 4798 7746 3396 3397 
4 7709 7705 3424 8924 
4 2884 2885 9396 2887 
4 9825 3584 8142 8474 
4 8860 8215 8858 4438 
4 8908 4414 8239 8906 
4 5165 3668 6719 8516 
4 8295 8296 9027 6337 
4 7105 7104 9103 2702 
4 8808 8810 8190 4463 
4 5166 7026 3668 8515 
4 7813 8430 4647 3595 
4 8132 9832 8442 3569 
4 9813 8427 8127 3599 
4 3656 8510 6722 5171 
4 5475 10002 9978 9406 
4 9830 3575 3573 4637 
4 2949 9364 2948 2951 
4 9389 2899 2901 2898 
4 7797 7663 4669 8408 
4 3515 7602 3698 7775 
4 3665 8117 8394 9771 
4 10015 9368 10009 5513 
4 6484 7369 3186 7569 
4 7368 6483 7568 3185 
4 7173 2929 5307 5117 
4 3522 7594 3706 7772 
4 4792 3405 3410 7734 
4 3460 7666 3634 7799 
4 6562 4579 6786 8296 
4 7185 5295 5105 2905 
4 7567 4372 3386 7882 
4 3455 8889 7672 7674 
4 8905 7692 7686 3444 
4 7833 3739 8571 4187 
4 305 10031 486 485 
4 5241 2795 7240 5050 
4 3425 7710 3430 4780 
4 3503 8830 7617 7780 
4 8193 8814 8816 4460 
4 7206 7207 5274 2863 
4 8208 4571 4574 4445 
4 9842 4628 3557 3555 
4 3788 273 8561 433 
4 7234 5247 2806 5056 
4 3714 3528 7588 7769 
4 8206 9029 8205 4575 
4 8236 8235 4530 9090 
4 5217 8464 7258 7257 
4 3509 7612 3690 7779 
4 4680 7641 8397 7789 
4 2803 5244 7236 5054 
4 3527 7592 3710 7771 
4 3459 7670 3630 7800 
4 8219 4556 8218 8866 
4 2873 2870 9403 2871 
4 7826 7739 3398 8956 
4 2852 2854 9412 5469 
4 7137 2669 2674 8587 
4 8175 8360 4837 9344 
4 7810 7696 3438 3606 
4 9154 9151 6213 8357 
4 9849 9545 8071 3888 
4 10016 5499 10018 9382 
4 6392 3790 6018 8554 
4 7102 7101 9097 2705 
4 9535 8792 4383 3392 
4 9451 5607 9971 9998 
4 3511 7608 3694 7777 
4 3519 7600 3702 7774 
4 8893 6635 8891 6530 
4 7764 3533 7763 4711 
4 4527 4415 8238 8906 
4 4686 4685 3671 9768 
4 7275 8481 5200 5199 
4 5267 5077 7214 2849 
4 4625 3390 7747 3394 
4 5252 7229 2819 5062 
4 3441 7692 3610 7808 
4 9846 4624 4625 3549 
4 436 3777 276 3755 
4 3757 3779 479 428 
4 5229 7365 3182 6009 
4 3183 6010 5230 7362 
4 4172 4171 5030 9162 
4 8854 3483 7637 7789 
4 2908 7183 5298 5107 
4 9061 4551 8221 8222 
4 2972 8599 3162 6017 
4 3735 4185 8078 7753 
4 7231 5250 2813 5059 
4 7614 3505 7610 8829 
4 4421 3453 4422 8892 
4 5043 7368 7376 3185 
4 7369 5044 3186 7377 
4 5071 5262 7219 2837 
4 2801 5243 7238 5053 
4 7224 2829 5257 5067 
4 4436 8864 4435 3477 
4 416 7880 3772 417 
4 3769 288 7877 287 
4 4480 4838 9343 5038 
4 3421 7716 3586 7817 
4 10022 9445 10023 5613 
4 5274 7206 2863 5084 
4 4569 6325 6327 9040 
4 2687 7119 7120 9133 
4 8417 7803 4660 3619 
4 3597 9815 3599 4649 
4 5098 5288 2891 7192 
4 7798 3465 3638 7664 
4 3642 7796 3466 7658 
4 8508 6723 3652 5173 
4 8824 7778 3508 7605 
4 2912 9382 2913 2914 
4 7801 8414 3625 4663 
4 486 305 485 8602 
4 8940 4398 4502 8255 
4 5264 5074 7217 2843 
4 4524 4413 8240 8910 
4 6379 2761 8985 7045 
4 3668 6719 8516 4741 
4 7201 5090 5280 5089 
4 6775 4547 8317 6535 
4 2945 5125 7165 5316 
4 8448 7826 4629 7743 
4 5100 7190 2895 5291 
4 9403 5478 10021 10019 
4 3541 4809 4621 8588 
4 3647 4674 7794 8403 
4 5218 7257 5408 3138 
4 8133 9836 8445 3563 
4 2883 5094 5284 7196 
4 8696 8697 6000 576 
4 3572 6743 8468 4789 
4 4494 4394 8259 8948 
4 2867 7204 5277 5086 
4 5187 8494 7288 7287 
4 3715 3717 4708 8369 
4 3649 3651 4675 9782 
4 4825 7834 6483 3741 
4 4826 7836 6484 3742 
4 8854 3483 7641 6653 
4 4180 6206 7374 7359 
4 3442 7688 3614 7806 
4 3738 4186 8077 7578 
4 8424 7809 4653 7695 
4 7252 7253 8137 5222 
4 3440 6628 7691 8904 
4 8307 8308 9051 6313 
4 7820 7719 3413 8938 
4 8838 3497 7619 7784 
4 5209 5210 8471 7265 
4 9801 3621 4661 3623 
4 6205 7360 7375 4179 
4 4658 8419 3615 3617 
4 3425 7710 3590 7815 
4 8448 8134 9840 3557 
4 3653 4677 7792 8400 
4 7683 3445 7681 8898 
4 3606 8485 9809 3608 
4 4504 8346 6502 6500 
4 3703 4702 7773 8375 
4 7216 5074 5265 2843 
4 7210 9411 7211 2855 
4 8798 3531 7583 7581 
4 5276 7205 2867 5086 
4 8804 3526 7585 7770 
4 4482 4483 8359 4384 
4 7034 437 277 2775 
4 478 7037 2777 427 
4 10030 7832 4804 7830 
4 3632 3630 9795 8497 
4 3736 8970 6591 4185 
4 3464 7663 8876 6642 
4 9756 3690 8527 3692 
4 7603 3516 8818 7601 
4 7251 7252 8458 5223 
4 6265 9100 6267 4525 
4 9997 9454 9969 5604 
4 6684 6590 8795 6797 
4 4389 8958 8264 4488 
4 8546 5434 4622 4814 
4 8922 4406 8924 8247 
4 2829 7223 5258 5067 
4 5249 7232 2813 5059 
4 3151 5224 5414 7251 
4 5100 5290 2895 7191 
4 4498 4395 4497 8258 
4 299 7856 3756 454 
4 3758 405 7858 461 
4 3069 9485 7291 7292 
4 8202 8832 8834 4451 
4 7243 2789 9345 5045 
4 4547 6534 8317 6535 
4 8842 8207 8206 4576 
4 5365 7300 7299 5175 
4 3023 7314 7315 9508 
4 2792 5239 7242 5049 
4 3665 4682 3663 9773 
4 7295 7296 3061 9489 
4 6275 2709 9089 7097 
4 9475 7282 7281 3089 
4 8995 8188 8189 4602 
4 3712 3710 9744 8537 
4 8846 8844 6657 4445 
4 4528 8328 6769 6520 
4 8139 5216 7258 7259 
4 4407 4515 4516 8246 
4 7678 3457 4763 7802 
4 9792 3636 3634 8499 
4 8535 9747 3706 3708 
4 9838 3561 4631 3563 
4 4554 9059 8221 8220 
4 3714 9742 3716 8539 
4 9153 9152 6396 7128 
4 8260 4494 8259 8948 
4 6279 2711 9085 7095 
4 4518 4409 4522 8244 
4 8917 8915 6516 6623 
4 8246 4516 8247 9111 
4 2862 2860 5473 9408 
4 9037 2735 7072 7071 
4 4432 8872 4431 6644 
4 3757 429 7855 2781 
4 9475 5583 3088 3091 
4 3092 9473 7279 7280 
4 3060 3063 9489 5569 
4 9471 3096 7278 7277 
4 4744 9774 4743 3664 
4 5543 3011 3008 9515 
4 9525 5533 2988 2991 
4 3612 3610 9807 8487 
4 8935 8937 6614 6504 
4 9789 8501 3640 3638 
4 3719 3721 7766 8367 
4 6562 6560 4579 8296 
4 7126 7125 9145 2681 
4 2687 7119 9133 6231 
4 9448 9979 10003 5610 
4 6576 8282 4598 6792 
4 6537 8314 4549 6776 
4 7885 6203 3887 3886 
4 5506 9375 2928 2926 
4 5138 3722 8543 8542 
4 2992 7329 7330 9523 
4 6543 8310 4555 6778 
4 6659 8840 4448 4447 
4 9485 5573 3068 3071 
4 3698 8531 9752 3700 
4 9754 3694 8529 3696 
4 6331 8299 6329 9036 
4 3702 8533 9749 3704 
4 4392 4495 4491 8261 
4 7293 7294 3064 9487 
4 3004 5541 3007 9517 
4 3003 3000 5539 9519 
4 2859 9410 2856 5471 
4 5595 9463 3115 3112 
4 7227 7226 5254 5064 
4 8965 8963 6488 6599 
4 7711 7709 3426 8926 
4 3677 3679 4689 8388 
4 8577 4181 6003 8099 
4 7575 9546 4378 3192 
4 7319 7320 3012 9513 
4 9483 3072 7290 7289 
4 9461 3116 3119 5597 
4 4542 6531 8319 6532 
4 3507 7781 4733 7618 
4 4621 4813 8545 5433 
4 4851 3991 9250 4193 
4 9339 4284 4942 4083 
4 7471 3201 3200 6812 
4 3295 6813 3294 7564 
4 8421 4656 3613 3611 
4 8322 9078 6287 8320 
4 3689 8382 9757 8113 
4 6327 2735 9037 7071 
4 7269 9463 7270 3113 
4 2999 2996 5537 9521 
4 6805 7858 7373 7347 
4 7856 6804 7346 7371 
4 7886 6113 3886 3885 
4 2969 7154 8595 5327 
4 7318 3016 7317 9511 
4 8872 8874 8222 4431 
4 6746 8462 3560 4795 
4 3586 8475 9822 3588 
4 4171 9162 9252 8696 
4 2953 5129 7161 5320 
4 5282 7199 5092 5091 
4 7138 2673 8582 8587 
4 4513 4405 4512 8248 
4 4603 6580 8278 6794 
4 8870 8872 4432 6646 
4 3728 7761 7576 9350 
4 3575 8131 8439 9829 
4 9774 8513 8159 3664 
4 2959 2956 5521 9360 
4 8308 9050 9051 6315 
4 3605 8424 9810 8126 
4 4831 7873 4820 4615 
4 4616 7875 4829 4819 
4 5217 5218 7257 5408 
4 7306 3040 7305 9499 
4 3602 8483 9812 3604 
4 6736 8482 6996 5199 
4 2825 5454 9427 2822 
4 5224 5414 7251 5223 
4 8360 4477 4837 9344 
4 7711 4645 4644 3426 
4 7177 7176 5304 5114 
4 9537 7757 5229 8974 
4 6663 8834 4451 4450 
4 4565 9045 8214 8213 
4 7125 7127 9148 2680 
4 3711 3713 4706 8371 
4 6546 6547 8308 4560 
4 7844 3765 473 4831 
4 9409 7209 7208 2858 
4 4387 4386 6597 8962 
4 5134 7156 5324 2963 
4 3577 8438 3579 4639 
4 7022 5209 6741 8472 
4 8208 9033 8207 4574 
4 3516 7603 4698 4699 
4 5416 7248 3155 5226 
4 7778 7611 4695 8382 
4 5504 2922 9377 2925 
4 7303 7302 5362 5172 
4 5160 6717 8521 8162 
4 4394 4498 4494 8259 
4 9051 9054 6313 2727 
4 7625 4688 7784 8389 
4 8227 8226 8882 4546 
4 3050 3053 9494 5564 
4 9067 4548 8224 8225 
4 2924 7175 7176 9376 
4 9730 9554 7886 6988 
4 3584 9825 8473 3582 
4 9102 6263 8334 8332 
4 3049 9496 3046 5562 
4 7352 7145 452 3174 
4 7147 463 7354 3176 
4 8298 6331 6333 9034 
4 6801 7758 3198 3539 
4 8296 9026 9027 6339 
4 484 485 6008 8098 
4 8410 5092 3633 3635 
4 4590 8196 4591 4457 
4 7156 7157 5324 2963 
4 6311 8309 6309 9056 
4 9506 3027 3028 5552 
4 9154 7130 6211 2677 
4 2942 7166 7167 9367 
4 2689 6237 9130 9127 
4 7319 5346 7318 3015 
4 9103 9106 6261 2701 
4 471 3745 419 7866 
4 8903 8901 8324 6524 
4 8830 3503 7613 7780 
4 8597 8085 4191 7471 
4 4282 8598 8087 7564 
4 8302 8304 6323 9042 
4 4485 6754 8358 6487 
4 285 444 3744 7864 
4 2936 2939 9370 5511 
4 8303 8304 9043 6321 
4 3025 9508 3022 5550 
4 9126 8346 6239 9127 
4 5077 5268 7213 2849 
4 7574 3747 7857 7835 
4 8414 9797 3627 7673 
4 7228 5253 2819 5062 
4 7163 2950 7162 9363 
4 5188 5187 5378 7287 
4 4403 4509 4510 8250 
4 4647 8430 3593 3595 
4 3190 3731 7566 3292 
4 6398 9149 7127 2679 
4 7844 7873 7358 4831 
4 6587 6589 8273 4611 
4 484 485 304 6008 
4 6001 6000 396 576 
4 6669 8824 4456 4455 
4 5388 3096 7277 5197 
4 9138 6227 8352 8350 
4 7842 7875 7361 4829 
4 5575 9483 3074 3073 
4 9132 6235 6233 8347 
4 7319 5155 7320 8526 
4 3722 7580 7765 8542 
4 5545 3014 3013 9513 
4 8953 8951 6495 6604 
4 8973 3730 3541 9536 
4 8286 8289 4592 6353 
4 7220 9421 7221 2834 
4 5912 8785 4941 4082 
4 8694 4850 5821 3990 
4 4654 6627 7809 7689 
4 2966 7155 9356 9355 
4 8205 8840 4575 4448 
4 8322 9078 9079 6287 
4 3503 8830 6666 7617 
4 5525 2966 9356 9355 
4 6655 6554 6783 8851 
4 7195 2886 7194 9395 
4 3626 3628 8495 9798 
4 7188 2900 7187 9388 
4 6552 6654 8857 8855 
4 6215 9150 8356 8358 
4 9527 5531 2985 2987 
4 9758 3687 8383 8384 
4 3760 7846 4815 2770 
4 3762 2772 7848 4816 
4 8838 6661 4448 4449 
4 6208 8593 6006 4810 
4 9102 6263 9103 8334 
4 5909 5910 488 308 
4 7329 5336 2992 5145 
4 5386 3092 7279 5195 
4 7293 5372 3064 5181 
4 7180 5301 5110 5111 
4 2684 7122 9139 6225 
4 7335 7336 2980 9529 
4 7067 7066 9027 2740 
4 5212 8469 7263 7262 
4 6639 4428 4427 8880 
4 8605 8606 5909 488 
4 8519 5162 7312 7313 
4 8840 8838 6661 4448 
4 7193 5097 5288 2889 
4 6567 6667 8833 8831 
4 7240 8135 7239 5051 
4 5295 5104 2903 7186 
4 4511 8340 6763 6507 
4 7230 7231 8132 5060 
4 9811 3605 3603 4652 
4 3440 7807 7685 8904 
4 7101 7103 9100 2704 
4 7172 5119 7171 2932 
4 5072 8128 7219 7218 
4 8127 7216 5075 7215 
4 6112 7887 3884 3885 
4 8551 6698 3771 5034 
4 6697 5033 3770 8552 
4 6225 9139 8352 8351 
4 8832 6664 4451 4452 
4 8444 7824 4633 3565 
4 7790 4745 3488 7642 
4 8085 3989 8597 6986 
4 8598 8087 4081 6987 
4 6259 8335 6257 9108 
4 8812 8814 8192 4461 
4 3561 8447 8446 9838 
4 8395 3663 8396 9773 
4 9139 9138 6227 8352 
4 8304 6323 9042 9043 
4 7040 6698 8551 5034 
4 6697 5033 8552 7133 
4 8447 3561 4630 7739 
4 6681 3531 7581 4708 
4 9040 2734 7071 7073 
4 8828 8199 4588 8200 
4 4394 4393 3404 8948 
4 5284 5093 2881 7197 
4 4658 3445 6632 7681 
4 7119 2686 7121 9136 
4 4175 5437 5629 9731 
4 5630 5438 9732 4176 
4 5193 6733 7008 8488 
4 6221 9144 6223 8353 
4 8591 6386 5034 5036 
4 8502 6726 5179 7007 
4 3095 3093 5585 9473 
4 7075 7074 9043 2732 
4 4525 8330 6768 6518 
4 8300 6553 8855 8853 
4 5091 8411 3633 3631 
4 7333 2984 5141 5332 
4 3179 7844 9850 7358 
4 2915 7180 7181 9381 
4 8310 6541 8875 8873 
4 7708 3594 8479 7814 
4 6592 4186 8271 4480 
4 5090 7200 5281 5091 
4 6691 8105 6808 5045 
4 8075 5811 4181 4381 
4 8336 8927 8925 6510 
4 8304 8303 4567 6321 
4 7574 5812 6694 8076 
4 4710 7764 3721 4711 
4 6812 5632 5631 9641 
4 5721 9729 5720 6813 
4 8826 6668 4454 4455 
4 5096 5286 2886 7195 
4 2747 9013 7059 7060 
4 2942 5124 5314 7167 
4 5159 6716 8522 3680 
4 3621 8417 8416 9801 
4 9834 4634 3569 3567 
4 9151 9150 6215 8358 
4 7580 3538 7765 8795 
4 7214 5077 7213 2849 
4 8912 4411 4412 6622 
4 3190 7573 4377 7380 
4 7229 7228 2819 5062 
4 3547 8454 6691 5047 
4 8210 4568 4573 4443 
4 5128 2950 7163 5318 
4 3099 3097 5587 9471 
4 2900 5103 5293 7188 
4 6543 6647 8871 6778 
4 3065 3067 9487 5571 
4 2995 2993 5535 9523 
4 8435 8436 9824 3583 
4 3190 7573 7380 7566 
4 4839 4173 7346 7371 
4 7373 7347 4174 4840 
4 7093 7092 9079 2714 
4 6547 6546 8308 8865 
4 4397 4396 6607 8942 
4 459 7840 8562 3171 
4 3169 456 8560 7838 
4 6759 8947 6606 6497 
4 5260 5070 7221 2834 
4 9425 5456 2826 2828 
4 7365 8570 4814 3182 
4 8283 6792 4601 6365 
4 7762 8791 7760 3540 
4 7233 7234 8133 5057 
4 7003 3676 5162 8519 
4 2801 7237 5244 5053 
4 8412 5090 3629 3631 
4 8444 9834 8443 3567 
4 3649 9782 8403 8402 
4 2840 2842 9418 5463 
4 9020 8200 8201 4584 
4 7078 7080 9054 2727 
4 6771 8899 6633 6526 
4 7005 3576 5212 8469 
4 4388 4387 6598 8960 
4 8504 7298 8505 5176 
4 9415 2846 2848 5466 
4 7755 3543 9351 5625 
4 6994 5141 6707 8540 
4 7299 7300 8156 5175 
4 3725 7762 8365 9736 
4 7185 5105 7186 8118 
4 5098 7193 7192 8120 
4 7632 7788 3489 8849 
4 6765 8923 6618 6511 
4 8797 6587 8273 8799 
4 6756 8959 6602 6490 
4 7118 7116 2689 9130 
4 7237 8134 7236 5054 
4 4754 3466 3470 7658 
4 4170 9252 9253 8697 
4 5438 8096 8094 5814 
4 3442 7688 3446 4768 
4 8429 9815 8428 3597 
4 5813 5437 8093 8095 
4 5189 3620 6731 8492 
4 8449 8450 9842 3555 
4 2816 9430 5451 2818 
4 8973 3730 5230 3541 
4 8440 8441 9830 3573 
4 9811 8425 8426 3603 
4 4412 4524 4523 8241 
4 2798 9439 5442 2800 
4 4500 4397 4502 8256 
4 8951 8949 8348 6496 
4 4482 4483 5031 8359 
4 4813 4824 7867 2784 
4 2683 7124 7122 9142 
4 8963 8961 8354 6489 
4 4649 7699 3434 3431 
4 3737 9540 8969 7578 
4 5554 9504 3033 3031 
4 5607 9451 3139 3136 
4 8870 4554 8220 4433 
4 8517 5164 7310 7311 
4 7096 9084 2712 6281 
4 3705 9748 8375 8374 
4 6724 8506 5175 3648 
4 2804 9436 5445 2807 
4 4419 8898 8234 4533 
4 3655 8399 9779 8400 
4 8432 3589 8433 9821 
4 9001 7054 7053 2753 
4 8406 9788 3641 8407 
4 4440 8856 4439 6651 
4 5437 4175 8093 9731 
4 9732 5438 8094 4176 
4 7112 7111 9117 2695 
4 4464 8806 6676 4465 
4 3447 7679 7675 8894 
4 6247 9117 6249 8341 
4 5425 8577 4181 6003 
4 3387 3389 7832 3544 
4 8878 4428 4429 6641 
4 8570 8179 4814 3182 
4 8265 4388 4487 4488 
4 8235 9087 8234 4533 
4 6213 6215 4485 8358 
4 3697 8378 9753 8379 
4 6584 8274 8801 8803 
4 8491 5190 8490 7284 
4 7733 7729 3404 8948 
4 7739 7735 3402 8954 
4 8310 6543 8311 6778 
4 7697 8912 7693 6624 
4 7202 2872 5279 5089 
4 9785 4753 3646 7656 
4 3487 8852 7637 7633 
4 7727 7723 6608 8942 
4 9385 5496 2906 2909 
4 6735 8484 7000 5197 
4 396 576 5822 5821 
4 7745 7741 6600 8960 
4 7104 9106 2701 7106 
4 8975 5039 8080 8102 
4 8289 6789 4592 6353 
4 5126 8111 7165 7164 
4 8848 8850 8210 4443 
4 6571 8286 8825 8827 
4 9481 5577 3077 3078 
4 8119 7190 5101 7189 
4 2930 2933 9373 5508 
4 8129 7223 5068 7222 
4 9013 8289 6353 6351 
4 9402 7202 7201 2872 
4 7235 7234 2806 5056 
4 6592 4186 3737 8969 
4 8198 8826 4586 4455 
4 4281 9341 4080 4845 
4 8500 6727 5181 7015 
4 4406 4405 3424 8924 
4 4392 8261 8952 8950 
4 7016 6734 8486 5195 
4 6783 4572 8301 6329 
4 7300 7301 8507 5174 
4 4608 8184 8798 4469 
4 8536 7009 6709 5145 
4 8421 8124 7209 5081 
4 2699 9109 7107 7108 
4 2866 2865 5475 9406 
4 5489 9392 2894 2893 
4 6995 5143 6708 8538 
4 7019 5207 6740 8474 
4 9097 6269 6267 8331 
4 7176 5114 8388 8115 
4 8826 8824 6669 4455 
4 7882 4182 8076 8100 
4 8125 8423 5079 7211 
4 4078 9163 9164 8606 
4 6710 8534 6998 5147 
4 6728 6999 5183 8498 
4 4496 6225 8352 8351 
4 8577 5425 8571 7851 
4 7571 8104 8363 3793 
4 8371 5131 8109 7159 
4 6711 8532 7011 5149 
4 8528 6713 5153 7020 
4 7793 3476 7650 8865 
4 8563 2788 5625 5045 
4 7570 8103 8362 3794 
4 8122 7203 7204 5087 
4 308 488 5913 5912 
4 7869 2786 4814 4823 
4 8530 6712 5151 7018 
4 7717 7713 3418 8932 
4 7183 2908 7184 5107 
4 3490 8848 4444 4443 
4 3034 9502 5556 3037 
4 2811 2812 9433 5448 
4 8203 4582 4580 4450 
4 6684 3538 4715 7580 
4 7130 2676 6211 2677 
4 8866 7647 7651 3471 
4 7049 8993 7050 2757 
4 7076 7077 9048 2730 
4 8890 4422 8892 8231 
4 3054 3057 9492 5566 
4 4767 7684 3618 9804 
4 5580 9478 3085 3082 
4 8217 4436 8862 8864 
4 8567 3791 7846 4815 
4 8568 3792 7848 4816 
4 7302 7303 8509 5172 
4 7382 7383 3289 9163 
4 2725 9057 7081 7082 
4 6759 6233 4501 8349 
4 8822 3512 7607 7605 
4 7237 2801 7238 5053 
4 3291 3190 7380 7566 
4 6365 8283 6363 9001 
4 6257 6765 8337 4519 
4 9459 3121 3122 5599 
4 6582 8807 8276 8805 
4 8909 8328 8911 6519 
4 8315 6299 6301 9065 
4 3789 8565 4843 6704 
4 9454 5604 3131 3132 
4 9740 3720 8172 8542 
4 3127 3129 9456 5602 
4 7090 7091 9076 2716 
4 4690 3681 7782 8387 
4 7628 7786 3496 8845 
4 8476 7013 6739 5205 
4 3390 8966 4385 6595 
4 10025 2965 9357 9356 
4 5398 5207 3117 7267 
4 7068 9030 2739 6335 
4 2762 8984 6381 7046 
4 9021 8201 8202 4583 
4 3102 3101 5589 9469 
4 5592 3108 3107 9466 
4 2966 6112 5526 9355 
4 4570 8211 8852 4442 
4 8975 4476 5039 8102 
4 9735 4177 8972 3795 
4 8816 3514 4459 4460 
4 5032 4613 4614 8181 
4 8907 8905 8326 6522 
4 9065 2721 7086 7085 
4 7232 7231 2813 5059 
4 7174 8114 5116 8386 
4 8419 7207 5083 8123 
4 8262 4391 8954 4492 
4 5074 7216 7217 2843 
4 6548 8305 8861 8863 
4 7703 7699 3431 8918 
4 7223 2829 7224 5067 
4 9013 6351 2747 7059 
4 8193 4597 4593 6360 
4 7757 8546 4622 4814 
4 8308 8307 4560 6313 
4 7205 7204 2867 5086 
4 8186 4606 4605 4467 
4 6542 8870 4433 3469 
4 2915 5300 7181 5110 
4 9161 9163 4079 8605 
4 5338 2997 7327 5147 
4 7323 5342 3005 5151 
4 6562 6786 8293 8296 
4 4608 8987 8185 8184 
4 5340 3001 7325 5149 
4 8564 5626 5046 2974 
4 9062 2723 7083 7084 
4 4417 8236 4530 4531 
4 6255 2699 9109 7107 
4 6371 8279 8993 6373 
4 2989 5143 7331 5334 
4 5183 3069 5374 7291 
4 8998 7051 7052 2755 
4 7196 5094 7197 8121 
4 9006 6359 2751 7056 
4 7321 5344 3009 5153 
4 7473 7474 3385 9342 
4 7190 5100 2895 7191 
4 5164 7014 3672 8517 
4 9396 2884 2887 5485 
4 7183 7182 5108 8117 
4 8130 7226 8438 5064 
4 3689 3687 5119 8383 
4 6291 6293 6774 8318 
4 3183 4813 8569 7362 
4 4410 4520 4522 8243 
4 5133 8108 8369 7157 
4 6307 2725 9057 7081 
4 7269 5396 3113 5205 
4 4409 4518 8918 8244 
4 5229 3389 8974 3729 
4 8282 6575 8819 8817 
4 8381 5121 8112 7169 
4 8881 8314 8883 6536 
4 8595 2969 8596 7342 
4 7012 5185 6729 8496 
4 4813 4621 8545 7756 
4 8177 7876 3784 7350 
4 7348 8176 3782 7874 
4 2943 9368 2940 5513 
4 6018 3158 3166 8600 
4 2832 2835 9422 5459 
4 9750 3701 8376 8111 
4 8414 9797 8413 3627 
4 7295 5370 3061 5179 
4 3621 8416 5086 3623 
4 7281 5193 5384 3089 
4 6549 6652 8861 8859 
4 8504 8505 9785 6725 
4 3041 9499 5559 3043 
4 8196 8195 4590 9010 
4 7042 7041 2765 8976 
4 3561 8446 5056 3563 
4 7110 2697 9114 7109 
4 3665 3663 5107 8395 
4 8972 8974 3795 6009 
4 5376 5185 3072 7289 
4 8435 5067 3583 3585 
4 4185 3388 8078 5815 
4 8346 8941 6502 6500 
4 6732 9804 8491 8490 
4 6749 8456 5225 3548 
4 6392 3790 8554 4844 
4 5059 8443 3569 3567 
4 6555 8849 8851 8299 
4 4178 9734 3796 8971 
4 3651 3649 5100 8402 
4 9364 5517 2948 2951 
4 5492 9389 2901 2898 
4 4828 3740 4188 8572 
4 9511 3017 3019 5547 
4 6392 8554 4378 4380 
4 8600 3166 8978 7344 
4 7581 6681 4708 7768 
4 8555 8545 7152 5433 
4 7805 4658 6632 7681 
4 6422 9101 7103 2703 
4 6211 6213 6754 8357 
4 8428 5074 3597 3599 
4 5033 8592 6385 5035 
4 4813 3183 8569 8178 
4 3669 8393 8392 9769 
4 9851 7842 7361 3178 
4 4599 6368 8189 4602 
4 8288 6568 8831 8829 
4 8507 3652 7028 5174 
4 6579 8809 8811 8278 
4 7376 7368 7568 3185 
4 7369 3186 7569 7377 
4 8241 4524 8240 8910 
4 4502 8940 8255 8256 
4 8595 8107 8596 5417 
4 4186 3542 8077 5816 
4 2870 5478 2873 9403 
4 8935 8933 8340 6506 
4 9034 2737 7069 7070 
4 6558 8845 8847 8297 
4 4805 7759 8080 8102 
4 6789 8289 4587 6351 
4 9382 5499 2913 2914 
4 4507 4400 4505 8253 
4 7795 3472 7652 8869 
4 8430 8128 9817 3593 
4 7077 9049 2729 6448 
4 7876 413 3784 412 
4 292 3782 291 7874 
4 7272 7273 8479 5202 
4 6560 6562 8841 8296 
4 4486 8268 8964 8267 
4 8509 3656 7024 5172 
4 7827 8461 3558 7744 
4 7091 6434 9077 2715 
4 7092 9079 2714 6285 
4 6715 7781 8524 4733 
4 7823 8467 3570 7732 
4 8203 9024 8202 4580 
4 9642 6989 7976 9553 
4 8895 8897 6634 6528 
4 3390 4624 7751 6595 
4 2685 9137 6404 7121 
4 8285 6573 8823 8821 
4 8281 6577 8815 8813 
4 7003 3676 8519 3674 
4 8868 7655 3473 7794 
4 8563 7379 5625 4373 
4 7296 5369 5178 5179 
4 7697 4651 6622 6624 
4 4627 7745 6600 6598 
4 3574 3576 7005 8469 
4 8990 8186 4605 8185 
4 5383 5193 5192 7282 
4 3143 3145 9448 5610 
4 6664 6666 7615 4691 
4 8877 8879 6539 8313 
4 8339 8931 8929 6508 
4 6408 9129 9128 7116 
4 7073 2733 6452 9041 
4 5183 5182 5373 7292 
4 4745 7790 6721 8512 
4 6211 6754 4482 8357 
4 7328 5337 5146 5147 
4 3723 3721 5136 8366 
4 6295 6297 6775 8316 
4 7149 10 302 7030 
4 402 11 7031 7151 
4 7672 3459 4761 7800 
4 9445 3149 3150 5613 
4 9147 9146 6399 7125 
4 4786 4785 7722 3415 
4 3433 7702 4775 4776 
4 5142 5143 7332 5333 
4 8563 7379 7755 5625 
4 4731 7610 3509 7779 
4 3982 5624 8568 10029 
4 3981 8567 10028 5623 
4 6305 2724 9060 7083 
4 5387 5196 7278 5197 
4 8913 8330 8915 6517 
4 3605 5077 8425 3603 
4 8440 3575 5062 3573 
4 6277 2710 9088 7098 
4 4577 6785 8295 6335 
4 6253 2698 9112 7109 
4 8908 4413 6625 8910 
4 7580 4715 3722 7765 
4 4636 7727 6608 6607 
4 8981 5032 8979 8181 
4 8793 8181 8791 4472 
4 305 6003 485 304 
4 7823 8945 3411 7728 
4 3421 7817 4783 7714 
4 7606 3511 4729 7777 
4 6793 8280 6367 6369 
4 7598 3519 4725 7774 
4 6299 2721 9065 7085 
4 5053 8449 3557 3555 
4 8284 6359 6791 6361 
4 7616 3504 7618 8833 
4 8264 8958 8265 4488 
4 4757 3465 7798 7662 
4 9099 9098 6423 7101 
4 8275 6379 6796 6381 
4 8451 8135 9844 3551 
4 5426 9533 6004 400 
4 8504 5177 6725 3644 
4 9534 4479 4475 4473 
4 6781 8303 4563 6319 
4 7788 8515 3666 7636 
4 6333 8298 9034 9032 
4 8973 5230 7756 9536 
4 5046 5420 2975 9346 
4 5425 9532 8577 6003 
4 7694 7810 3438 4773 
4 6563 8837 8839 8294 
4 7586 3528 4719 7769 
4 6780 8306 4560 6315 
4 4386 4486 8964 8267 
4 7590 3527 4721 7771 
4 6283 6772 4536 8321 
4 4516 4512 8247 6252 
4 5390 3100 7275 5199 
4 6658 6556 8847 8849 
4 4771 7690 3441 7808 
4 3725 9737 3723 8365 
4 7114 2691 6410 9125 
4 9025 2741 7064 6460 
4 5400 5209 3120 7265 
4 4727 7604 3515 7775 
4 7668 3460 4759 7799 
4 7596 3522 4723 7772 
4 7242 7243 8454 5047 
4 7318 5157 8524 7317 
4 3659 9775 8118 8397 
4 3645 8120 8404 9784 
4 5191 3616 6732 8490 
4 5421 4835 6389 8580 
4 5422 8579 4836 6390 
4 8566 3790 6703 4844 
4 9849 5423 8065 3888 
4 4569 6783 8301 6327 
4 4812 5232 7363 7378 
4 7364 7379 4811 5231 
4 7308 5166 5167 5357 
4 5438 3293 3294 7565 
4 3199 5437 7472 3200 
4 7785 3498 7626 8841 
4 9131 6407 2688 7118 
4 7324 5341 5150 5151 
4 4393 4392 3406 8950 
4 7306 5169 8512 7305 
4 7322 5343 5152 5153 
4 7326 5339 5148 5149 
4 6531 8889 8891 8319 
4 6223 6757 4493 8351 
4 7275 7276 8482 5199 
4 5335 5144 7330 5145 
4 9347 3166 5424 3157 
4 3384 4371 4171 9162 
4 4499 6231 6759 8349 
4 8564 5626 4374 7378 
4 5385 5194 7280 5195 
4 7268 5397 5206 5207 
4 3727 8091 7760 9736 
4 5209 8472 7266 7265 
4 6305 8312 6777 6303 
4 9414 7214 7213 2849 
4 6764 8338 6251 6253 
4 7678 3452 4764 4763 
4 8467 5214 7260 7261 
4 6219 6756 4489 8355 
4 8196 8822 4591 4457 
4 7645 3480 4678 4677 
4 7270 5395 5204 5205 
4 8957 8955 6493 6603 
4 7229 7228 9429 2819 
4 5371 7294 5181 5180 
4 6765 6255 8337 4517 
4 9030 8295 6337 6335 
4 6391 3789 6017 8553 
4 6333 2738 9032 7069 
4 6020 4478 6384 8980 
4 8919 8921 6620 6514 
4 7254 7255 8461 5220 
4 6573 6790 8287 8823 
4 4809 8091 5227 8107 
4 7595 4702 3523 4703 
4 6361 9004 7055 2752 
4 8995 7049 8994 6475 
4 5033 8552 6593 3744 
4 8551 5034 3745 6594 
4 8893 8322 8895 6529 
4 8926 4404 8928 8249 
4 3591 3589 9821 4645 
4 2746 9016 6349 7061 
4 8287 6790 6357 6355 
4 7737 7824 3406 8950 
4 6450 7074 9045 9044 
4 6655 6554 8851 8853 
4 8486 6734 9809 3608 
4 6021 5423 9849 3888 
4 6318 4562 4565 8214 
4 8955 3401 6494 6603 
4 3484 7642 7640 8857 
4 9812 8484 6735 3604 
4 8820 8822 8196 4457 
4 5168 7306 7307 5358 
4 9124 4505 8252 8253 
4 6652 6550 3482 8859 
4 3699 4699 3697 9753 
4 5438 8096 7565 8094 
4 5185 5184 5375 7290 
4 5437 7472 8093 8095 
4 5166 7308 8515 7309 
4 8260 4393 8948 8950 
4 8362 9542 8174 5816 
4 6453 7071 9039 9038 
4 6534 8885 8887 8317 
4 3386 4372 4382 7882 
4 4510 4403 8250 8930 
4 3118 9460 7266 7267 
4 8578 8572 7853 5426 
4 8334 8919 8917 6515 
4 9008 6357 2750 7058 
4 7572 3749 7855 7833 
4 8175 4837 9543 9344 
4 7138 5429 2673 8587 
4 9111 9110 6417 7107 
4 7298 8504 7297 5177 
4 6405 7119 9135 9134 
4 9747 8536 6709 3708 
4 9792 8500 6727 3636 
4 3553 8451 7828 4626 
4 9540 3737 3726 3728 
4 8304 4567 6323 6321 
4 3709 8110 8372 9745 
4 9132 2687 9133 6233 
4 3684 6715 8524 4733 
4 5626 8564 7576 7378 
4 6010 3796 8973 8971 
4 7319 5155 8164 5156 
4 3676 8520 7785 4737 
4 4822 2785 4812 7870 
4 7868 2783 4821 4811 
4 5135 7155 7156 2964 
4 7043 6384 8980 2764 
4 7822 8442 4635 3571 
4 7803 3449 7683 8896 
4 6708 3712 9744 8538 
4 9105 9104 6420 7104 
4 7644 7791 3479 8861 
4 8603 5911 8787 486 
4 5227 5137 8107 8365 
4 9533 8578 5426 6004 
4 2706 9095 6425 7099 
4 4375 5817 8081 7883 
4 7884 8082 5818 4376 
4 6728 3632 9795 8498 
4 8899 8897 8323 6527 
4 9742 6707 3716 8540 
4 4641 7818 7717 6613 
4 7759 9735 8974 3795 
4 9756 8528 6713 3692 
4 6774 6534 8887 8318 
4 8306 6780 4563 6317 
4 6740 3584 9825 8474 
4 4806 8079 8101 7758 
4 4419 8234 4537 4533 
4 7759 6800 3387 3197 
4 4412 8912 6624 8910 
4 7676 7678 8893 3452 
4 6565 3502 6665 8835 
4 6544 8309 8869 8871 
4 8940 4397 6608 8942 
4 4388 6600 8958 8960 
4 6721 4745 8512 3660 
4 5191 7283 8490 7284 
4 6329 8301 6327 9037 
4 8953 3407 7736 7738 
4 8921 7704 3432 7814 
4 7686 3442 4769 7806 
4 3098 9470 7276 7277 
4 6273 6271 8329 6769 
4 6795 8277 6375 6377 
4 8366 5137 8365 8595 
4 8534 9749 3704 6710 
4 8304 6550 8859 8857 
4 7078 6446 9052 9053 
4 7796 4755 3466 7660 
4 7712 3425 4781 7815 
4 9754 8530 6712 3696 
4 8532 9752 3700 6711 
4 8955 8953 8352 6494 
4 9067 6439 7085 9066 
4 8588 8555 8594 6005 
4 2912 7182 7181 5109 
4 452 7352 3174 295 
4 7354 463 409 3176 
4 4800 4799 7750 3393 
4 5157 3016 5348 7317 
4 4831 7873 4615 3783 
4 4616 7875 3781 4829 
4 7052 2754 6473 8999 
4 4648 7813 7703 6619 
4 5434 8556 7246 8546 
4 6231 9133 6233 8349 
4 4554 4558 8220 4433 
4 2726 7080 9055 6445 
4 6733 3612 9807 8488 
4 9789 8502 6726 3640 
4 8897 7680 3448 7804 
4 2736 6455 7070 9035 
4 6541 6543 3470 8873 
4 9115 7110 6415 2696 
4 7338 5046 2975 9346 
4 8094 6016 9551 8074 
4 3725 5137 5227 8365 
4 9107 6419 2700 7106 
4 8281 4601 6367 6365 
4 4189 3981 8089 8095 
4 7567 4372 7882 9342 
4 8417 3621 4660 7679 
4 8090 8096 4190 3982 
4 9149 9150 7127 2679 
4 9003 7053 9002 6471 
4 6580 8279 8278 6794 
4 5360 5169 3040 7305 
4 6564 6665 8837 8835 
4 6219 9145 6221 8355 
4 4403 8928 8250 8930 
4 8947 8949 6606 6497 
4 7717 4641 6613 3418 
4 8427 7811 3601 4650 
4 7137 9543 5429 2674 
4 8923 8925 6618 6511 
4 8068 8104 4835 8580 
4 8313 4553 6303 6301 
4 6251 6249 8339 4514 
4 8959 8961 6602 6490 
4 6647 6543 8871 8873 
4 8868 8219 8866 4434 
4 9800 3624 8493 8494 
4 8579 8103 8067 4836 
4 6275 6277 6770 8327 
4 6377 2760 8988 7048 
4 8072 8093 9550 6015 
4 6987 4282 3294 7564 
4 9822 8476 6739 3588 
4 7203 7202 2871 5088 
4 3189 7381 7382 3290 
4 8959 8957 8353 6492 
4 6512 8335 8921 8923 
4 8121 3637 9790 8408 
4 9046 8303 6321 6319 
4 8998 8281 6367 9000 
4 6443 7081 9059 9058 
4 8556 6006 5434 5436 
4 6587 8275 8799 6796 
4 8311 6307 6309 9057 
4 8957 7827 7740 3403 
4 4608 4612 8184 4469 
4 431 8559 3170 3786 
4 6657 8846 7631 7629 
4 6649 6547 8863 8865 
4 9140 6402 9141 7122 
4 6204 7975 3978 3979 
4 6696 6016 6024 8074 
4 4793 4794 3407 7738 
4 5123 7167 7168 2941 
4 8314 6537 8315 6776 
4 8947 8945 8347 6498 
4 7750 8965 7748 3393 
4 8282 6576 8283 6792 
4 8195 8818 8820 4458 
4 3581 7818 4641 4640 
4 6729 3628 9798 8496 
4 2758 7047 8991 6477 
4 4405 8926 8924 8248 
4 5102 2899 7188 7189 
4 4648 7813 4647 3595 
4 4786 3578 3417 7720 
4 7222 5069 7221 2833 
4 5127 2949 7163 7164 
4 4173 3791 7346 8567 
4 3792 7347 4174 8568 
4 2722 7084 9063 6441 
4 5095 2885 7195 7196 
4 3576 8470 7821 4787 
4 8313 6303 9062 9064 
4 7700 3435 3598 4776 
4 7158 7159 2958 9359 
4 2864 7206 7205 5085 
4 9114 6251 9116 8339 
4 4415 6627 6628 8906 
4 8599 3162 6017 8977 
4 9852 10027 3977 7976 
4 4648 7703 3431 6619 
4 8216 8860 8862 4437 
4 7276 3098 7277 5198 
4 4188 7835 8076 8572 
4 4188 3740 7835 8572 
4 3446 8901 6524 6526 
4 8259 4498 8258 8946 
4 7066 6458 9028 9029 
4 4613 6382 4610 8182 
4 5099 2892 7191 7192 
4 7233 7232 2810 5058 
4 9837 3564 8463 8464 
4 5161 6717 5160 8162 
4 6401 2682 9143 7124 
4 4529 8238 8237 9094 
4 6257 6255 9109 8337 
4 6773 6531 8891 8320 
4 3410 8949 6496 6497 
4 3508 8824 6669 7611 
4 6785 8843 8295 8296 
4 6510 8925 6511 3430 
4 8961 3397 6490 6489 
4 4777 7814 8480 3596 
4 466 7036 3784 7350 
4 449 7348 7035 3782 
4 7363 4812 7378 8548 
4 7364 7379 8547 4811 
4 8295 9027 9030 6337 
4 7103 9101 9102 2703 
4 7726 8941 7821 3414 
4 8890 4423 8230 8888 
4 3433 8917 7702 7700 
4 3543 7755 9351 7831 
4 7141 450 7348 3752 
4 3754 7143 7350 465 
4 7722 8937 7720 3415 
4 3497 8838 6661 7625 
4 8874 4552 8222 4431 
4 4617 8176 3181 7874 
4 7801 8890 3451 7677 
4 8899 8901 6633 6526 
4 7014 3672 8517 3670 
4 4633 8444 3567 7733 
4 6648 6545 8867 8869 
4 7613 4693 3687 8384 
4 8177 7876 3184 4618 
4 4436 4559 4561 8217 
4 7171 7172 2932 9372 
4 3675 8389 9765 8116 
4 7271 9465 7272 3109 
4 7091 9077 9078 2715 
4 6015 8072 6023 6695 
4 8862 7649 3475 7792 
4 7761 3738 7570 8077 
4 4561 8217 8218 8864 
4 4422 8231 4538 4540 
4 4408 8920 6619 8918 
4 2827 7225 7224 5066 
4 9794 4666 3631 4665 
4 8941 8939 6502 6611 
4 7172 5118 2931 7173 
4 7850 8550 6687 3743 
4 7238 2799 7239 5052 
4 2931 7172 7173 9373 
4 7849 6688 3746 8549 
4 436 435 7857 3755 
4 5073 7217 7218 2841 
4 2907 7185 7184 5106 
4 2847 5076 7215 7214 
4 7230 7229 2817 5061 
4 7235 2805 7236 5055 
4 3123 9458 7264 7265 
4 5423 9348 7153 9849 
4 4378 9546 5628 3192 
4 3537 8793 4472 6588 
4 8330 8331 6768 6518 
4 9436 7235 2805 7236 
4 6770 8903 8327 6524 
4 2688 9131 7118 9132 
4 3518 8812 7599 7773 
4 2907 7185 9385 7184 
4 3553 8451 4626 3551 
4 8307 6779 4560 6313 
4 2885 7195 7196 9396 
4 2685 9137 7121 9138 
4 7615 6664 4691 7782 
4 7715 7816 3420 8928 
4 2789 5419 9345 5045 
4 3193 7375 7571 8104 
4 8583 9341 4845 8787 
4 4171 9162 8696 8604 
4 3194 7374 7570 8103 
4 8810 4462 8812 8191 
4 9141 4491 8261 8262 
4 9096 9097 6269 2705 
4 5168 7306 8159 7307 
4 5527 7342 9352 7885 
4 8578 4182 5426 6004 
4 6202 9852 5615 3977 
4 7575 7574 7367 3732 
4 8303 6781 4567 6321 
4 8085 9251 4191 7471 
4 9340 4282 8087 7564 
4 6660 6559 8843 8845 
4 3454 8895 6634 6529 
4 5420 5046 2974 9346 
4 4624 4623 7751 6595 
4 5210 3123 5401 7264 
4 7167 9368 7168 2941 
4 8592 8582 5035 9735 
4 9403 7203 7202 2871 
4 9042 2733 7073 9041 
4 8192 4597 4596 4461 
4 9425 2827 7225 7224 
4 8919 6515 6620 3435 
4 9078 9076 6289 8320 
4 6237 4504 6760 8345 
4 9015 7059 9014 6465 
4 3291 3189 7381 7380 
4 9422 7222 7221 2833 
4 2949 7163 7164 9364 
4 2899 9389 7188 7189 
4 9415 2847 7215 7214 
4 2799 9439 7238 7239 
4 9430 7230 7229 2817 
4 4535 8232 4540 6282 
4 8556 8589 7757 4622 
4 7217 9418 7218 2841 
4 3552 8458 8457 9845 
4 6584 8277 8803 6795 
4 2748 7057 9011 6467 
4 9036 2736 7070 9035 
4 4714 3538 7579 7765 
4 7758 4806 9734 3796 
4 9438 7237 2801 7238 
4 8340 8341 6763 6507 
4 4635 8442 3569 3571 
4 4617 3181 4830 7874 
4 8907 8329 6769 6522 
4 7876 4832 3184 4618 
4 7209 7208 5272 5082 
4 9107 2700 9108 7106 
4 8599 7341 3162 8977 
4 3652 8507 7028 3650 
4 4500 6232 4497 8257 
4 3736 3545 4623 9541 
4 5812 7367 3386 7882 
4 4420 8896 8894 8233 
4 3546 10030 3544 4804 
4 3656 8509 7024 3654 
4 9406 2864 7206 7205 
4 8363 8175 5815 9543 
4 6285 6283 9082 8321 
4 9143 2682 9144 7124 
4 9734 7758 3796 8973 
4 3736 3543 3545 9541 
4 7182 2912 7181 9382 
4 5132 7158 7159 5322 
4 6021 5423 2970 7153 
4 8591 8581 5036 9734 
4 7622 7783 3499 8837 
4 7092 9080 9081 6432 
4 8179 8570 7365 3182 
4 6755 8963 8356 6489 
4 7176 7175 5305 5115 
4 2892 7191 7192 9392 
4 2726 7080 9056 9055 
4 9433 7233 7232 2810 
4 7248 7249 8455 5226 
4 6758 8951 8350 6496 
4 4596 8191 4600 6364 
4 9348 8594 7341 2971 
4 9348 5423 8977 8065 
4 8945 8943 6499 6609 
4 3486 6553 6554 8853 
4 7138 9543 5429 8587 
4 4805 9735 7759 3795 
4 6657 3492 7629 4685 
4 4590 8195 4594 6356 
4 4673 3647 4674 7794 
4 3445 6525 4419 8898 
4 8967 6754 6486 6596 
4 6279 6281 6771 8325 
4 3536 7584 3718 7767 
4 4660 7803 4659 3619 
4 6742 5210 5211 8141 
4 5032 6394 8979 4842 
4 8939 3417 6503 6611 
4 8848 6656 3490 4444 
4 7836 7369 6484 7569 
4 7834 7368 6483 7568 
4 3599 8427 3601 4650 
4 3389 9537 8974 3729 
4 4538 8230 4543 6286 
4 4513 4509 8249 6248 
4 4822 8177 7350 7870 
4 8176 7868 7348 4821 
4 273 3172 3788 8561 
4 3451 8890 4423 4422 
4 3718 3720 8541 9740 
4 7216 9417 7217 2843 
4 8862 4436 4437 3475 
4 6772 6285 4539 8321 
4 2966 2965 5525 9356 
4 8343 6761 6239 4504 
4 8866 8218 8864 4435 
4 3737 6592 8969 4713 
4 8378 5124 7166 7167 
4 7844 3765 4831 4820 
4 4581 6787 8291 6343 
4 10028 8069 5041 7343 
4 7776 8820 3510 7607 
4 7345 8070 10029 5042 
4 8940 4398 6610 6608 
4 8333 6261 6766 4521 
4 8915 8332 6767 6517 
4 6762 8935 8342 6506 
4 7842 4829 4819 3763 
4 6799 483 303 304 
4 6775 8883 8316 6536 
4 4462 3518 8812 4461 
4 3531 8798 6585 4469 
4 9102 9100 6265 8332 
4 6225 4496 6757 8351 
4 5128 8374 7163 7162 
4 7760 7762 4803 9736 
4 9424 7223 2829 7224 
4 5103 8399 7188 7187 
4 7220 8432 5070 7221 
4 6627 8908 7809 7689 
4 5096 8406 7195 7194 
4 6334 8206 4576 4575 
4 8266 4487 4484 6214 
4 5431 5619 7245 8557 
4 7340 5432 5620 8558 
4 6314 4559 4564 8216 
4 8124 7209 5081 5082 
4 4389 6600 6601 8958 
4 8125 5079 5080 7211 
4 8508 7793 3652 4749 
4 3103 7274 5391 5200 
4 2706 9095 7099 9096 
4 6391 3789 8553 4843 
4 5386 5196 7279 7278 
4 7231 9432 7232 2813 
4 8188 4602 4604 4465 
4 9054 8307 6313 6311 
4 5114 7176 5115 8115 
4 4684 4683 3667 7787 
4 7346 3791 7871 8567 
4 7347 3792 7872 8568 
4 5131 5132 8109 7159 
4 4527 4526 8239 6268 
4 9079 6285 9082 8321 
4 7333 5142 7332 5332 
4 8455 10030 5228 3546 
4 5200 8145 5201 6737 
4 6613 4401 8934 8932 
4 7786 3672 8518 4739 
4 8967 8965 8358 6487 
4 6541 8312 8875 6777 
4 8338 6764 8927 6510 
4 4282 9340 8087 4082 
4 3990 8085 9251 4191 
4 4658 7805 4657 3615 
4 3166 6392 8978 5424 
4 4707 3715 4708 7768 
4 8695 8085 8694 4849 
4 8785 8786 8087 4940 
4 7873 4615 3783 8178 
4 4616 7875 8179 3781 
4 9761 3684 8523 8524 
4 9130 6237 6235 8345 
4 8203 8836 4582 4450 
4 8303 9043 9046 6321 
4 3780 7862 4840 2778 
4 8974 5229 3729 6009 
4 8586 8590 2670 8079 
4 9435 7235 7234 2806 
4 7077 9049 9050 2729 
4 9391 7190 2895 7191 
4 7174 8114 5117 5116 
4 7207 5083 8123 5084 
4 7293 5372 5182 7292 
4 5336 7329 7328 5146 
4 7204 9405 7205 2867 
4 6575 8284 8819 6791 
4 8302 6325 9040 9042 
4 413 414 467 7843 
4 9539 7339 5420 3163 
4 9118 6413 9119 7111 
4 4417 8902 8236 4531 
4 8262 4391 8952 8954 
4 3177 7850 6687 3743 
4 7816 4643 4644 3587 
4 6688 3180 7849 3746 
4 9025 2741 9026 7064 
4 8269 8792 4384 4383 
4 6579 8811 6793 8280 
4 4698 7776 4697 3695 
4 4733 4734 3504 7618 
4 9057 6309 9056 7082 
4 8511 8512 9776 3660 
4 9341 4281 7881 4381 
4 9138 9136 6229 8350 
4 5133 5134 8108 7157 
4 3538 6685 7579 8795 
4 9053 4561 8217 8218 
4 8211 9039 8210 4568 
4 9150 9148 6217 8356 
4 6294 8226 4546 4545 
4 9009 6355 2748 9012 
4 8091 5227 8107 9736 
4 8852 8211 8850 4442 
4 7340 2973 5624 4816 
4 4815 5623 2787 7245 
4 4606 8186 8802 4467 
4 2748 7057 9012 9011 
4 9159 5621 7368 5043 
4 7369 5044 9160 5622 
4 7114 2691 9125 9126 
4 2908 7183 7184 9384 
4 6203 6021 8071 3887 
4 8553 6391 4843 4379 
4 6782 6553 8855 8302 
4 3671 4685 3669 9769 
4 6328 4571 8209 4573 
4 4440 4566 4565 8213 
4 6384 6020 8980 2764 
4 7052 9000 2754 8999 
4 7837 481 8559 3170 
4 5124 8378 3699 3697 
4 3707 3705 5128 8374 
4 8992 2758 7047 8991 
4 3657 8399 3655 5103 
4 3589 3591 8432 5070 
4 4584 8201 4583 4452 
4 3643 8406 3641 5096 
4 7307 7308 3036 9501 
4 5419 2788 9345 5045 
4 4709 3719 7766 8368 
4 8984 2762 6381 6383 
4 3572 8468 7823 4789 
4 8130 7226 5064 5065 
4 8569 3183 7362 8178 
4 7646 4749 3481 7650 
4 7788 3668 8516 4741 
4 7202 8413 7201 5089 
4 4745 4746 3484 7642 
4 4548 4550 8224 4429 
4 9115 7110 2696 9116 
4 3478 4751 7652 7648 
4 5121 5122 8112 7169 
4 6006 8556 5434 4622 
4 7861 437 7034 2775 
4 8555 4621 5433 6005 
4 9064 2722 7084 9063 
4 3703 4702 4701 7773 
4 7803 8418 4659 3619 
4 4524 4413 4526 8240 
4 3625 7801 4663 4662 
4 3653 4677 4676 7792 
4 6625 4413 6624 8910 
4 6568 8290 8831 6788 
4 6331 2736 9034 9036 
4 8563 7755 9351 5625 
4 8510 4747 7791 3656 
4 3292 5811 7881 4381 
4 7831 3735 7571 8078 
4 6010 3179 7358 4820 
4 4819 7361 3178 6009 
4 8204 4578 6338 4582 
4 7298 7299 3055 9492 
4 4507 4400 8253 8936 
4 4491 8261 8262 8952 
4 8483 8146 9812 3604 
4 4402 6613 3418 8932 
4 7859 478 7037 2777 
4 9478 7285 7284 3083 
4 3718 6994 6707 8541 
4 7181 7180 5110 8392 
4 7574 7575 3196 3732 
4 4522 4410 8243 8916 
4 8884 6637 7669 8886 
4 8502 6726 3640 5179 
4 6010 8973 3730 5230 
4 6733 5193 3612 8488 
4 9106 6261 6259 8333 
4 9447 3144 7254 7253 
4 9349 3165 6022 6204 
4 9468 3103 7275 7274 
4 8582 5035 9735 8080 
4 6332 8207 4574 4576 
4 3431 4409 6619 8918 
4 9453 7260 7259 3133 
4 4939 4079 5910 8605 
4 8187 6372 4606 4604 
4 3533 8794 7764 7763 
4 7150 3788 433 272 
4 6637 8884 3458 4426 
4 3786 432 482 7148 
4 8486 6734 3608 5195 
4 7340 2973 7345 10029 
4 2787 10028 7343 7245 
4 9142 6225 6223 8351 
4 8360 4185 7753 8175 
4 5163 5164 7311 5354 
4 6708 5143 3712 8538 
4 3632 6728 5183 8498 
4 4838 9343 5038 6012 
4 5346 7319 5155 3012 
4 6662 6562 8839 8841 
4 8528 6713 3692 5153 
4 7156 7157 2963 9357 
4 5155 8526 6714 7023 
4 9341 5233 4281 4080 
4 3501 4737 7626 7620 
4 7761 3738 8077 7578 
4 8090 3982 8568 10029 
4 8089 3981 8567 10028 
4 6238 4503 4507 8254 
4 8476 6739 3588 5205 
4 5201 8480 3596 6737 
4 8096 5438 3188 5814 
4 3187 5437 5813 8095 
4 8462 7827 3560 4795 
4 9825 3584 8473 8142 
4 8484 6735 3604 5197 
4 6684 3538 7580 8795 
4 6740 5207 3584 8474 
4 8530 6712 3696 5151 
4 7339 7345 6706 2976 
4 9481 3076 7288 7287 
4 8299 8301 6329 9036 
4 4529 8237 4531 6272 
4 8536 6709 3708 5145 
4 4394 8259 8948 8946 
4 3704 8534 6710 5147 
4 4498 9135 8259 8258 
4 8500 6727 3636 5181 
4 6289 6773 6287 8320 
4 3700 8532 6711 5149 
4 8564 5626 7576 9350 
4 7152 2972 5433 2784 
4 4627 7828 7745 6598 
4 4589 8197 4591 6352 
4 7832 9535 7759 3387 
4 8228 4544 4541 6290 
4 5185 3628 6729 8496 
4 7303 5362 5171 5172 
4 9469 3100 7276 7275 
4 9095 9094 6425 7099 
4 9459 3120 7266 7265 
4 7659 4670 3641 8407 
4 5435 8555 5433 6005 
4 5158 8523 7317 7316 
4 5194 7281 5384 7280 
4 4518 6256 4515 8245 
4 4651 7811 7697 6622 
4 9451 7258 7257 3137 
4 7295 7294 5370 5180 
4 4280 3290 9161 4079 
4 7321 7320 5344 5154 
4 5144 7331 5334 7330 
4 399 400 579 6007 
4 4791 3408 7730 6606 
4 7301 5364 5173 5174 
4 2790 6705 7343 7244 
4 3754 7143 465 3168 
4 7141 3167 450 3752 
4 5374 5184 7291 7290 
4 8227 4546 4544 6292 
4 8561 3172 7839 434 
4 9151 6213 6215 2678 
4 5089 8413 3629 3627 
4 8485 8147 9809 3608 
4 8884 3458 4426 6533 
4 3647 4673 8404 7794 
4 7130 6395 2676 2677 
4 8309 8311 6309 9056 
4 5418 7248 7247 8364 
4 6707 5141 3716 8540 
4 3148 9445 7251 7252 
4 7742 4797 3399 6602 
4 6618 7706 3428 4779 
4 7752 4801 6596 3391 
4 7573 9545 4377 7380 
4 4177 8592 5035 9735 
4 8198 4586 4589 4455 
4 6233 9132 8347 8349 
4 7210 5080 5270 7211 
4 4636 7822 7727 6607 
4 5340 7325 7324 5150 
4 462 7038 407 2778 
4 2776 297 7033 453 
4 4578 8205 4575 4448 
4 7323 7322 5342 5152 
4 6632 7805 7681 8900 
4 8800 6681 7581 7768 
4 8579 5422 6700 6390 
4 8308 8306 9050 6315 
4 3628 8495 9798 8151 
4 3725 3727 4803 9736 
4 7305 8511 7304 5170 
4 7326 5338 7327 5148 
4 6699 5421 6389 8580 
4 7813 8920 7703 6619 
4 480 7837 7855 2781 
4 3576 6742 5211 8470 
4 9078 6289 6287 8320 
4 435 7857 2779 7839 
4 7269 7268 5396 5206 
4 8335 6257 9108 8337 
4 3494 6660 6560 8843 
4 9013 6353 9012 7060 
4 3676 6717 5161 8520 
4 8943 3412 6500 6609 
4 4171 5030 8696 6001 
4 9144 6221 8355 8353 
4 3534 8797 6587 6589 
4 7865 3746 415 469 
4 289 7863 3743 446 
4 4588 8199 4586 6348 
4 3719 3717 5134 8368 
4 7841 4830 7874 448 
4 7582 3536 4717 7767 
4 3671 3669 5110 8392 
4 9792 3636 8499 8153 
4 9747 8535 8169 3708 
4 3712 9744 8170 8537 
4 6011 9543 9344 2674 
4 8872 8870 7653 6646 
4 3159 9538 5419 7244 
4 2670 5040 4806 8079 
4 7047 8991 6477 8990 
4 9795 3632 8497 8152 
4 8092 8364 5228 4810 
4 3535 8796 6683 4470 
4 3987 9159 3199 5043 
4 6558 3493 6658 8847 
4 5044 9160 3988 3293 
4 8850 8211 8210 4568 
4 8290 6347 6788 6349 
4 8165 9756 8527 3692 
4 6265 6263 8332 6767 
4 9742 3716 8539 8171 
4 8092 7832 9537 3544 
4 9065 6301 9064 7086 
4 6243 6245 6762 8342 
4 7250 5224 7251 8457 
4 3695 3693 5122 8380 
4 4570 6322 4566 8212 
4 6346 4588 8200 4584 
4 8154 9789 8501 3640 
4 3612 9807 8148 8487 
4 6021 8071 3887 3888 
4 4433 8870 6646 3469 
4 5813 3981 4189 8095 
4 3166 5436 3157 7344 
4 8096 5814 4190 3982 
4 8579 7135 8584 6390 
4 2682 9144 9142 6223 
4 7135 9542 5430 8586 
4 5210 3123 7264 7265 
4 9054 6311 2726 9056 
4 8276 6375 8989 8992 
4 4177 8972 3795 6009 
4 6010 4178 3796 8971 
4 6303 2722 9062 9064 
4 3388 7571 8363 3793 
4 8533 8168 9749 3704 
4 8844 3492 6657 4446 
4 8166 9754 8529 3696 
4 3542 7570 8362 3794 
4 6244 4508 4510 8251 
4 7320 5155 5345 5154 
4 6251 2696 9114 9116 
4 4490 8263 4492 6220 
4 5084 8418 3619 3617 
4 2700 9106 6259 9108 
4 9096 9093 6271 8328 
4 9009 8286 6355 9012 
4 8531 8167 9752 3700 
4 4805 4474 7759 8102 
4 8591 5036 4178 9734 
4 8302 6782 6325 6323 
4 2776 7860 7871 7145 
4 2778 7862 7872 7147 
4 5065 8437 3581 3579 
4 4839 6387 4173 7371 
4 6388 7373 4174 4840 
4 5188 8493 7287 7286 
4 6296 4548 8225 4545 
4 5411 3142 7254 5220 
4 6787 4585 8291 6345 
4 4486 6212 8267 4484 
4 6575 6576 3521 8817 
4 6537 8881 3463 6536 
4 5425 9532 6003 304 
4 6227 6229 6758 8350 
4 6410 7114 9125 9124 
4 8475 8143 9822 3588 
4 8933 3423 6507 6506 
4 7632 3489 6658 8849 
4 2767 7135 8586 8581 
4 9147 6398 9149 7127 
4 3158 2786 5434 7246 
4 3719 4710 4709 7766 
4 6584 6586 3532 8801 
4 6505 4402 3418 8932 
4 4741 7632 3493 7630 
4 7318 7319 3015 9512 
4 8414 3627 4663 7673 
4 6590 6685 3538 8795 
4 4186 8271 4480 4838 
4 6455 9033 7070 9035 
4 3667 3665 5108 8394 
4 6263 9102 6265 8332 
4 6215 6217 6755 8356 
4 8463 5218 7256 7257 
4 8233 4535 4537 6280 
4 8844 3492 4446 6557 
4 3039 7306 5168 5358 
4 5087 8415 3625 3623 
4 8834 6664 7615 7782 
4 8800 8798 6681 4468 
4 3553 7828 4627 4626 
4 6434 9075 7091 9077 
4 8401 3651 3653 5101 
4 3703 3701 5126 8376 
4 5346 7318 3015 5156 
4 8434 5068 3585 3587 
4 8455 10030 8364 5228 
4 6367 8998 9000 2754 
4 8554 6392 4844 4380 
4 6742 5210 8471 3578 
4 2688 9132 9130 6235 
4 6513 4409 3431 8918 
4 5210 5400 3123 7265 
4 6579 8809 6580 3525 
4 8913 6518 6517 3437 
4 8415 7801 3625 4662 
4 3703 4701 8376 7773 
4 6632 4418 8900 8898 
4 9542 8362 3986 5816 
4 7822 4635 4636 3571 
4 7064 9025 6460 9024 
4 7358 7844 4831 4820 
4 4556 6308 4558 8219 
4 3476 6649 7650 8865 
4 8401 3653 4676 7792 
4 3598 8481 5200 6737 
4 3103 5390 7275 5200 
4 8445 5057 3563 3565 
4 6389 8580 8585 7138 
4 7361 7842 4829 4819 
4 8096 5814 3982 8070 
4 5813 3981 8095 8069 
4 4524 8241 8240 9099 
4 9129 4502 8255 8256 
4 8885 6534 3462 6535 
4 8451 3553 5051 3551 
4 9022 8291 9019 6345 
4 3647 3645 5098 8404 
4 6407 9131 9129 7118 
4 3171 7840 4826 3742 
4 4825 3169 7838 3741 
4 8997 7052 6473 8999 
4 405 460 7858 461 
4 455 7856 299 454 
4 6325 8302 6323 9042 
4 6571 6572 3513 8825 
4 8430 5072 3593 3595 
4 8442 5060 3569 3571 
4 7811 3601 4650 4651 
4 8427 5075 3599 3601 
4 4552 8874 8222 8223 
4 8204 8203 8836 4582 
4 8202 6342 4583 4580 
4 6573 6574 3517 8821 
4 6577 6578 3524 8813 
4 6249 9117 9116 8341 
4 8069 3981 5041 3983 
4 8908 6627 4414 8906 
4 3468 8877 6539 6540 
4 8929 6509 6508 3427 
4 3984 3982 8070 5042 
4 3103 7275 7274 5200 
4 4753 6647 3474 7654 
4 4743 3491 7634 6655 
4 4616 7349 8179 4823 
4 6683 8794 3533 4471 
4 9138 6229 6227 8350 
4 4739 7628 3494 7624 
4 4552 6300 4550 8223 
4 7776 4697 3695 8380 
4 7175 7174 5116 8386 
4 7207 8419 5083 7208 
4 7818 7717 6613 8934 
4 8289 9013 6353 9012 
4 6799 7854 5428 3787 
4 6798 7852 5427 3785 
4 7349 4616 8179 3781 
4 9097 9096 6269 8331 
4 6365 8283 9001 9000 
4 3639 3637 5094 8408 
4 4825 7838 7834 3741 
4 7840 7836 4826 3742 
4 8369 5133 7157 7158 
4 7682 3450 6633 4767 
4 9150 6217 6215 8356 
4 6301 8315 9065 9064 
4 4510 8250 8251 8930 
4 6422 9101 9099 7103 
4 6632 3445 4419 8898 
4 6660 7628 3496 8845 
4 9047 9049 7077 6448 
4 8797 6684 7580 8795 
4 4615 4824 7351 8178 
4 6648 6546 3478 8867 
4 6582 6583 3530 8805 
4 7210 8421 7209 5081 
4 8909 3439 6520 6519 
4 6206 3194 7374 5232 
4 7110 9115 6415 9113 
4 9642 5808 6989 9553 
4 3444 8905 6522 6523 
4 4475 9534 4473 3539 
4 6681 8798 3531 4469 
4 7170 5121 8381 7169 
4 6237 9130 9127 8345 
4 4681 3661 3663 8396 
4 6205 5231 3193 7375 
4 7226 7227 8438 5064 
4 3561 8447 4630 3559 
4 8279 8993 6373 8992 
4 8236 8902 8237 4531 
4 8307 9051 9054 6313 
4 3783 4615 7351 8178 
4 5911 4939 8603 8787 
4 8186 8187 4606 8802 
4 8581 8586 2670 8079 
4 7177 7176 5114 8388 
4 4789 3412 7724 7728 
4 8211 4570 8852 8212 
4 8371 5131 7159 7160 
4 8423 5079 7211 7212 
4 5082 8420 3615 3613 
4 5139 3722 5138 8542 
4 8262 8954 8263 4492 
4 7057 9010 9011 6467 
4 3715 3713 5132 8370 
4 7084 9063 6441 9061 
4 7811 7697 6622 8914 
4 8276 4607 6375 6373 
4 6271 6269 8328 4528 
4 7822 7727 6607 8944 
4 3661 3659 5105 8397 
4 8448 5054 3557 3559 
4 8265 8264 4488 9147 
4 8286 4592 6355 6353 
4 7573 9545 8065 4377 
4 7370 8553 4843 4379 
4 8974 3729 3795 6009 
4 3385 5234 4372 9342 
4 7873 7844 473 4831 
4 7875 7842 442 4829 
4 4844 7861 7372 4833 
4 9730 9554 6988 5719 
4 8967 3395 6487 6596 
4 7145 2776 3174 3774 
4 3776 2778 7147 3176 
4 8822 8197 8196 4591 
4 3725 3723 5137 8365 
4 8593 6208 7247 8364 
4 414 413 4832 7843 
4 3766 7865 468 7843 
4 7841 3764 447 7863 
4 7751 8966 6595 8790 
4 4837 6011 9543 9344 
4 6329 8301 9037 9036 
4 5139 7335 8172 8542 
4 6419 9107 9105 7106 
4 3737 4186 3738 7578 
4 9133 9132 6233 8349 
4 8589 8092 9537 3389 
4 6367 8281 6365 9000 
4 7574 7367 5812 8076 
4 6543 6647 3470 8873 
4 6386 7040 8591 5034 
4 4715 7580 3722 3720 
4 8254 4507 8253 8936 
4 6309 8311 9057 9056 
4 7308 5166 5357 3035 
4 2973 7340 5432 5620 
4 5431 5619 2787 7245 
4 9145 9144 6221 8355 
4 6383 2763 6384 8982 
4 481 431 8559 3170 
4 8071 9545 3887 3888 
4 6303 8313 6301 9064 
4 7260 5214 5405 3130 
4 3667 4683 8394 7787 
4 6251 6249 9116 8339 
4 3720 5139 8172 8542 
4 6257 9109 9108 8337 
4 7838 3169 300 3741 
4 7840 3171 404 3742 
4 4804 4802 7830 3392 
4 7340 8548 5620 7870 
4 2965 6111 5525 9356 
4 4189 7376 8089 7371 
4 7377 7373 8090 4190 
4 7816 8434 4643 3587 
4 6649 6548 3481 8863 
4 7831 3735 8078 7753 
4 6531 3455 8889 6532 
4 5811 7366 3292 7881 
4 5228 8092 4810 3544 
4 4523 6262 4520 8242 
4 9022 8291 6345 6343 
4 8850 3485 4442 4443 
4 7080 9055 6445 9053 
4 3501 6662 6563 8839 
4 5196 7279 7278 8147 
4 7865 3766 7849 7843 
4 7841 3764 7863 7850 
4 3029 5163 7311 5354 
4 3505 6568 6569 8829 
4 7824 8445 4632 3565 
4 9106 9103 6261 8333 
4 3169 456 7838 300 
4 459 7840 3171 404 
4 5300 2912 7181 5109 
4 3201 4191 7471 3200 
4 4282 3295 3294 7564 
4 9774 8513 3662 7638 
4 8945 3411 7728 6609 
4 9142 9139 6225 8351 
4 3472 6648 7652 8869 
4 9161 9341 8083 4080 
4 8949 3410 6606 6497 
4 2871 7202 5279 5088 
4 8925 6618 6511 3430 
4 5812 3386 4382 7882 
4 8961 3397 6602 6490 
4 3691 3689 5120 8382 
4 5144 8170 7331 7330 
4 7828 7745 6598 8962 
4 7328 7329 8169 5146 
4 7293 5182 8153 7292 
4 3677 3675 5113 8389 
4 8554 4844 7372 4380 
4 8901 3446 6633 6526 
4 9349 9531 7248 3155 
4 5184 8152 7291 7290 
4 4763 7678 7802 8494 
4 9546 3980 4378 5628 
4 7320 7321 8165 5154 
4 9141 6401 9143 7124 
4 274 435 2779 7839 
4 3575 3577 8439 5063 
4 7073 6452 9039 9041 
4 3711 3709 5130 8372 
4 3605 3607 8424 5078 
4 5119 8383 7172 7171 
4 7626 3498 6662 8841 
4 6020 4480 9157 5038 
4 7333 5142 8171 7332 
4 8436 3583 4641 7717 
4 4398 4503 4502 8255 
4 6404 9137 9135 7121 
4 5194 8148 7281 7280 
4 4690 3681 4691 7782 
4 7324 7325 8167 5150 
4 7322 7323 8166 5152 
4 7294 7295 8154 5180 
4 7326 7327 8168 5148 
4 7628 6660 4739 3494 
4 7632 4741 3493 6658 
4 6226 4495 4494 8260 
4 5527 2969 2968 9352 
4 4594 8194 4593 6358 
4 7349 7875 441 3781 
4 5812 4382 4182 8076 
4 8296 8293 9026 6339 
4 7837 480 430 2781 
4 7859 7370 4843 4834 
4 3180 3766 4832 7843 
4 8091 4809 3541 8588 
4 3764 7841 4830 3177 
4 4789 3412 7728 6609 
4 7314 5160 8521 8162 
4 6716 8522 3680 4735 
4 7268 7269 8143 5206 
4 4170 4371 3383 9252 
4 5123 5314 7167 2941 
4 6595 6591 8790 6753 
4 7319 5346 5155 5156 
4 9023 7064 6341 2742 
4 474 7873 3783 7351 
4 7182 7181 5109 8393 
4 3735 3736 4185 7753 
4 10030 5228 3546 3544 
4 7781 8524 4733 7618 
4 8363 5815 3985 9543 
4 8887 8889 7672 6638 
4 3044 7303 5362 5171 
4 8878 4428 6641 8880 
4 5102 2899 5293 7188 
4 5069 5260 7221 2833 
4 2949 5127 7163 5318 
4 4790 3570 3408 7732 
4 4420 3447 4421 8894 
4 5364 3048 7301 5173 
4 4079 9161 8605 8603 
4 8360 6591 4185 4477 
4 7856 3748 3756 6804 
4 6805 3758 3750 7858 
4 8503 7007 3644 3642 
4 3614 3616 7008 8489 
4 4648 8429 3597 7703 
4 8582 2669 5035 8080 
4 7206 8417 7205 5085 
4 5140 3720 5139 8172 
4 6213 9154 6211 2677 
4 4806 5036 8079 9734 
4 7702 4775 8482 7812 
4 7819 8472 4785 7722 
4 8264 4389 4488 4490 
4 4742 3666 3491 7636 
4 483 6799 303 7031 
4 401 581 6798 7030 
4 8346 8343 9126 6239 
4 8866 4434 4435 3471 
4 7232 7233 8444 5058 
4 5438 8096 3188 7565 
4 7191 5099 7192 8403 
4 7472 5437 3187 8095 
4 4750 3650 3478 7648 
4 3723 5136 5137 8366 
4 6375 2759 8989 7047 
4 4386 6485 3394 8964 
4 4845 5911 6751 8787 
4 7203 8414 7202 5088 
4 7226 7225 5255 5065 
4 7188 5102 7189 8400 
4 273 3172 8561 434 
4 8375 5127 7163 7164 
4 5069 8433 7222 7221 
4 5286 5095 2885 7195 
4 3558 4796 7744 3399 
4 3796 6010 8973 3730 
4 5413 7252 5223 5222 
4 8379 5123 7167 7168 
4 4282 9340 4082 4283 
4 3990 9251 4192 4191 
4 5216 5217 7258 5407 
4 7195 5095 7196 8407 
4 7349 4616 3751 4823 
4 7155 5135 5326 2964 
4 5135 5136 7155 5326 
4 4673 3645 3647 8404 
4 3156 9349 9347 7247 
4 9774 4744 3662 3664 
4 4740 3670 3493 7630 
4 7381 7382 3290 9161 
4 8592 5033 6385 7133 
4 5077 8425 7214 7213 
4 7228 7229 8440 5062 
4 8804 8806 6677 7591 
4 7209 8124 7208 5082 
4 7224 7225 8436 5066 
4 8940 7725 6610 8938 
4 3753 4615 4824 7351 
4 5820 487 6702 8786 
4 8695 577 5819 6701 
4 3538 4715 7580 7765 
4 8367 5135 7155 7156 
4 8109 5132 7158 7159 
4 3408 8947 6606 6498 
4 7238 7239 8450 5052 
4 8429 5073 7217 7218 
4 8384 5118 7172 7173 
4 7229 7230 8441 5061 
4 5076 8426 7215 7214 
4 7176 7175 5115 8115 
4 3399 8959 6602 6492 
4 4415 4529 4527 8238 
4 8923 6512 6618 3428 
4 9093 7099 6271 2707 
4 7881 8583 4381 8099 
4 7376 5043 3185 3733 
4 5044 3734 3186 7377 
4 2929 7173 7174 9374 
4 4745 7790 8512 7642 
4 7646 3654 4748 3481 
4 5817 4847 3987 8081 
4 5818 8082 4848 3988 
4 3606 8485 3608 7000 
4 7185 7184 5106 8396 
4 8447 7235 7236 5055 
4 4751 8506 6724 3648 
4 5137 8107 8365 8595 
4 7234 7235 8446 5056 
4 4078 4280 3289 9163 
4 8555 4621 8588 7756 
4 4751 6648 3478 7652 
4 8856 8854 7641 6653 
4 6397 6214 6398 9149 
4 6655 3486 6554 8853 
4 7743 6601 8958 8956 
4 4737 3501 7626 6662 
4 6111 5525 7887 3884 
4 9531 9349 7975 5616 
4 4749 6649 3481 7650 
4 5312 5122 7169 7168 
4 8921 7704 6620 3432 
4 7184 7183 5107 8395 
4 3766 414 4832 7843 
4 290 3764 7841 4830 
4 6652 7644 3479 8861 
4 7016 3610 3612 8487 
4 8458 4799 7829 7750 
4 7009 3710 3712 8537 
4 3640 8501 7015 3638 
4 4822 3784 3754 7350 
4 7348 4821 3752 3782 
4 7663 8878 8876 6642 
4 5187 5186 5377 7288 
4 3193 7571 3388 3793 
4 4681 4680 3661 7789 
4 8856 8858 4439 6651 
4 3630 3632 7012 8497 
4 3542 3194 7570 3794 
4 3690 8527 3692 7023 
4 4464 8806 8808 6676 
4 3709 3711 4705 8372 
4 9407 7207 7206 2863 
4 4392 4391 3400 8952 
4 3686 3507 4732 7781 
4 7272 5393 3106 5202 
4 7210 8125 5080 7211 
4 8086 3987 9159 3199 
4 9160 8088 3988 3293 
4 4698 3695 3697 8379 
4 8416 7204 7205 5086 
4 3634 3636 6999 8499 
4 3602 8483 3604 6996 
4 3676 6717 8520 4737 
4 9550 3159 6015 3983 
4 3706 8535 3708 6998 
4 6016 3984 9551 3163 
4 7223 7224 8435 5067 
4 7231 7232 8443 5059 
4 9344 9543 7137 2674 
4 7740 8957 3403 6603 
4 2669 8582 8587 8080 
4 6206 7359 3184 7363 
4 6995 3714 3716 8539 
4 7364 6205 3181 7360 
4 4751 7795 3648 4752 
4 3589 8433 4644 3587 
4 7216 8428 5074 7217 
4 7237 7238 8449 5053 
4 5158 5157 5348 7317 
4 7680 8897 3448 6634 
4 7796 8502 8503 6726 
4 8476 8477 7815 6739 
4 4630 7826 4629 3559 
4 3577 3575 8439 4638 
4 8844 8846 6657 7629 
4 7190 5100 7191 8402 
4 7825 8464 4793 7738 
4 2671 6386 6698 7040 
4 7726 8941 3414 6611 
4 7598 6673 8815 8817 
4 6331 6784 8298 6333 
4 3981 8089 8095 8069 
4 3586 8475 3588 7019 
4 8090 8096 3982 8070 
4 8489 6733 7806 8488 
4 3694 8529 3696 7020 
4 3702 8533 3704 7011 
4 3698 8531 3700 7018 
4 6697 2668 6385 7133 
4 8881 8879 6643 7662 
4 7022 3584 8473 3582 
4 6615 8933 8931 7714 
4 457 7149 302 3785 
4 402 458 7151 3787 
4 5360 5169 7305 5170 
4 5036 8581 8079 9734 
4 3161 8596 7342 7153 
4 4475 4806 8101 7758 
4 8471 5210 3580 3578 
4 8530 8531 7775 6712 
4 4476 4474 8102 4383 
4 8534 8535 7772 6710 
4 6728 7799 8499 8498 
4 4766 4765 3620 7804 
4 6682 7582 8801 8799 
4 8104 4179 8068 4835 
4 4613 8181 8182 8793 
4 2824 9426 7225 7226 
4 8103 4180 8067 4836 
4 4669 3637 3639 8408 
4 8481 3600 3598 5200 
4 6708 7769 8539 8538 
4 5276 2864 7205 5085 
4 8536 8537 7771 6709 
4 8486 6734 8487 7808 
4 7472 5437 8093 9731 
4 5438 7565 9732 8094 
4 7777 8528 8529 6713 
4 8532 8533 7774 6711 
4 7810 8484 8485 6735 
4 8085 8597 4191 6986 
4 8581 2670 5036 8079 
4 8598 4282 8087 6987 
4 9076 9078 6289 2715 
4 7817 8475 6740 8474 
4 3620 4765 6731 8492 
4 6671 7606 8825 8823 
4 7232 5249 2810 5058 
4 3601 8426 3603 4651 
4 8450 3553 4627 3555 
4 8500 8501 7798 6727 
4 5290 5099 2892 7191 
4 8885 7668 8883 6640 
4 8526 8527 7779 6714 
4 6555 3491 6655 8851 
4 6729 7800 8497 8496 
4 4554 6304 4551 8221 
4 3573 8441 4636 3571 
4 6675 8811 7596 8813 
4 6672 7604 8821 8819 
4 4680 3659 3661 8397 
4 3156 6208 5418 7247 
4 7567 7575 7367 3732 
4 6754 8967 8357 8358 
4 4805 2669 5039 8080 
4 7298 5367 5176 5177 
4 3576 6742 8470 4787 
4 6745 5217 3564 8464 
4 5208 5398 7266 7267 
4 8806 6677 6676 4465 
4 2691 6241 9126 9123 
4 4627 8450 3555 7745 
4 3556 8459 7001 3554 
4 5190 5191 7284 5381 
4 7299 7298 3055 5176 
4 6256 6419 6418 9107 
4 5187 3624 6730 8494 
4 7376 4189 8089 8095 
4 4440 8856 6651 6653 
4 8096 7377 8090 4190 
4 2673 2669 8582 8587 
4 7763 7764 4711 9739 
4 3581 8436 3583 4641 
4 6576 6673 3521 8817 
4 5118 5309 7172 2931 
4 8877 6645 7660 8875 
4 8929 8927 6616 7712 
4 8881 6643 6537 3463 
4 3552 8458 6748 5223 
4 7285 5190 7284 3083 
4 6615 8933 3423 6507 
4 4629 8448 3557 3559 
4 4735 3502 7622 6665 
4 4795 3401 7740 6603 
4 9055 6444 6445 6308 
4 6652 4747 7644 3482 
4 6647 6544 3474 8871 
4 7209 5272 5081 5082 
4 5297 2907 7184 5106 
4 3491 4743 7634 7636 
4 7235 5246 2805 5055 
4 2712 9084 6283 6281 
4 6665 7622 3499 8837 
4 6707 7767 8541 8540 
4 577 8696 8604 6001 
4 4429 8878 6641 6642 
4 4751 8506 7795 7652 
4 3450 8899 6633 6527 
4 7174 7173 5307 5117 
4 7207 7206 5274 5084 
4 3590 7013 8477 3592 
4 5230 4813 7362 7756 
4 7176 5305 5114 5115 
4 6380 4612 4610 8183 
4 5131 5132 7159 5322 
4 7824 4632 4633 3565 
4 10 8 302 7030 
4 11 9 402 7031 
4 6376 4605 4608 8185 
4 4174 3982 5624 8568 
4 3981 4173 8567 5623 
4 3726 6809 6692 8106 
4 5312 5122 5121 7169 
4 7226 5255 5064 5065 
4 8137 9843 8459 3556 
4 3985 5815 6011 9543 
4 6586 6682 3532 8801 
4 9063 6440 6441 6300 
4 4693 3685 3687 8384 
4 6299 2720 9068 6297 
4 3474 4753 7654 7656 
4 3607 3605 8424 4653 
4 9535 4474 3387 4383 
4 4182 4188 8578 5426 
4 4515 4516 8246 6254 
4 7573 3731 7366 7566 
4 8308 6546 8867 8865 
4 4476 8975 8269 8102 
4 6286 6434 6433 9077 
4 7376 3187 4189 8095 
4 8096 3188 7377 4190 
4 4530 8235 4533 6276 
4 5186 5376 7288 7289 
4 6339 9027 6337 2740 
4 7135 5430 2767 8586 
4 8429 4648 3597 3595 
4 5624 3792 8568 4816 
4 7856 3748 2780 3756 
4 3758 2782 3750 7858 
4 8567 3791 4815 5623 
4 7370 7573 8553 4379 
4 8283 6792 6365 6363 
4 4495 6224 4491 8261 
4 8591 4178 9850 9734 
4 7025 3626 3628 8495 
4 6572 6671 3513 8825 
4 6776 8315 6299 6301 
4 8809 6678 6580 3525 
4 6249 6247 8341 6763 
4 3737 9540 7761 3728 
4 6518 8913 6626 3437 
4 6693 3739 7833 4187 
4 7010 3568 8465 3566 
4 7691 6628 8906 8904 
4 3641 4670 3639 8407 
4 6451 6322 6452 9041 
4 5226 8455 3546 3548 
4 4508 6242 4505 8252 
4 8180 9534 8791 4473 
4 7757 7365 4814 5229 
4 7682 7684 3450 4767 
4 8887 7670 3459 7800 
4 6364 6473 6472 8999 
4 8885 3462 6640 6535 
4 9537 5229 3389 8974 
4 3625 8414 3627 4663 
4 8289 6789 6353 6351 
4 4173 7346 7371 8567 
4 7347 7373 4174 8568 
4 6590 6592 6685 8789 
4 7169 2938 7168 9369 
4 3187 5813 4189 8095 
4 3188 8096 5814 4190 
4 7975 5616 6204 3978 
4 9072 6293 6295 2718 
4 3621 8417 4660 3619 
4 5209 6741 8472 3580 
4 5213 5214 7261 5404 
4 6794 8279 6371 6373 
4 6269 6267 8331 6768 
4 7757 9537 5229 3389 
4 3600 8482 6736 5199 
4 7157 5134 7156 5324 
4 7341 9348 2971 3162 
4 5230 8973 3541 9536 
4 9835 3568 8465 8139 
4 3653 3655 4677 8400 
4 6455 6454 6328 9035 
4 6574 6672 3517 8821 
4 5035 4805 9735 8080 
4 6578 6675 3524 8813 
4 5808 9642 6989 5807 
4 8105 6691 6808 3545 
4 4702 3703 3705 8375 
4 2686 7121 9136 6229 
4 3728 4620 5626 7576 
4 6323 9043 6321 2732 
4 3886 7886 3885 6988 
4 7632 7788 8516 4741 
4 8470 7726 7821 4787 
4 8877 3468 6645 6540 
4 6509 8929 6616 3427 
4 5133 5134 7157 5324 
4 3428 7708 4778 3594 
4 8510 4747 7644 7791 
4 6325 2734 9040 7073 
4 4738 3674 3494 7624 
4 4177 8592 9735 9851 
4 8912 7693 6624 8910 
4 7723 8940 6608 8942 
4 6220 6401 6400 9143 
4 6583 6680 3530 8805 
4 6620 7704 3435 4777 
4 7726 4787 3417 6611 
4 3439 8909 6520 6629 
4 3647 3649 4674 8403 
4 6315 9051 6313 2728 
4 4179 3177 8068 6687 
4 7680 3454 6634 4765 
4 6688 3180 4180 8067 
4 6600 7741 8958 8960 
4 6347 9019 6345 2744 
4 7141 3760 7352 451 
4 7143 464 3762 7354 
4 9049 6447 6448 6314 
4 5307 7174 5117 5116 
4 5083 7207 5274 5084 
4 6230 4498 4497 8258 
4 4683 3665 3667 8394 
4 8144 9820 8477 3592 
4 485 305 304 6008 
4 8522 7783 4735 7622 
4 2690 6239 6237 9127 
4 8905 3444 6631 6523 
4 3156 9347 6022 5424 
4 3436 3602 4775 7812 
4 3582 7819 4785 3419 
4 3413 4399 6610 8938 
4 8468 7823 4789 7728 
4 8809 6678 7590 8807 
4 8913 8911 6626 7694 
4 6422 6262 9101 6421 
4 6367 8998 7052 2755 
4 9148 9150 6217 2679 
4 9079 6287 2714 6285 
4 9048 9050 6317 2729 
4 7610 6670 8827 8829 
4 5080 5079 5270 7211 
4 6303 2723 9062 7084 
4 6305 2724 6307 9060 
4 9455 7262 7261 3128 
4 6404 9137 6403 6226 
4 4075 4935 8609 5906 
4 6371 8996 6369 2756 
4 5423 9348 9849 8065 
4 6277 2710 6279 9088 
4 9139 2684 6225 6227 
4 8991 6476 6477 6372 
4 7110 2697 6251 9114 
4 4788 3574 3412 7724 
4 9054 7080 6311 2727 
4 9100 9102 6265 2703 
4 8920 7703 6619 8918 
4 6263 9103 6261 2702 
4 4561 6310 4556 8218 
4 2689 7118 9130 6235 
4 6664 8832 6666 4452 
4 6460 9025 6459 6338 
4 7829 4799 3554 3396 
4 7242 5239 5047 5049 
4 7310 5164 5355 3030 
4 4498 6228 4494 8259 
4 8968 6486 4384 3391 
4 4168 5027 8699 5998 
4 6326 8210 4568 4573 
4 3398 4390 6601 8956 
4 4074 4934 8610 5905 
4 4018 8666 5849 4878 
4 4112 5942 4971 8755 
4 4167 5026 8700 5997 
4 4076 5907 4936 8608 
4 5033 3770 8552 3744 
4 3771 8551 5034 3745 
4 2683 7124 9142 6223 
4 8842 3495 6557 4447 
4 8586 2767 8581 2670 
4 9004 6361 6363 2752 
4 6680 7586 8805 8803 
4 8909 8907 6629 7690 
4 4632 8445 3563 3565 
4 5850 8665 4879 4019 
4 4972 4113 5943 8754 
4 7575 8554 7372 4380 
4 8065 9545 3888 4377 
4 6333 2738 6335 9032 
4 4616 7349 3751 3781 
4 4165 5024 8702 5995 
4 4173 6387 4189 7371 
4 7373 6388 4174 4190 
4 6577 8283 8815 6792 
4 8480 4777 3596 6737 
4 4114 4973 8753 5944 
4 5851 8664 4880 4020 
4 6375 8276 6373 8992 
4 5923 8774 4952 4093 
4 4001 4861 8683 5832 
4 5920 8777 4949 4090 
4 3998 4858 8686 5829 
4 5854 8661 4883 4023 
4 4117 4976 8750 5947 
4 5902 8613 4931 4071 
4 5021 4162 5992 8705 
4 5899 8616 4928 4068 
4 5857 8658 4886 4026 
4 8747 4120 4979 5950 
4 5018 4159 5989 8708 
4 5896 8619 4925 4065 
4 4889 5860 8655 4029 
4 4123 4982 8744 5953 
4 8711 4156 5015 5986 
4 5893 8622 4922 4062 
4 5863 8652 4892 4032 
4 5956 4126 8741 4985 
4 4035 4895 8649 5866 
4 4056 4916 8628 5887 
4 5968 8729 4997 4138 
4 5965 8732 4994 4135 
4 5962 8735 4991 4132 
4 5959 8738 4988 4129 
4 4901 4041 5872 8643 
4 4144 8723 5974 5003 
4 5971 8726 5000 4141 
4 5980 8717 5009 4150 
4 5977 8720 5006 4147 
4 8640 4044 4904 5875 
4 4050 5881 4910 8634 
4 4038 4898 8646 5869 
4 4047 4907 8637 5878 
4 5890 4059 8625 4919 
4 4053 5884 4913 8631 
4 4153 5983 5012 8714 
4 4166 5025 8701 5996 
4 8879 6539 8315 6776 
4 2701 9106 6259 7106 
4 9096 6271 6269 8328 
4 9115 6415 6248 6414 
4 3457 3626 4763 7802 
4 8190 4599 4600 6366 
4 4791 3408 7732 7730 
4 6253 2698 6255 9112 
4 5852 8663 4881 4021 
4 4115 5945 4974 8752 
4 8444 4633 3567 3565 
4 6355 8286 6353 9012 
4 8612 4072 4932 5903 
4 4024 8660 5855 4884 
4 4118 4977 8749 5948 
4 5022 4163 5993 8704 
4 5900 4069 8615 4929 
4 4027 8657 5858 4887 
4 4121 4980 8746 5951 
4 5019 4160 5990 8707 
4 5897 8618 4926 4066 
4 5861 8654 4890 4030 
4 4124 4983 8743 5954 
4 4157 5016 8710 5987 
4 8621 4923 5894 4063 
4 4893 4033 5864 8651 
4 5957 8740 4986 4127 
4 4057 4917 8627 5888 
4 5978 8719 5007 4148 
4 5960 4130 8737 4989 
4 5975 8722 5004 4145 
4 5969 8728 4998 4139 
4 5963 8734 4992 4133 
4 5966 8731 4995 4136 
4 5879 4908 4048 8636 
4 4142 8725 5972 5001 
4 4036 4896 8648 5867 
4 4039 4899 8645 5870 
4 4051 4911 8633 5882 
4 4902 4042 5873 8642 
4 4905 4045 5876 8639 
4 5891 8624 4920 4060 
4 4154 5013 8713 5984 
4 4054 5885 4914 8630 
4 8716 5010 5981 4151 
4 2827 7224 5257 5066 
4 6409 6410 9125 6238 
4 7752 4801 3395 6596 
4 6287 9078 2714 2715 
4 5619 7245 8557 8547 
4 8548 7340 5620 8558 
4 8931 8341 6763 6508 
4 3783 4615 3753 7351 
4 4526 4524 8240 6266 
4 6424 9095 6268 6425 
4 5211 3124 5402 7263 
4 4002 4862 8682 5833 
4 5924 8773 4953 4094 
4 4091 8776 5921 4950 
4 3999 5830 4859 8685 
4 4837 6011 9344 2674 
4 4946 5917 8780 4087 
4 5826 8689 4855 3995 
4 466 413 7876 412 
4 449 292 291 7874 
4 7825 3405 4793 3566 
4 8301 6783 6329 6327 
4 5827 8688 4856 3996 
4 5918 8779 4947 4088 
4 6331 2737 9034 7070 
4 2685 2684 9138 6227 
4 5410 5219 7255 5220 
4 9537 3389 6800 3729 
4 5925 8772 4954 4095 
4 4003 4863 8681 5834 
4 8941 8346 8943 6500 
4 5073 5264 7217 2841 
4 5243 2799 7238 5052 
4 8903 8905 7686 6631 
4 4000 4860 8684 5831 
4 5922 8775 4951 4092 
4 8687 3997 4857 5828 
4 5919 8778 4948 4089 
4 6323 2733 9042 2732 
4 6778 8311 6307 6309 
4 7706 7708 3428 4779 
4 7229 5252 2817 5061 
4 3756 7856 7860 454 
4 7858 3758 461 7862 
4 417 470 7879 418 
4 445 287 286 7878 
4 5076 2847 5267 7214 
4 4073 4933 8611 5904 
4 4164 5023 8703 5994 
4 5901 8614 4930 4070 
4 5020 4161 5991 8706 
4 5898 4067 8617 4927 
4 5017 4158 5988 8709 
4 5895 8620 4924 4064 
4 4155 5014 8712 5985 
4 5892 8623 4921 4061 
4 8629 4055 4915 5886 
4 8638 4046 4906 5877 
4 4058 4918 8626 5889 
4 8635 4049 4909 5880 
4 4903 4043 5874 8641 
4 4894 5865 8650 4034 
4 5979 5008 4149 8718 
4 4037 4897 8647 5868 
4 4040 4900 8644 5871 
4 4052 4912 8632 5883 
4 5853 8662 4882 4022 
4 5859 8656 4888 4028 
4 5856 8659 4885 4025 
4 5862 8653 4891 4031 
4 8745 4122 4981 5952 
4 8751 4116 4975 5946 
4 4119 5949 4978 8748 
4 4125 4984 8742 5955 
4 4140 8727 5970 4999 
4 5961 4131 8736 4990 
4 5967 4137 8730 4996 
4 5964 8733 4993 4134 
4 5958 8739 4987 4128 
4 4143 8724 5973 5002 
4 5976 8721 5005 4146 
4 4152 5011 8715 5982 
4 4797 7744 7742 3399 
4 9102 6263 2703 2702 
4 8889 3455 6638 6532 
4 4543 8229 4541 6288 
4 7861 6703 2775 4833 
4 6635 7678 8893 8891 
4 9805 3616 8489 8149 
4 8830 8832 6666 7617 
4 5165 5166 7309 5356 
4 8155 9787 8503 3644 
4 6231 6233 6759 8349 
4 4731 3509 3690 7779 
4 3165 9531 9349 3155 
4 4761 3459 3630 7800 
4 2777 7859 6704 4834 
4 4654 3607 7809 4653 
4 6765 6255 6257 8337 
4 4622 7757 5229 3389 
4 6219 6221 6756 8355 
4 8843 6560 8841 8296 
4 9540 3737 4713 3726 
4 7261 5213 5404 3128 
4 3519 7600 7774 8815 
4 3511 7608 7777 8823 
4 5161 3024 5352 7313 
4 7367 7567 3732 3386 
4 2760 6379 6377 8988 
4 3765 420 473 4831 
4 429 480 7855 2781 
4 3691 4695 3689 8382 
4 3522 3706 4723 7772 
4 5916 8781 4945 4086 
4 5825 8690 4854 3994 
4 4759 3460 3634 7799 
4 7871 2776 7145 3774 
4 3776 2778 7872 7147 
4 7716 3421 8931 7817 
4 6628 3440 4416 8904 
4 8879 3465 7798 7664 
4 5365 3051 7300 5174 
4 4410 6513 3434 8916 
4 4727 3515 3698 7775 
4 3675 3677 4688 8389 
4 5140 5141 7334 5331 
4 3189 3291 7381 5233 
4 2668 2673 6385 7133 
4 7341 2971 5435 3162 
4 6386 2671 2767 7040 
4 6670 3505 6569 8829 
4 3438 7810 3606 4773 
4 3527 3710 4721 7771 
4 4771 3441 3610 7808 
4 3528 3714 4719 7769 
4 8281 8283 6365 9000 
4 7681 6632 8900 8898 
4 6407 9131 6406 6232 
4 8798 8800 6681 7581 
4 3594 8479 3596 7002 
4 8094 5438 5814 4176 
4 5437 4175 5813 8093 
4 9011 6352 6466 6467 
4 6234 4500 4502 8256 
4 401 580 400 6798 
4 8313 8315 6301 9064 
4 7717 6613 8934 8932 
4 4562 6316 4564 8215 
4 4864 4004 5835 8680 
4 5926 4096 8771 4955 
4 4866 4006 5837 8678 
4 5928 8769 4957 4098 
4 8770 5927 4097 4956 
4 4865 4005 5836 8679 
4 5930 8767 4959 4100 
4 4868 4008 5839 8676 
4 4867 4007 5838 8677 
4 5929 8768 4958 4099 
4 8765 5932 4102 4961 
4 4010 8674 5841 4870 
4 4960 5931 8766 4101 
4 5840 4009 8675 4869 
4 5842 8673 4871 4011 
4 5843 8672 4872 4012 
4 4104 4963 8763 5934 
4 4103 4962 8764 5933 
4 5845 8670 4874 4014 
4 5844 8671 4873 4013 
4 4105 4964 8762 5935 
4 4106 4965 8761 5936 
4 5847 8668 4876 4016 
4 5846 8669 4875 4015 
4 4107 4966 8760 5937 
4 4967 4108 5938 8759 
4 5848 8667 4877 4017 
4 4968 4109 5939 8758 
4 4969 4110 5940 8757 
4 4970 4111 5941 8756 
4 466 7876 3784 412 
4 292 449 3782 7874 
4 8566 8554 4844 7372 
4 9116 6249 8341 8339 
4 3465 4757 7798 3638 
4 3519 3702 4725 7774 
4 4729 3511 3694 7777 
4 4520 6260 4522 8243 
4 3586 3421 7817 4783 
4 2708 6275 6273 9092 
4 3047 7302 5363 5172 
4 4781 3425 3590 7815 
4 6359 9008 6357 2750 
4 7276 5389 5198 5199 
4 3515 7602 7775 8819 
4 8883 7666 3460 7799 
4 3522 8811 7594 7772 
4 8434 3585 4643 3587 
4 5350 5159 3020 7315 
4 6521 3443 4417 8902 
4 3504 6567 6667 8833 
4 9340 4282 3295 4283 
4 9251 3201 4192 4191 
4 9050 8306 9048 6317 
4 5230 3541 7756 9536 
4 274 435 7839 434 
4 6627 8908 7689 8906 
4 6780 8306 6315 6317 
4 2669 5429 2674 8587 
4 4711 3721 3723 9739 
4 6552 6654 3484 8857 
4 4765 7680 8492 7804 
4 3461 4427 6533 8882 
4 6215 9150 2678 2679 
4 3718 3720 6994 8541 
4 5139 7335 8542 7336 
4 6567 3504 6565 8833 
4 6550 6552 3484 8857 
4 2694 6247 6245 9120 
4 7783 3680 4735 4736 
4 3526 8804 4466 6677 
4 3500 8836 4450 6561 
4 3986 9542 5816 6012 
4 8363 3388 3793 5815 
4 6581 8802 3529 4467 
4 8362 3542 3794 5816 
4 288 3743 3769 446 
4 469 3746 416 3772 
4 480 7837 430 481 
4 5616 7975 6202 3978 
4 4487 8265 4488 6216 
4 3740 6694 4188 7835 
4 8295 6785 6337 6335 
4 4400 6501 3416 8936 
4 6635 6773 6531 8891 
4 3385 7474 3191 5234 
4 9050 6315 2729 2728 
4 5209 5208 5399 7266 
4 6113 5527 2968 9352 
4 4558 6306 4554 8220 
4 8912 4411 6622 8914 
4 7704 4777 7814 8480 
4 7352 3760 295 451 
4 464 3762 7354 409 
4 5913 8784 4942 4083 
4 5822 8693 4851 3991 
4 3407 8953 6495 6604 
4 4396 6607 8942 8944 
4 5212 3126 5403 7262 
4 8854 4441 3483 6653 
4 3642 7796 4755 3466 
4 3506 8828 4454 6566 
4 6582 8279 8807 6794 
4 2785 7340 5620 7870 
4 2783 7868 8547 4811 
4 6505 3422 4403 8930 
4 6571 8289 8827 6789 
4 4524 4523 8241 6264 
4 8471 5210 7264 7265 
4 8605 5910 8603 487 
4 8595 2969 7342 9352 
4 7366 5811 8075 7881 
4 3407 8953 6494 6495 
4 4173 4189 8089 7371 
4 8090 7373 4174 4190 
4 2741 9026 6339 2740 
4 8911 8331 6768 6519 
4 8577 5425 4181 4187 
4 8307 6779 6313 6311 
4 3464 8876 4430 6642 
4 4769 3442 3614 7806 
4 3738 7761 7570 4620 
4 5219 3141 5410 7255 
4 7368 9159 5043 7376 
4 5044 7369 9160 7377 
4 9016 2746 6349 6351 
4 5824 8691 4853 3993 
4 5915 8782 4944 4085 
4 4077 4937 8607 5908 
4 5230 3541 4621 7756 
4 7764 3721 9739 8367 
4 3385 4372 3386 9342 
4 6235 6237 6760 8345 
4 5525 6112 7887 3884 
4 2779 3740 3172 7839 
4 4169 5028 8698 5999 
4 8415 3625 3623 4662 
4 4714 3722 7765 8543 
4 7807 8422 4655 3611 
4 3177 7850 8068 6687 
4 3180 6688 7849 8067 
4 8303 6781 6321 6319 
4 3651 8401 3653 4676 
4 9126 2691 2690 6239 
4 7797 4669 4670 3639 
4 8462 7827 4795 7740 
4 3980 8066 9546 4378 
4 9540 3737 7577 4713 
4 3701 3703 4701 8376 
4 3536 7584 7767 8799 
4 4692 3685 4693 7780 
4 7837 3739 2781 3170 
4 7339 9539 9551 3163 
4 4705 3711 7770 8372 
4 5165 7309 3032 5356 
4 8593 6208 6006 3157 
4 3982 5624 10029 5042 
4 9550 9538 3159 7244 
4 3981 10028 5041 5623 
4 4518 4522 6258 8244 
4 4412 8912 6622 6624 
4 7276 7277 8146 5198 
4 8893 6635 6530 3452 
4 6608 4397 6607 8942 
4 8917 8915 6623 7702 
4 7275 8481 7274 5200 
4 6772 6283 6285 8321 
4 6530 8893 3452 6529 
4 4692 3685 7780 8385 
4 8935 8937 7722 6614 
4 8076 4182 8578 8100 
4 6600 4388 6598 8960 
4 6667 7618 8833 8831 
4 3987 4375 9159 5043 
4 5044 9160 4376 3988 
4 6261 6259 8333 6766 
4 8963 8965 7750 6599 
4 8856 7639 8858 6651 
4 421 7873 4831 422 
4 7875 282 4829 283 
4 9828 6742 3578 4787 
4 6391 8065 3888 4377 
4 8806 8808 6676 7589 
4 7580 3722 3720 8542 
4 8142 5208 7266 7267 
4 6570 8822 3512 4457 
4 8891 7674 3457 7802 
4 6223 6225 6757 8351 
4 6534 6774 8887 6638 
4 3509 7612 7779 8827 
4 8911 7810 7696 3438 
4 3527 7592 7771 8807 
4 3528 7588 7769 8803 
4 6340 8203 4582 4580 
4 4571 6330 8208 4574 
4 8951 8953 7738 6604 
4 6302 4552 4551 8222 
4 5162 3026 5353 7312 
4 6654 7642 8857 8855 
4 4387 6598 8960 8962 
4 8907 7692 3441 7808 
4 3731 5811 3195 7366 
4 3989 8086 8597 6986 
4 8151 5186 7288 7289 
4 8088 8598 4081 6987 
4 4483 4476 8269 4383 
4 274 2779 3172 7839 
4 3577 8439 7820 4638 
4 9534 4475 8101 7758 
4 7819 8935 3419 7718 
4 8915 7698 3436 7812 
4 3691 7778 4696 4695 
4 5811 8075 4181 4187 
4 8244 4522 8243 8916 
4 6667 6568 8831 6788 
4 4602 8188 4604 6370 
4 8797 3534 6684 6589 
4 3560 8461 7021 3558 
4 5160 7314 8521 7315 
4 8830 3503 6666 4453 
4 3735 4619 7831 7571 
4 4431 8874 6538 3467 
4 6997 3572 8467 3570 
4 4404 4403 3420 8928 
4 430 7837 2781 3170 
4 4509 6246 4510 8250 
4 3598 4777 9816 6737 
4 4566 6320 4565 8213 
4 3487 8852 4442 6551 
4 4503 6236 4502 8255 
4 5212 5211 5402 7263 
4 3727 7760 3539 4803 
4 3402 4391 6491 8954 
4 6013 2669 8975 5039 
4 6392 8066 5424 3980 
4 8366 5136 7154 7155 
4 3538 4714 3722 7765 
4 8075 8577 4181 4187 
4 5162 5161 5352 7313 
4 7797 4669 3639 8408 
4 8917 6516 6515 3433 
4 7796 3466 7658 8875 
4 3661 4680 8397 7789 
4 8927 7710 3425 7815 
4 5121 5312 7169 2937 
4 6503 8937 6504 3415 
4 5040 4479 4475 8101 
4 6488 8965 6599 3393 
4 4850 8693 8694 5821 
4 8785 8784 5912 4941 
4 2823 7226 5255 5064 
4 6553 6654 6782 8855 
4 4474 9535 7759 8102 
4 6516 8917 6623 3433 
4 478 426 427 2774 
4 278 437 2773 277 
4 8937 6614 6504 3415 
4 5037 4837 9344 2674 
4 3981 4173 8089 8567 
4 4174 8090 3982 8568 
4 7209 5272 2857 5081 
4 4597 8192 4596 6362 
4 6374 8186 4606 4605 
4 4382 4182 7882 8100 
4 7248 5418 3155 5226 
4 8565 7370 8553 4843 
4 4612 6378 4608 8184 
4 6397 9152 9149 7129 
4 3730 6801 3541 9536 
4 2923 7176 5305 5114 
4 7026 3668 8515 3666 
4 7159 5131 5322 2957 
4 8306 9050 6315 6317 
4 6682 6587 8799 6796 
4 6767 8915 6517 6623 
4 2776 7145 3174 296 
4 2778 408 7147 3176 
4 7225 7226 8130 5065 
4 8935 6762 6614 6506 
4 6379 2761 6381 8985 
4 8965 6488 6487 3393 
4 8236 4530 4531 6274 
4 2735 2736 6329 9036 
4 8276 8279 6373 8992 
4 8234 4537 4533 6278 
4 4379 7573 3731 3195 
4 9096 6269 8331 8328 
4 3196 7574 5812 6694 
4 7379 8563 8557 4373 
4 4374 8564 7378 8558 
4 8286 8289 6353 9012 
4 8838 8840 6661 7625 
4 7755 3543 5625 4619 
4 7826 8448 4629 3559 
4 8231 4538 4540 6284 
4 3711 4706 4705 7770 
4 6222 4491 8262 4492 
4 4559 6312 4561 8217 
4 9159 8086 3199 7472 
4 9160 8088 3293 7565 
4 2682 9144 6221 2681 
4 8692 5822 8693 4851 
4 5913 8784 8783 4942 
4 8811 6579 6793 6675 
4 8114 7173 7174 5117 
4 6240 4507 4505 8253 
4 7207 8123 7206 5084 
4 6672 6575 8819 6791 
4 8883 6775 6640 6536 
4 4488 8264 4490 6218 
4 4550 6298 4548 8224 
4 6385 2673 8582 7133 
4 8583 4845 6751 8787 
4 8951 6758 6604 6496 
4 8465 6745 7825 8464 
4 5194 3090 5385 7280 
4 2699 2700 6257 9108 
4 5144 2990 5335 7330 
4 4079 4938 5910 8605 
4 3577 7820 4639 4638 
4 7876 4832 4618 3784 
4 3782 4617 4830 7874 
4 7294 5371 3062 5180 
4 5390 7275 5200 5199 
4 7249 5416 5225 5226 
4 6755 8963 6489 6599 
4 5400 5210 5209 7265 
4 4832 7876 7359 7843 
4 4830 7841 7874 7360 
4 5196 3094 5387 7278 
4 5122 8112 7169 7168 
4 8820 3510 4457 4458 
4 7634 6655 8851 8853 
4 5134 8108 7157 7156 
4 9533 8578 7853 5426 
4 2688 2687 9132 6233 
4 3791 4839 7871 3774 
4 3792 3776 4840 7872 
4 7320 5345 3010 5154 
4 5184 3070 5375 7290 
4 6645 6541 8875 6777 
4 6764 8927 6510 6616 
4 7807 4655 4656 3611 
4 3691 7778 4695 8382 
4 8840 6661 6659 4448 
4 4688 3677 7784 8389 
4 5029 4171 8696 6001 
4 8458 8459 7829 6748 
4 9030 6337 2739 6335 
4 8973 5230 7362 7756 
4 8947 8949 7730 6606 
4 7298 5367 3055 5176 
4 470 7880 416 417 
4 288 445 7877 287 
4 7654 6647 8871 8873 
4 7207 5083 5274 2861 
4 2927 7174 5307 5116 
4 8473 6741 7819 8472 
4 8482 8483 7812 6736 
4 7157 5133 5324 2961 
4 3731 7366 7566 3292 
4 7757 7365 5229 8974 
4 6673 6577 8815 6792 
4 8925 8923 6618 7706 
4 2969 8595 8596 5417 
4 8959 8961 7742 6602 
4 6671 6790 6573 8823 
4 3749 3757 7855 2781 
4 7284 5190 5381 3083 
4 8879 6643 6539 6776 
4 6615 8931 6763 6508 
4 9018 6347 6349 2745 
4 8177 4812 7363 8548 
4 8176 7364 8547 4811 
4 6648 6546 8867 6779 
4 452 7352 295 451 
4 463 464 7354 409 
4 3507 7614 7781 8831 
4 8495 6730 7802 8494 
4 6297 9070 6295 2719 
4 7298 7299 8505 5176 
4 7857 3747 3755 2779 
4 7832 8092 10030 3544 
4 3982 5814 3984 8070 
4 8903 7688 3442 7806 
4 5813 3981 8069 3983 
4 8824 8826 6669 7611 
4 7695 8908 6625 8910 
4 8211 4570 6324 4568 
4 5190 8491 7285 7284 
4 7661 8878 6641 8880 
4 8963 7829 7746 3396 
4 8951 3405 7825 7734 
4 9026 8293 9023 6341 
4 2695 2696 6249 9116 
4 4841 6013 8975 4476 
4 9107 6418 9110 7108 
4 9545 9544 5627 7380 
4 5182 3066 5373 7292 
4 4372 7567 3386 9342 
4 5337 2994 7328 5146 
4 6353 9013 6351 2747 
4 7126 9146 6400 9143 
4 3002 7324 5341 5150 
4 2986 5142 7332 5333 
4 6433 9080 9077 7093 
4 9063 7086 6440 9066 
4 7268 5397 3114 5206 
4 7322 5343 3006 5152 
4 5339 2998 7326 5148 
4 7341 9348 3162 8977 
4 7054 9002 6472 8999 
4 8088 8598 3293 7565 
4 8086 8597 3199 7472 
4 6454 7072 9038 9035 
4 9049 7079 6447 9052 
4 476 7355 425 477 
4 8590 6014 2670 5040 
4 9104 9101 6421 7105 
4 7270 5395 3110 5204 
4 439 279 438 7353 
4 8899 8901 7682 6633 
4 3779 7859 2777 4834 
4 6243 2693 6245 9122 
4 8196 4590 4591 6354 
4 6392 8066 3980 4378 
4 6299 2721 6301 9065 
4 6649 6548 8863 6780 
4 4512 4513 8248 6250 
4 6307 2725 6309 9057 
4 8895 6772 6634 6529 
4 8293 6786 6341 6339 
4 577 8695 8694 6701 
4 6702 487 8785 8786 
4 9131 6406 9134 7120 
4 3777 7861 2775 4833 
4 5079 2853 5270 7211 
4 6766 8919 6515 6620 
4 435 436 275 3755 
4 6365 9000 2753 2754 
4 6247 9117 2695 6249 
4 4170 5029 8697 6000 
4 6371 8993 2757 6373 
4 3738 3542 7570 8077 
4 4078 4938 8606 5909 
4 6363 6365 9001 2753 
4 6563 6662 6786 8839 
4 3165 9349 5616 6204 
4 6685 4714 3538 7579 
4 3735 4185 3388 8078 
4 6255 2699 6257 9109 
4 8834 8832 6664 4451 
4 7082 6444 9055 9058 
4 2757 2758 6373 8992 
4 2709 6277 6275 9089 
4 2735 6329 6327 9037 
4 7075 6451 9041 9044 
4 2776 453 7145 296 
4 462 2778 408 7147 
4 6241 8343 9126 9123 
4 6560 6660 6785 8843 
4 9137 6403 9140 7123 
4 6558 6658 6784 8847 
4 456 457 301 8560 
4 458 459 8562 403 
4 6668 8826 6669 4455 
4 8094 4176 6016 8074 
4 9115 9118 7112 6414 
4 6670 6571 8827 6789 
4 5034 8591 5036 4178 
4 6761 8939 6503 6611 
4 6760 8943 6500 6609 
4 6768 8911 6519 6626 
4 6678 6582 8807 6794 
4 6761 6241 8343 6239 
4 2706 9096 6269 2705 
4 6769 8907 6522 6629 
4 4186 3542 3738 8077 
4 6680 6584 8803 6795 
4 8291 6787 6345 6343 
4 6269 9097 6267 2705 
4 4175 8093 8072 6015 
4 2711 6281 6279 9085 
4 6293 9074 6291 2717 
4 9133 2687 6231 6233 
4 9145 6219 6221 2681 
4 2767 6386 7040 8581 
4 6652 6550 8859 6781 
4 3152 7249 5416 5225 
4 8177 7876 4618 3784 
4 8176 4617 3782 7874 
4 6757 8955 6494 6603 
4 6321 9046 6319 2731 
4 9095 6424 9098 7102 
4 5276 7205 5086 5085 
4 7050 6476 8991 8994 
4 4529 6270 4527 8238 
4 5249 7232 5059 5058 
4 5099 5290 5100 7191 
4 9531 3165 5616 3155 
4 8903 6770 6631 6524 
4 8506 4751 7795 3648 
4 8201 6344 4584 4583 
4 7571 3735 3388 8078 
4 7379 5625 4373 5231 
4 7181 5300 5109 5110 
4 7296 5369 3058 5178 
4 5192 5383 7282 3086 
4 3678 4737 3501 7620 
4 3538 7579 7765 8795 
4 6565 6665 6787 8835 
4 4474 9535 8102 4383 
4 7376 5043 3733 3187 
4 3734 5044 3188 7377 
4 2969 5527 7342 9352 
4 5346 7319 7318 5156 
4 6390 7135 5430 2767 
4 4844 7372 6690 4833 
4 5619 2783 8547 4811 
4 8502 8503 6726 7007 
4 9025 7067 6459 9028 
4 8096 8094 5814 8070 
4 7008 6733 8489 8488 
4 9125 6409 9128 7117 
4 9014 7060 9011 6466 
4 8093 5813 8095 8069 
4 7790 3488 7638 8855 
4 4586 8198 4589 6350 
4 2969 5527 3161 7342 
4 3727 4809 8091 5227 
4 7273 5392 3104 5201 
4 7862 7038 462 2778 
4 2776 7033 7860 453 
4 6742 8470 9828 8141 
4 3156 9347 5424 3157 
4 7345 6706 2976 5042 
4 6345 9022 6343 2743 
4 8792 8968 8359 4384 
4 6389 7138 5429 2673 
4 8824 6570 3508 4456 
4 5914 8783 4943 4084 
4 3992 8692 5823 4852 
4 5626 5232 4374 7378 
4 8872 4432 6646 6644 
4 8522 7783 3680 4735 
4 5041 2790 6705 7343 
4 8075 7881 4181 8099 
4 8838 3497 4449 6561 
4 6751 8583 8787 10031 
4 5124 5123 5314 7167 
4 5028 4170 8697 6000 
4 431 481 8559 482 
4 5119 5118 5309 7172 
4 7202 5279 5088 5089 
4 3052 7299 5366 5175 
4 3080 5189 7285 5380 
4 3541 8091 8588 9536 
4 4182 4188 8076 8578 
4 8145 9816 8480 6737 
4 4181 7881 4381 8099 
4 4937 4078 8606 5909 
4 8476 7013 8477 6739 
4 5127 5128 7163 5318 
4 5103 5102 5293 7188 
4 5070 5069 5260 7221 
4 6734 7016 8486 8487 
4 8484 8485 6735 7000 
4 5297 7184 5107 5106 
4 8536 7009 8537 6709 
4 7235 5246 5055 5056 
4 280 7142 440 2769 
4 8500 8501 6727 7015 
4 4618 8177 3784 7350 
4 7348 8176 4617 3782 
4 5137 2969 8595 5327 
4 3607 8424 7809 4653 
4 9023 6341 6343 2742 
4 7370 4843 4834 6689 
4 3620 4765 8492 7804 
4 4177 8592 5033 5035 
4 5096 5095 5286 7195 
4 3722 6750 5138 8543 
4 6016 4176 6024 8074 
4 2771 475 7140 424 
4 4688 3677 4689 7784 
4 2673 7138 8582 7133 
4 6336 4578 8205 4575 
4 6241 2692 6243 9123 
4 8475 7019 6740 8474 
4 7335 5140 5139 8172 
4 8530 8531 6712 7018 
4 8528 8529 6713 7020 
4 6501 4399 3413 8938 
4 6999 6728 8499 8498 
4 6995 6708 8539 8538 
4 8532 8533 6711 7011 
4 7318 7319 8164 5156 
4 8804 6581 3526 4466 
4 8534 8535 6710 6998 
4 8526 8527 6714 7023 
4 7012 6729 8497 8496 
4 8179 4616 4814 3182 
4 4615 3183 4813 8178 
4 9554 6988 5719 5718 
4 8782 5914 8783 4943 
4 5823 8692 8691 4852 
4 3536 3718 4717 7767 
4 8072 4175 6015 6023 
4 3183 5230 4813 7362 
4 7365 4814 5229 3182 
4 474 7873 422 3783 
4 7875 441 3781 282 
4 5232 4812 4374 7378 
4 4811 7379 4373 5231 
4 7158 5132 5323 2958 
4 2924 7175 5306 5115 
4 7208 5273 2858 5082 
4 6219 9148 6217 2680 
4 299 3756 298 454 
4 406 405 3758 461 
4 8086 3989 3199 6986 
4 8088 4081 3293 6987 
4 7224 5257 5066 5067 
4 2788 8563 9345 5045 
4 8695 5819 4847 4849 
4 5820 8786 4940 4848 
4 6283 2713 6285 9082 
4 3172 274 7839 434 
4 5915 8782 8781 4944 
4 8690 5824 8691 4853 
4 7229 5252 5061 5062 
4 5243 7238 5053 5052 
4 5077 5076 5267 7214 
4 5074 5073 5264 7217 
4 8698 5028 8697 5999 
4 8689 5825 8690 4854 
4 5916 8781 8780 4945 
4 6595 6591 6686 8790 
4 5826 8689 8688 4855 
4 4946 5917 8779 8780 
4 8687 5827 8688 4856 
4 5918 8779 8778 4947 
4 8687 4857 8686 5828 
4 8778 8777 5919 4948 
4 4858 8685 8686 5829 
4 8777 8776 5920 4949 
4 4859 5830 8684 8685 
4 8776 8775 5921 4950 
4 4860 8683 8684 5831 
4 8775 8774 5922 4951 
4 8716 5980 8717 5009 
4 8632 4912 8631 5883 
4 5884 4913 8631 8630 
4 5839 4868 8676 8675 
4 8674 5840 8675 4869 
4 8640 4903 5874 8641 
4 8649 4894 5865 8650 
4 8645 4899 8644 5870 
4 8638 4905 5876 8639 
4 8637 4907 8636 5878 
4 8635 4909 8634 5880 
4 4906 8638 5877 8637 
4 5873 4902 8642 8641 
4 4904 8640 5875 8639 
4 5881 4910 8634 8633 
4 4901 5872 8642 8643 
4 4900 8644 5871 8643 
4 4898 8645 8646 5869 
4 4897 8646 8647 5868 
4 4896 8647 8648 5867 
4 4895 8648 8649 5866 
4 4908 5879 8635 8636 
4 4911 8632 8633 5882 
4 5852 8663 8662 4881 
4 5851 8664 8663 4880 
4 5938 4967 8759 8758 
4 5010 8716 5981 8715 
4 4916 8627 8628 5887 
4 5890 8625 8624 4919 
4 5945 8751 4974 8752 
4 5949 8747 4978 8748 
4 5943 4972 8754 8753 
4 5942 4971 8755 8754 
4 5956 8741 8740 4985 
4 5838 4867 8677 8676 
4 8629 4915 8628 5886 
4 4970 5941 8755 8756 
4 8626 4918 8625 5889 
4 8627 4917 8626 5888 
4 4969 5940 8756 8757 
4 4968 5939 8757 8758 
4 8658 8657 5857 4886 
4 8661 8660 5854 4883 
4 8659 8658 5856 4885 
4 8657 8656 5858 4887 
4 8660 8659 5855 4884 
4 5860 4889 8655 8654 
4 5864 4893 8651 8650 
4 8651 5863 8652 4892 
4 5859 8656 8655 4888 
4 5861 8654 8653 4890 
4 5862 8653 8652 4891 
4 5853 8662 8661 4882 
4 5885 8629 4914 8630 
4 4982 8743 8744 5953 
4 8745 4981 8744 5952 
4 8743 4983 8742 5954 
4 4980 8745 8746 5951 
4 4984 8741 8742 5955 
4 8753 4973 8752 5944 
4 8749 4977 8748 5948 
4 8751 4975 8750 5946 
4 8747 4979 8746 5950 
4 4976 8749 8750 5947 
4 8739 5957 8740 4986 
4 8727 8726 5970 4999 
4 8765 4960 5931 8766 
4 8765 5932 4961 8764 
4 8762 4964 8761 5935 
4 8761 4965 8760 5936 
4 5930 8767 8766 4959 
4 4962 8763 8764 5933 
4 4963 8762 8763 5934 
4 4966 8760 5937 8759 
4 8736 5960 8737 4989 
4 8728 8727 5969 4998 
4 5961 8736 8735 4990 
4 8734 5962 8735 4991 
4 5958 8739 8738 4987 
4 5959 8738 8737 4988 
4 5965 8732 8731 4994 
4 8732 5964 8733 4993 
4 5966 8731 8730 4995 
4 5963 8734 8733 4992 
4 8728 5968 8729 4997 
4 5967 8730 8729 4996 
4 5844 8671 8670 4873 
4 5846 8669 8668 4875 
4 5849 8666 8665 4878 
4 5850 8665 8664 4879 
4 8667 8666 5848 4877 
4 8672 5842 8673 4871 
4 8671 5843 8672 4872 
4 8669 5845 8670 4874 
4 8667 5847 8668 4876 
4 8718 5978 8719 5007 
4 8723 8722 5974 5003 
4 8720 5976 8721 5005 
4 8725 5971 8726 5000 
4 8724 8723 5973 5002 
4 8725 8724 5972 5001 
4 5008 5979 8717 8718 
4 8767 5929 8768 4958 
4 5977 8720 8719 5006 
4 5975 8722 8721 5004 
4 5837 4866 8678 8677 
4 5841 8674 8673 4870 
4 8624 8623 5891 4920 
4 8768 5928 8769 4957 
4 8715 5011 8714 5982 
4 5012 5983 8713 8714 
4 4865 5836 8678 8679 
4 5927 8770 8769 4956 
4 8623 8622 5892 4921 
4 4864 5835 8679 8680 
4 8770 5926 8771 4955 
4 5013 8712 8713 5984 
4 8622 8621 5893 4922 
4 4863 8680 8681 5834 
4 5925 8772 8771 4954 
4 5014 8711 8712 5985 
4 4923 8620 8621 5894 
4 4862 8681 8682 5833 
4 8773 8772 5924 4953 
4 8683 4861 8682 5832 
4 8774 8773 5923 4952 
4 8711 5015 8710 5986 
4 8620 8619 5895 4924 
4 5016 8710 5987 8709 
4 8619 8618 5896 4925 
4 5988 5017 8709 8708 
4 8617 5897 8618 4926 
4 5018 5989 8707 8708 
4 5898 8617 8616 4927 
4 5990 5019 8707 8706 
4 8615 5899 8616 4928 
4 5991 5020 8706 8705 
4 8614 5900 8615 4929 
4 5021 5992 8704 8705 
4 8613 5901 8614 4930 
4 5993 5022 8704 8703 
4 5902 8613 8612 4931 
4 8703 5023 8702 5994 
4 8612 4932 8611 5903 
4 5024 8701 8702 5995 
4 6359 6361 9006 2751 
4 4933 8610 8611 5904 
4 5027 8698 8699 5998 
4 8701 5025 8700 5996 
4 7135 2767 7040 8581 
4 8610 4934 8609 5905 
4 7850 8550 8068 6687 
4 6688 7849 8067 8549 
4 5026 8699 8700 5997 
4 8609 4935 8608 5906 
4 6325 2734 6327 9040 
4 7837 430 481 3170 
4 7697 8912 6622 8914 
4 6319 9048 6317 2730 
4 9076 6289 6291 2716 
4 6607 7727 8942 8944 
4 7010 6745 8465 8464 
4 8561 273 434 433 
4 4282 8087 4081 4940 
4 8085 4849 3989 4191 
4 8482 8483 6736 6996 
4 4936 5907 8607 8608 
4 7022 6741 8473 8472 
4 8968 7752 6596 3391 
4 6021 2970 3161 7153 
4 8458 8459 6748 7001 
4 6627 8908 4414 6625 
4 8968 8967 6486 6596 
4 7783 3678 3680 4736 
4 9026 8293 6341 6339 
4 9100 6265 6267 2704 
4 4175 5629 3797 9731 
4 6491 4390 3398 8956 
4 9732 5630 4176 3889 
4 6754 8967 6487 6596 
4 2686 9136 6231 6229 
4 4441 8854 3483 6551 
4 3738 3737 7761 3728 
4 6636 6637 4425 8886 
4 8607 4937 8606 5908 
4 8876 3464 4430 6538 
4 3733 7376 3187 4189 
4 3188 3734 7377 4190 
4 7025 6730 8495 8494 
4 8832 8834 6664 7615 
4 6555 6655 6783 8851 
4 3618 4766 3620 7804 
4 6694 5812 4188 8076 
4 6598 7745 8960 8962 
4 7170 2935 5120 5311 
4 5169 6721 8512 3660 
4 2921 7177 5304 5113 
4 6647 6544 8871 6778 
4 8343 6241 9126 6239 
4 3440 6521 4416 8904 
4 3684 6715 5157 8524 
4 5429 2669 2673 8587 
4 8591 7040 8551 5034 
4 3986 8362 3794 5816 
4 6656 8846 6657 4445 
4 3793 8363 5815 3985 
4 8899 6771 6633 6527 
4 3190 5627 3291 7380 
4 8577 8075 4181 8099 
4 5423 6391 8065 3888 
4 5046 8564 2974 9346 
4 9764 6717 3678 4737 
4 5351 7314 5160 3023 
4 5226 8455 5228 3546 
4 8597 8086 3199 6986 
4 8598 8088 3293 6987 
4 7160 5130 5321 2955 
4 8947 6759 6606 6498 
4 2821 7227 5254 5063 
4 5271 7210 5080 2855 
4 5078 5269 7212 2851 
4 7795 3646 3648 4752 
4 8696 5030 8604 6001 
4 6641 4428 6639 8880 
4 6512 6765 8923 6618 
4 8959 6756 6602 6492 
4 5329 5139 5138 7336 
4 8830 3503 4453 6566 
4 8087 4282 4081 6987 
4 3989 8085 4191 6986 
4 3888 9545 5627 4377 
4 3989 3987 8086 3199 
4 8088 4081 3988 3293 
4 5208 3118 5399 7266 
4 7376 7472 3187 8095 
4 8096 3188 7565 7377 
4 7568 7376 3185 3733 
4 3186 3734 7569 7377 
4 5389 3098 7276 5198 
4 3766 7865 7849 3746 
4 3764 7863 7850 3743 
4 3296 3295 7563 6813 
4 3202 3201 7470 6812 
4 5413 3146 7252 5222 
4 438 278 7146 3173 
4 4805 7759 3197 3795 
4 3646 4753 3474 7656 
4 7142 280 3767 2769 
4 3175 426 477 7144 
4 5033 8592 8552 7133 
4 9531 3165 9349 5616 
4 5910 4939 8605 8603 
4 7684 3450 4767 3618 
4 5081 8421 3613 3611 
4 7379 8547 4811 4373 
4 4812 4374 7378 8548 
4 7335 5140 8172 7334 
4 3679 3677 5114 8388 
4 3713 3711 5131 8371 
4 7273 5392 5201 5202 
4 5132 5133 7158 5323 
4 3693 3691 5121 8381 
4 3577 8438 5064 3579 
4 7832 3544 4804 3387 
4 3196 7575 4380 3732 
4 5306 7175 5116 5115 
4 7335 5139 5330 2980 
4 7208 5083 5273 5082 
4 2771 7140 3768 424 
4 5186 3075 5377 7288 
4 5039 4805 8080 8102 
4 7258 5216 5407 3134 
4 2673 6385 8582 5035 
4 8796 3535 6585 4470 
4 6011 3985 9543 5429 
4 4464 8808 6674 6676 
4 8858 4439 6651 6650 
4 3683 3681 5116 8386 
4 8419 5083 3615 3617 
4 9764 6717 8520 8162 
4 7865 3766 468 415 
4 3764 447 7863 289 
4 3715 5133 3717 8369 
4 4188 5812 4182 8076 
4 413 4832 7876 3784 
4 291 3782 4830 7874 
4 4810 8092 3389 3544 
4 8423 3607 3609 5079 
4 5160 5159 5350 7315 
4 5811 6693 8075 4187 
4 5527 6203 3161 7342 
4 285 444 7864 443 
4 5040 4806 8079 8101 
4 471 419 472 7866 
4 6206 3180 4832 7359 
4 6205 4830 7360 3177 
4 7632 6658 8847 8849 
4 3489 6555 6556 8849 
4 3727 8091 3541 9536 
4 6512 8921 6514 3432 
4 2767 6386 8581 5036 
4 8583 4381 5235 4845 
4 8824 3508 6669 4456 
4 6652 7644 8861 8859 
4 2669 4805 5035 8080 
4 3496 6558 6559 8845 
4 5036 2670 4806 8079 
4 7761 4620 3728 7576 
4 7318 5347 5156 5157 
4 8838 3497 6661 4449 
4 5169 7306 5168 5359 
4 8697 5029 8696 6000 
4 4476 4474 5039 8102 
4 8784 5913 4941 4083 
4 5822 4850 8693 3991 
4 7177 5304 5113 5114 
4 3747 7574 3196 6694 
4 7170 5120 5121 5311 
4 2788 5431 8557 4373 
4 2767 8581 2670 5036 
4 2973 7340 2785 4816 
4 459 7840 404 460 
4 456 7838 300 455 
4 2783 4815 2787 7245 
4 5130 5131 7160 5321 
4 5079 5078 5269 7212 
4 4374 5432 2974 8558 
4 5271 7210 5081 5080 
4 5254 7227 5064 5063 
4 8957 3403 6493 6492 
4 8092 9537 3389 3544 
4 8694 5821 4849 3990 
4 8785 5912 4940 4082 
4 439 7142 280 3767 
4 4474 4805 7759 3197 
4 6548 6549 3479 8861 
4 8955 8957 7740 6603 
4 8895 8897 7680 6634 
4 7704 8919 8921 6620 
4 8945 3411 6499 6498 
4 4809 3727 8091 3541 
4 8897 3448 6528 6527 
4 7140 476 3768 424 
4 3705 3703 5127 8375 
4 3655 3653 5102 8400 
4 8433 3589 5069 3587 
4 7650 6649 8863 8865 
4 3695 5123 3697 8379 
4 8414 5088 3625 3627 
4 3641 3639 5095 8407 
4 3687 3685 5118 8384 
4 6546 6547 3476 8865 
4 8417 3621 5085 3619 
4 3669 3667 5109 8393 
4 3721 3719 5135 8367 
4 5817 3987 4375 8081 
4 8082 5818 4376 3988 
4 3663 3661 5106 8396 
4 8447 3561 5055 3559 
4 6545 3472 6544 8869 
4 2669 2673 8582 5035 
4 5058 8444 3567 3565 
4 5099 3649 3647 8403 
4 7758 4806 3796 3198 
4 7628 6660 8843 8845 
4 7862 7347 4840 7872 
4 8436 5066 3581 3583 
4 3688 3686 8525 5156 
4 8941 3414 6502 6500 
4 2971 9348 5423 3162 
4 3553 8450 5052 3555 
4 5073 8429 3597 3595 
4 5061 8441 3573 3571 
4 8426 5076 3601 3603 
4 2971 8594 6005 6207 
4 6375 2759 6377 8989 
4 9543 6011 5429 2674 
4 6357 9009 6355 2749 
4 4475 4806 7758 3198 
4 4806 5036 9734 3796 
4 5242 2796 7239 5051 
4 7230 5251 2814 5060 
4 5072 5263 7218 2838 
4 7652 6648 8867 8869 
4 3498 6560 6562 8841 
4 5075 5266 7215 2844 
4 2824 7225 5256 5065 
4 4805 5035 9735 3795 
4 6994 6707 8541 8540 
4 7790 4745 6721 3662 
4 5168 8513 3662 3664 
4 8941 7726 8939 6611 
4 6665 7622 8837 8835 
4 5248 2809 7233 5057 
4 4938 8605 8606 5909 
4 8175 4185 5815 4837 
4 8943 8945 7728 6609 
4 6393 4841 9156 5031 
4 7863 8550 7850 3743 
4 7865 7849 3746 8549 
4 7206 5275 2863 5084 
4 3686 6715 8525 5156 
4 5289 5098 2891 7192 
4 6022 3980 8073 3979 
4 2788 8563 5625 4373 
4 6715 3686 7781 4733 
4 6273 9093 6271 2707 
4 2946 5126 7164 5317 
4 5101 2896 5292 7189 
4 5122 2938 5313 7168 
4 5068 5259 7222 2830 
4 2969 5137 8595 5417 
4 7203 5278 2868 5087 
4 6721 5168 8513 3662 
4 7783 3678 4736 7620 
4 302 457 3785 301 
4 402 458 3787 403 
4 2723 6305 6303 9062 
4 298 3756 7033 454 
4 7038 406 3758 461 
4 2911 7182 5299 5108 
4 472 419 420 3765 
4 285 443 3763 284 
4 9348 5423 3162 8977 
4 406 7038 3758 3780 
4 298 3756 3778 7033 
4 6313 9054 6311 2727 
4 474 7873 421 422 
4 7875 441 282 283 
4 5626 8564 4374 2974 
4 7156 5134 5325 2963 
4 8967 8968 7752 6596 
4 8998 6367 6369 2755 
4 6563 6564 3499 8837 
4 418 471 3745 419 
4 286 285 444 3744 
4 7367 3732 5812 3386 
4 2683 9142 6225 6223 
4 6251 2697 6253 9114 
4 9106 6261 2701 6259 
4 6331 2737 6333 9034 
4 4715 3538 3722 7765 
4 6237 2689 9130 6235 
4 7626 6662 8839 8841 
4 4381 8583 5235 8099 
4 3154 9531 5616 3155 
4 9532 5425 8577 7851 
4 8521 9764 3678 7620 
4 7684 4766 3618 7804 
4 9785 4753 6725 3646 
4 4767 3618 6732 9804 
4 5430 2767 8586 2670 
4 6013 8975 4476 5039 
4 8089 4173 7371 8567 
4 7373 8090 4174 8568 
4 4821 7348 4617 3782 
4 4618 3784 4822 7350 
4 426 477 7144 478 
4 8868 6542 4434 3473 
4 278 437 438 7146 
4 7795 3646 4752 7656 
4 3195 3749 7572 6693 
4 5030 8604 6001 6002 
4 2929 7173 5308 5117 
4 5296 7185 5105 2905 
4 5245 2803 7236 5054 
4 7876 466 3784 7350 
4 449 7348 3782 7874 
4 3981 8089 8069 10028 
4 3982 8090 8070 10029 
4 577 397 5819 6701 
4 487 307 5820 6702 
4 7334 5140 5331 2983 
4 8791 4472 4473 3540 
4 7842 443 442 284 
4 5094 2883 5285 7196 
4 4813 5230 4621 7756 
4 6534 8887 3459 6638 
4 8094 9732 4176 8074 
4 7345 2973 6706 5042 
4 4622 7757 4814 5229 
4 3540 7762 4712 4803 
4 3449 4420 6525 8896 
4 4175 8093 9731 8072 
4 2787 5041 6705 7343 
4 5420 7339 2976 3163 
4 3735 4619 7571 3388 
4 3542 3738 7570 4620 
4 5035 4177 9735 3795 
4 2669 6013 8975 8587 
4 7755 3543 4619 7831 
4 6721 7790 8513 8512 
4 7873 7358 4831 4820 
4 7875 7361 4829 4819 
4 4181 4381 5235 8099 
4 5036 4178 9734 3796 
4 8525 6715 7781 8524 
4 3986 9542 6012 5430 
4 6673 6577 3519 8815 
4 6671 6573 3511 8823 
4 3465 8879 6643 6539 
4 6615 3421 8931 6508 
4 275 436 276 3755 
4 479 3757 428 429 
4 4186 8174 4838 5816 
4 4474 4805 5039 8102 
4 7239 5242 5051 5052 
4 7230 5251 5060 5061 
4 5073 5072 5263 7218 
4 5266 5076 5075 7215 
4 5256 7225 5066 5065 
4 2772 2785 4822 7870 
4 2783 2770 7868 4821 
4 3766 7865 3746 415 
4 7863 3764 289 3743 
4 8085 3989 8086 8597 
4 8088 8598 8087 4081 
4 5189 5190 7285 5380 
4 7299 5366 5175 5176 
4 8927 6510 6616 3425 
4 6645 6541 3466 8875 
4 3731 5811 7366 3292 
4 5134 5135 7156 5325 
4 3460 8883 6640 6536 
4 6672 6575 3515 8819 
4 3522 6579 8811 6675 
4 2790 3159 5419 7244 
4 3177 3764 7850 3743 
4 3180 3766 7849 3746 
4 8103 4180 4836 3794 
4 4179 8104 3793 4835 
4 7233 5248 5057 5058 
4 5140 7335 5139 5330 
4 6531 6635 8891 3457 
4 5126 5127 7164 5317 
4 5102 5101 5292 7189 
4 5069 5068 5259 7222 
4 5099 5098 5289 7192 
4 5123 5122 5313 7168 
4 7206 5275 5084 5085 
4 459 3171 403 404 
4 456 3169 301 300 
4 3489 6556 6658 8849 
4 6660 3496 6559 8845 
4 5278 7203 5088 5087 
4 7860 2776 453 7145 
4 462 7862 2778 7147 
4 6682 6587 3536 8799 
4 8963 3396 6489 6599 
4 6547 6649 3476 8865 
4 3405 8951 6604 6496 
4 8921 6620 6514 3432 
4 5911 4939 5910 8603 
4 4182 4382 5236 8100 
4 4172 3384 4171 9162 
4 4179 7375 8104 8068 
4 4180 7374 8103 8067 
4 5296 7185 5106 5105 
4 7173 5118 5308 5117 
4 7236 5245 5054 5055 
4 3419 8935 6614 6506 
4 8915 6517 6623 3436 
4 7348 8176 4821 4617 
4 8177 4618 4822 7350 
4 3442 8903 6631 6524 
4 3411 8945 6499 6609 
4 7182 5299 5108 5109 
4 6717 5160 8521 3678 
4 288 289 3743 446 
4 3746 415 469 416 
4 5235 8583 4845 6751 
4 8176 4811 4617 3181 
4 3184 8177 4618 4812 
4 3403 8957 6493 6603 
4 6680 6584 3528 8803 
4 6678 6582 3527 8807 
4 8911 6519 6626 3438 
4 8907 6522 6629 3441 
4 6670 6571 3509 8827 
4 6662 3498 6562 8841 
4 9545 9849 8065 3888 
4 3414 8941 6502 6611 
4 3980 8066 8073 9546 
4 7142 439 280 440 
4 3764 7841 3177 7850 
4 3766 3180 7849 7843 
4 4832 6206 7359 3184 
4 3181 6205 4830 7360 
4 5095 5094 5285 7196 
4 443 7842 3763 284 
4 7140 475 476 424 
4 4829 442 283 284 
4 473 420 421 4831 
4 6549 6652 3479 8861 
4 4175 5813 8093 6015 
4 8520 3676 7785 8519 
4 5814 8094 4176 6016 
4 6545 6648 3472 8869 
4 8470 3576 7821 8469 
4 7880 469 416 3772 
4 3769 288 446 7877 
4 6553 3488 6654 8855 
4 8897 3448 6634 6528 
4 467 414 468 7843 
4 7841 290 448 447 
4 6568 3507 6667 8831 
4 8692 5823 5822 4851 
4 5914 5913 8783 4942 
4 6206 7374 7359 7363 
4 7364 6205 7360 7375 
4 8695 8694 6701 4849 
4 8785 6702 8786 4940 
4 440 280 2769 281 
4 475 2771 423 424 
4 10 7150 433 272 
4 482 432 11 7148 
4 9161 3290 4080 4079 
4 11 402 458 7151 
4 10 457 7149 302 
4 5915 5914 8782 4943 
4 5824 5823 8691 4852 
4 407 462 2778 408 
4 2776 297 453 296 
4 5027 8698 5998 5999 
4 8697 5028 6000 5999 
4 3987 8081 8086 9159 
4 8082 9160 8088 3988 
4 5907 4936 8607 5908 
4 7318 5347 3015 5156 
4 3768 476 425 424 
4 279 439 280 3767 
4 7306 3039 5168 5359 
4 6564 6665 3499 8837 
4 8513 7790 3662 7638 
4 5916 5915 8781 4944 
4 5825 5824 8690 4853 
4 9764 6717 8521 3678 
4 5826 5825 8689 4854 
4 5917 5916 8780 4945 
4 5026 8699 5997 5998 
4 5827 5826 8688 4855 
4 5918 4946 5917 8779 
4 8687 5827 4856 5828 
4 5918 8778 5919 4947 
4 8777 5920 5919 4948 
4 4857 8686 5828 5829 
4 4858 5830 8685 5829 
4 8776 5921 5920 4949 
4 5921 8775 5922 4950 
4 5830 4859 8684 5831 
4 8774 5923 5922 4951 
4 8683 4860 5832 5831 
4 4861 8682 5832 5833 
4 5923 8773 5924 4952 
4 8681 4862 5834 5833 
4 5924 8772 5925 4953 
4 4863 5835 8680 5834 
4 5926 5925 8771 4954 
4 8770 5927 5926 4955 
4 5836 4864 5835 8679 
4 4865 5836 5837 8678 
4 5928 5927 8769 4956 
4 5838 4866 5837 8677 
4 5929 5928 8768 4957 
4 4868 5839 5840 8675 
4 4912 5884 8631 5883 
4 5851 5850 8664 4879 
4 5884 5885 4913 8630 
4 5839 4867 5838 8676 
4 5980 8716 5981 5009 
4 4900 5871 5872 8643 
4 4911 8632 5882 5883 
4 4902 5873 5874 8641 
4 4898 8645 5869 5870 
4 4905 8638 5876 5877 
4 4901 5872 5873 8642 
4 4904 5875 5876 8639 
4 4907 5879 8636 5878 
4 4909 5881 8634 5880 
4 5981 5010 8715 5982 
4 8646 4897 5869 5868 
4 5879 4908 8635 5880 
4 5877 4906 8637 5878 
4 8644 4899 5871 5870 
4 8647 4896 5868 5867 
4 8648 4895 5867 5866 
4 8640 4903 5875 5874 
4 8747 5949 4978 5950 
4 5881 4910 8633 5882 
4 8744 4981 5953 5952 
4 8745 4980 5952 5951 
4 8751 5945 4974 5946 
4 8746 4979 5951 5950 
4 8749 4976 5948 5947 
4 8649 4894 5866 5865 
4 4967 5938 5939 8758 
4 4971 5942 5943 8754 
4 5940 4968 5939 8757 
4 5942 4970 5941 8755 
4 5941 4969 5940 8756 
4 4983 8742 5954 5955 
4 4982 8743 5953 5954 
4 4975 8750 5946 5947 
4 4984 5956 8741 5955 
4 4973 5945 8752 5944 
4 4977 5949 8748 5948 
4 5840 8674 5841 4869 
4 5943 4972 8753 5944 
4 5957 5956 8740 4985 
4 5852 5851 8663 4880 
4 4915 8628 5886 5887 
4 4916 8627 5887 5888 
4 5890 8624 5891 4919 
4 8629 5885 4914 5886 
4 4918 5890 8625 5889 
4 8626 4917 5889 5888 
4 4960 5932 8765 5931 
4 5930 5929 8767 4958 
4 4966 5937 5938 8759 
4 5931 5930 8766 4959 
4 5932 4961 8764 5933 
4 4964 8761 5935 5936 
4 4963 8762 5934 5935 
4 8763 4962 5934 5933 
4 8760 4965 5937 5936 
4 5861 4889 5860 8654 
4 8727 5970 5969 4998 
4 8734 5963 5962 4991 
4 5862 5861 8653 4890 
4 5864 5863 8651 4892 
4 5860 5859 8655 4888 
4 5863 5862 8652 4891 
4 5858 8656 5859 4887 
4 5853 8661 5854 4882 
4 5855 8659 5856 4884 
4 4893 5864 5865 8650 
4 8657 5858 5857 4886 
4 8658 5857 5856 4885 
4 8660 5855 5854 4883 
4 5853 5852 8662 4881 
4 5961 5960 8736 4989 
4 5959 5958 8738 4987 
4 5962 5961 8735 4990 
4 5960 5959 8737 4988 
4 5966 5965 8731 4994 
4 5965 5964 8732 4993 
4 5967 5966 8730 4995 
4 5964 5963 8733 4992 
4 5968 8728 5969 4997 
4 5968 5967 8729 4996 
4 5958 5957 8739 4986 
4 8723 5974 5973 5002 
4 8726 5971 5970 4999 
4 8724 5973 5972 5001 
4 5842 5841 8673 4870 
4 5843 5842 8672 4871 
4 5845 5844 8670 4873 
4 5847 5846 8668 4875 
4 5844 5843 8671 4872 
4 5846 5845 8669 4874 
4 5847 8667 5848 4876 
4 5850 5849 8665 4878 
4 8666 5849 5848 4877 
4 5974 8722 5975 5003 
4 5008 5979 5980 8717 
4 5978 5977 8719 5006 
4 5979 5978 8718 5007 
4 5977 5976 8720 5005 
4 5971 8725 5972 5000 
4 5976 5975 8721 5004 
4 5011 5983 8714 5982 
4 8623 5892 5891 4920 
4 5983 5012 8713 5984 
4 5892 8622 5893 4921 
4 5013 8712 5984 5985 
4 5893 8621 5894 4922 
4 5014 8711 5985 5986 
4 4923 8620 5894 5895 
4 5015 8710 5986 5987 
4 5895 8619 5896 4924 
4 5016 5987 5988 8709 
4 8618 5897 5896 4925 
4 5989 5017 5988 8708 
4 5898 5897 8617 4926 
4 5990 5018 5989 8707 
4 5899 5898 8616 4927 
4 5019 5990 5991 8706 
4 5900 5899 8615 4928 
4 5020 5991 5992 8705 
4 5901 5900 8614 4929 
4 5993 5021 5992 8704 
4 5902 5901 8613 4930 
4 5993 5022 8703 5994 
4 8612 5902 4931 5903 
4 5023 8702 5994 5995 
4 8611 4932 5904 5903 
4 8701 5024 5996 5995 
4 8610 4933 5905 5904 
4 8700 5025 5997 5996 
4 4934 8609 5905 5906 
4 4935 5907 8608 5906 
4 8606 4937 5909 5908 
4 3792 4174 5624 8568 
4 4173 3791 8567 5623 
4 8521 7783 3678 3680 
4 445 286 444 7878 
4 7879 470 471 418 
4 3762 7143 3168 410 
4 3760 7141 3167 294 
4 7036 3754 7350 465 
4 7348 450 7035 3752 
4 3672 7786 8518 8517 
4 468 7865 415 469 
4 447 7863 289 446 
4 4178 3179 6594 9850 
4 4830 291 7874 448 
4 470 7880 469 416 
4 288 445 446 7877 
4 5160 8521 3678 3680 
4 5235 8583 6751 10031 
4 8509 8510 7791 3656 
4 7761 7570 4620 7576 
4 8505 9785 3646 7656 
4 8066 6392 8978 8554 
4 431 3786 432 482 
4 3788 273 433 272 
4 7793 8507 8508 3652 
4 4408 8920 6617 6619 
4 7143 465 3168 410 
4 7141 3167 294 450 
4 3580 9827 3578 4786 
4 3600 3598 4776 9814 
4 7684 3618 9804 8491 
4 3738 7761 4620 3728 
4 3293 5438 3188 7565 
4 5437 3199 7472 3187 
4 5176 8505 6725 3646 
4 7145 453 452 296 
4 408 462 7147 463 
4 4418 6630 6632 8900 
4 3618 5190 6732 8491 
4 8800 6681 6679 4468 
4 4619 7755 7831 7571 
4 8696 5029 6001 6000 
4 4177 6593 9851 3178 
4 2700 6259 6257 9108 
4 2726 6311 6309 9056 
4 7783 8521 3678 7620 
4 9144 2682 6221 6223 
4 2736 6331 6329 9036 
4 2688 9132 6235 6233 
4 411 3754 465 3168 
4 450 3167 293 3752 
4 4736 3678 3501 7620 
4 4401 6612 6613 8934 
4 4752 3646 3474 7656 
4 7814 8479 8480 3596 
4 5236 8788 4846 6752 
4 7684 4766 3450 3618 
4 8692 3992 5823 4851 
4 8783 5914 4942 4084 
4 6355 6353 2748 9012 
4 4938 5910 8605 5909 
4 3720 3722 5139 8542 
4 2706 9096 6271 6269 
4 2758 6375 6373 8992 
4 7145 452 3174 296 
4 7147 408 463 3176 
4 2722 6303 6301 9064 
4 7379 8557 8547 4373 
4 2696 6251 6249 9116 
4 4374 7378 8548 8558 
4 279 278 438 3173 
4 426 425 3175 477 
4 3719 7766 8368 8367 
4 5176 8505 3646 3648 
4 6365 6367 9000 2754 
4 3618 3620 5190 8491 
4 7790 6721 8513 3662 
4 6715 3686 8525 7781 
4 6486 8968 6596 3391 
4 3194 4180 6206 7374 
4 3193 6205 7375 4179 
4 8468 3572 7823 8467 
4 8691 5824 4852 3993 
4 8782 5915 4943 4085 
4 3686 3507 7781 4733 
4 7827 8461 8462 3560 
4 7790 4745 3662 3488 
4 4004 4863 5835 8680 
4 4096 5926 8771 4954 
4 4006 4865 5837 8678 
4 8769 5928 4956 4098 
4 5927 8770 4097 4955 
4 4005 4864 5836 8679 
4 8667 5848 4876 4017 
4 4111 4969 5941 8756 
4 4109 4967 5939 8758 
4 4110 4968 5940 8757 
4 8668 5847 4875 4016 
4 8669 5846 4874 4015 
4 4108 4966 5938 8759 
4 4965 4107 8760 5937 
4 8670 5845 4873 4014 
4 8671 5844 4872 4013 
4 4963 4105 8762 5935 
4 4964 4106 8761 5936 
4 8673 5842 4870 4011 
4 8672 5843 4871 4012 
4 4962 4104 8763 5934 
4 4961 4103 8764 5933 
4 8674 4010 5841 4869 
4 5932 4960 8765 4102 
4 4009 4868 5840 8675 
4 8766 5931 4959 4101 
4 4008 4867 5839 8676 
4 8767 5930 4958 4100 
4 8768 5929 4957 4099 
4 4007 4866 5838 8677 
4 8690 5825 4853 3994 
4 8781 5916 4944 4086 
4 4911 4052 8632 5883 
4 4899 4040 8644 5871 
4 4896 4037 8647 5868 
4 4149 5979 8718 5007 
4 8656 5859 4887 4028 
4 8659 5856 4884 4025 
4 8653 5862 4890 4031 
4 4983 4125 8742 5955 
4 8635 4908 4049 5880 
4 5853 8662 4022 4881 
4 4055 8629 4914 5886 
4 5010 4152 8715 5982 
4 5865 4893 8650 4034 
4 4131 5961 8736 4989 
4 4137 5967 8730 4995 
4 8724 4143 5973 5001 
4 4917 4058 8626 5889 
4 8727 4140 5970 4998 
4 8733 5964 4992 4134 
4 8739 5958 4986 4128 
4 4043 4902 5874 8641 
4 4046 8638 4905 5877 
4 8721 5976 5004 4146 
4 5949 4119 4977 8748 
4 4122 8745 4980 5952 
4 4116 8751 4974 5946 
4 8623 5892 4920 4061 
4 5013 4155 8712 5985 
4 4923 8620 5895 4064 
4 4158 5016 5988 8709 
4 4067 5898 8617 4926 
4 4161 5019 5991 8706 
4 8614 5901 4929 4070 
4 5022 4164 8703 5994 
4 4932 4073 8611 5904 
4 8775 5922 4950 4092 
4 4859 4000 8684 5831 
4 5919 8778 4089 4947 
4 3997 8687 4856 5828 
4 8772 5925 4953 4095 
4 4862 4003 8681 5834 
4 8688 5827 4855 3996 
4 5918 4946 8779 4088 
4 4861 4002 8682 5833 
4 8773 5924 4952 4094 
4 8776 4091 5921 4949 
4 5830 3999 4858 8685 
4 8780 5917 4945 4087 
4 8689 5826 4854 3995 
4 8716 5981 5009 4151 
4 4033 5864 8651 4892 
4 4045 4904 5876 8639 
4 4042 4901 5873 8642 
4 8624 5891 4919 4060 
4 8719 5978 5006 4148 
4 8725 4142 5972 5000 
4 8722 5975 5003 4145 
4 4130 5960 8737 4988 
4 4916 4057 8627 5888 
4 5969 8728 4139 4997 
4 5885 4054 4913 8630 
4 5879 4048 4907 8636 
4 8734 5963 4991 4133 
4 8731 5966 4994 4136 
4 8740 5957 4985 4127 
4 4895 4036 8648 5867 
4 4898 4039 8645 5870 
4 4910 4051 8633 5882 
4 5012 4154 8713 5984 
4 8621 5894 4922 4063 
4 5861 4889 8654 4030 
4 4982 4124 8743 5954 
4 5015 4157 8710 5987 
4 8618 5897 4925 4066 
4 8657 4027 5858 4886 
4 4979 4121 8746 5951 
4 4160 5018 5990 8707 
4 4069 5900 8615 4928 
4 8660 4024 5855 4883 
4 4976 4118 8749 5948 
4 4163 5021 5993 8704 
4 8612 4931 4072 5903 
4 8774 5923 4951 4093 
4 4860 4001 8683 5832 
4 8777 5920 4948 4090 
4 4857 3998 8686 5829 
4 8663 5852 4880 4021 
4 5945 4115 4973 8752 
4 5024 4166 8701 5996 
4 4894 4035 8649 5866 
4 5884 4053 4912 8631 
4 8723 4144 5974 5002 
4 8726 5971 4999 4141 
4 8720 5977 5005 4147 
4 5881 4050 4909 8634 
4 4041 4900 5872 8643 
4 4044 8640 4903 5875 
4 5980 5008 8717 4150 
4 4906 4047 8637 5878 
4 4897 4038 8646 5869 
4 8652 5863 4891 4032 
4 4915 4056 8628 5887 
4 8729 5968 4996 4138 
4 8732 5965 4993 4135 
4 8735 5962 4990 4132 
4 8738 5959 4987 4129 
4 5890 4059 4918 8625 
4 5011 5983 4153 8714 
4 4984 5956 4126 8741 
4 8622 5893 4921 4062 
4 4981 4123 8744 5953 
4 8655 5860 4888 4029 
4 4156 8711 5014 5986 
4 8619 5896 4924 4065 
4 8658 5857 4885 4026 
4 4120 8747 4978 5950 
4 4159 5017 5989 8708 
4 8616 5899 4927 4068 
4 4162 5020 5992 8705 
4 8661 5854 4882 4023 
4 4975 4117 8750 5947 
4 8613 5902 4930 4071 
4 5023 4165 8702 5995 
4 8664 5851 4879 4020 
4 4972 4114 8753 5944 
4 4113 4971 5943 8754 
4 8665 5850 4878 4019 
4 4933 4074 8610 5905 
4 5942 4112 4970 8755 
4 8666 4018 5849 4877 
4 3668 7788 8516 8515 
4 8522 7783 8521 3680 
4 5025 4167 8700 5997 
4 4934 4075 8609 5906 
4 4396 6605 6607 8944 
4 6622 4411 6621 8914 
4 8513 9774 3662 3664 
4 7573 3190 4377 3731 
4 4806 5040 4475 8101 
4 5026 4168 8699 5998 
4 4935 5907 4076 8608 
4 5027 4169 8698 5999 
4 8505 9785 6725 3646 
4 3618 6732 9804 8491 
4 3760 7141 294 451 
4 464 7143 3762 410 
4 4936 4077 8607 5908 
4 3681 7782 8387 8386 
4 8419 8420 7805 3615 
4 4378 7575 3192 3732 
4 3715 7768 8370 8369 
4 8421 8422 7807 3611 
4 6663 8834 6664 4451 
4 3691 7778 8382 8381 
4 8438 3577 8439 7820 
4 8792 4384 4383 3392 
4 6391 8977 8065 8553 
4 3677 7784 8389 8388 
4 3711 7770 8372 8371 
4 8423 3607 8424 7809 
4 6598 4387 6597 8962 
4 7372 4844 6690 4380 
4 291 449 7874 448 
4 413 466 7876 467 
4 3620 3618 7804 8491 
4 4843 7370 4379 6689 
4 8505 7795 3646 3648 
4 9535 8792 8269 4383 
4 465 7143 464 410 
4 7141 294 451 450 
4 414 3766 468 7843 
4 3764 290 7841 447 
4 297 298 3778 7033 
4 7038 406 407 3780 
4 3543 3735 4619 7831 
4 8393 3667 8394 7787 
4 4618 8177 4822 4812 
4 4821 8176 4811 4617 
4 7037 3779 427 428 
4 7034 3777 277 276 
4 6217 9150 6215 2679 
4 8415 7801 8414 3625 
4 3695 7776 8380 8379 
4 8401 3653 7792 8400 
4 8433 8434 7816 3587 
4 8376 3703 7773 8375 
4 8505 8506 7795 3648 
4 7797 3639 8407 8408 
4 8417 8418 7803 3619 
4 452 3174 296 295 
4 463 408 409 3176 
4 8492 3620 7804 8491 
4 2733 6325 6323 9042 
4 7143 2772 3762 3168 
4 7141 3760 3167 2770 
4 8444 8445 7824 3565 
4 8404 3647 7794 8403 
4 474 7873 473 421 
4 441 7875 442 283 
4 9102 6263 6265 2703 
4 6289 9078 6287 2715 
4 2685 9138 6229 6227 
4 8436 8437 7818 3581 
4 3685 8384 7780 8385 
4 8450 3553 8451 7828 
4 8429 8430 7813 3595 
4 7822 8441 8442 3571 
4 8427 7811 8426 3601 
4 8396 3661 8397 7789 
4 8447 8448 7826 3559 
4 2741 9026 6341 6339 
4 6241 2691 9126 6239 
4 3981 4173 4189 8089 
4 4174 8090 4190 3982 
4 455 300 299 2780 
4 405 404 2782 460 
4 9050 6315 6317 2729 
4 3618 7684 7804 8491 
4 7795 8505 3646 7656 
4 5819 8695 6701 4849 
4 6702 5820 8786 4940 
4 3784 7036 412 411 
4 292 7035 293 3782 
4 3784 7036 411 3754 
4 293 7035 3752 3782 
4 465 411 3168 410 
4 3167 294 450 293 
4 7340 2973 2785 5620 
4 5619 2783 2787 7245 
4 441 7032 3781 282 
4 422 474 3783 7039 
4 8547 5619 4811 4373 
4 4812 4374 8548 5620 
4 8564 4374 2974 8558 
4 8563 2788 8557 4373 
4 3760 294 295 451 
4 3762 464 410 409 
4 5431 5619 8557 4373 
4 5432 4374 5620 8558 
4 7036 466 3784 412 
4 292 449 7035 3782 
4 6684 6590 3538 8795 
4 430 431 481 3170 
4 274 3172 273 434 
4 8784 5913 5912 4941 
4 4850 5822 8693 5821 
4 3722 7765 8543 8542 
4 8557 5619 8547 4373 
4 4374 8548 5620 8558 
4 4619 3193 7571 3388 
4 7036 411 3754 465 
4 7035 450 293 3752 
4 3194 3542 7570 4620 
4 7037 3779 2777 427 
4 3777 7034 277 2775 
4 7873 473 421 4831 
4 442 7875 4829 283 
4 5236 4182 8100 6004 
4 480 429 430 2781 
4 435 275 274 2779 
4 4181 5235 6003 8099 
4 3766 414 468 415 
4 3764 290 447 289 
4 4379 7573 4377 3731 
4 7575 4378 4380 3732 
4 7032 281 3751 282 
4 422 3753 423 7039 
4 440 7349 441 7032 
4 475 474 7039 7351 
4 479 7859 478 7037 
4 437 7861 7034 436 
4 6701 8694 5821 4849 
4 6702 8785 5912 4940 
4 422 3783 3753 7039 
4 7032 3751 3781 282 
4 466 7036 7350 465 
4 450 449 7348 7035 
4 7038 461 7862 462 
4 7033 7860 453 454 
4 9443 5416 9531 3154 
4 9531 5416 9443 7249 
4 4780 8477 3592 3590 
4 3592 8477 4780 9820 
4 9843 3554 7746 8459 
4 7746 3554 9843 4798 
4 9835 3566 7734 8465 
4 7734 3566 9835 4792 
4 7264 5211 5210 8141 
4 7264 5210 5211 5401 
4 3745 9850 8551 6594 
4 8551 9850 3745 7866 
4 3146 7253 3147 9446 
4 3147 7253 3146 5412 
4 5201 7274 5200 5391 
4 5201 5200 7274 8145 
4 7665 6641 8880 7661 
4 7665 8880 6641 6639 
4 8503 4754 3644 9787 
4 3644 4754 8503 3642 
4 4768 8489 3616 3614 
4 3616 8489 4768 9805 
4 3134 7259 3135 9452 
4 3134 3135 7259 5406 
4 9353 6025 2793 10026 
4 2793 6025 9353 5617 
4 3104 7274 3105 9467 
4 3104 3105 7274 5391 
4 7027 9845 3550 3552 
4 7027 3550 9845 9847 
4 485 5235 8099 6003 
4 3967 9969 5605 6191 
4 3967 5605 9969 7986 
4 3833 9894 5474 6060 
4 5474 9894 3833 7938 
4 3808 9964 5449 6035 
4 5449 9964 3808 7963 
4 9905 3847 5488 7924 
4 9905 5488 3847 6074 
4 9888 3866 5507 7905 
4 9888 5507 3866 6093 
4 8986 2761 7045 7046 
4 8986 7045 2761 6479 
4 9978 3835 5476 7936 
4 9978 5476 3835 6062 
4 3869 9883 5510 6096 
4 3869 5510 9883 7902 
4 8257 6230 8258 9134 
4 8257 8258 6230 4497 
4 7627 6557 8844 8842 
4 7627 8844 6557 3492 
4 3882 9916 3883 6110 
4 3882 3883 9916 7889 
4 3868 9948 5509 6095 
4 3868 5509 9948 7903 
4 7880 2768 417 7357 
4 417 2768 7880 3772 
4 7356 3769 7139 7877 
4 7356 7139 3769 2672 
4 5716 7888 7889 9556 
4 5716 7889 7888 3883 
4 4665 7671 6637 4664 
4 6637 7671 4665 7669 
4 8209 4443 4444 8848 
4 4444 4443 8209 4573 
4 10001 3855 5496 7916 
4 10001 5496 3855 6082 
4 7357 3771 7134 2768 
4 7134 3771 7357 7879 
4 7356 3770 7139 2672 
4 7356 7139 3770 7878 
4 9534 3540 7760 8791 
4 7760 3540 9534 3539 
4 2694 9119 7113 6412 
4 2694 7113 9119 7111 
4 6464 7059 6465 2746 
4 6464 6465 7059 9015 
4 7888 5717 3884 9555 
4 3884 5717 7888 3883 
4 3878 9945 5519 6105 
4 3878 5519 9945 7893 
4 3879 9872 5520 6106 
4 3879 5520 9872 7892 
4 9031 4576 6334 8206 
4 6334 4576 9031 6332 
4 5202 8480 7273 8479 
4 5202 7273 8480 5201 
4 10016 3859 5500 7912 
4 5500 3859 10016 6086 
4 10004 3860 5501 7911 
4 5501 3860 10004 6087 
4 3870 9959 5511 6097 
4 3870 5511 9959 7901 
4 9071 4546 6294 8226 
4 9071 6294 4546 6292 
4 3877 10005 5518 6104 
4 3877 5518 10005 7894 
4 9967 3802 5443 7969 
4 9967 5443 3802 6029 
4 3818 10012 5459 6045 
4 3818 5459 10012 7953 
4 9500 5358 7306 3039 
4 9500 7306 5358 7307 
4 9906 3854 5495 7917 
4 5495 3854 9906 6081 
4 10018 3858 5499 7913 
4 10018 5499 3858 6085 
4 10008 3852 5493 7919 
4 10008 5493 3852 6079 
4 9975 3842 5483 7929 
4 5483 3842 9975 6069 
4 3484 8859 3482 6550 
4 3482 8859 3484 7640 
4 8073 5424 3980 6022 
4 8073 3980 5424 8066 
4 7972 5632 7973 3799 
4 7972 7973 5632 9640 
4 8835 3504 3502 7616 
4 8835 3502 3504 6565 
4 6494 7736 8953 3407 
4 6494 8953 7736 8955 
4 9968 3799 5440 7972 
4 9968 5440 3799 6026 
4 3838 10021 5479 6065 
4 5479 10021 3838 7933 
4 6588 8182 4471 8794 
4 6588 4471 8182 4613 
4 10013 3851 5492 7920 
4 5492 3851 10013 6078 
4 9017 4588 6348 8199 
4 9017 6348 4588 6346 
4 7977 3975 5806 7978 
4 7977 5806 3975 3976 
4 3876 10011 5517 6103 
4 3876 5517 10011 7895 
4 9972 3853 5494 7918 
4 5494 3853 9972 6080 
4 9086 4537 6280 8233 
4 9086 6280 4537 6278 
4 10014 3844 5485 7927 
4 5485 3844 10014 6071 
4 9977 3856 5497 7915 
4 9977 5497 3856 6083 
4 7153 6203 3161 6021 
4 7153 3161 6203 7342 
4 7676 6529 8893 8895 
4 8893 6529 7676 3452 
4 3891 9728 5722 8062 
4 3891 5722 9728 5721 
4 8162 5351 7313 7314 
4 8162 7313 5351 5161 
4 3873 10009 5514 6100 
4 3873 5514 10009 7898 
4 7700 6515 8917 8919 
4 7700 8917 6515 3433 
4 8939 3415 3417 7720 
4 3417 3415 8939 6503 
4 8219 6306 8220 9058 
4 8219 8220 6306 4558 
4 3841 10010 5482 6068 
4 5482 10010 3841 7930 
4 9911 3843 5484 7928 
4 5484 3843 9911 6070 
4 3875 9909 5516 6102 
4 3875 5516 9909 7896 
4 3874 9973 5515 6101 
4 3874 5515 9973 7897 
4 8601 398 5819 578 
4 8601 5819 398 6806 
4 3882 9980 5523 6109 
4 3882 5523 9980 7889 
4 8602 306 5820 486 
4 8602 5820 306 6807 
4 9913 3857 5498 7914 
4 5498 3857 9913 6084 
4 7871 7346 2776 4839 
4 7871 2776 7346 7860 
4 3778 2776 7346 4839 
4 3778 7346 2776 7860 
4 4840 7862 3758 7347 
4 4840 3758 7862 3780 
4 8240 4414 8239 8908 
4 8240 8239 4414 4526 
4 9152 4484 6214 8266 
4 9152 6214 4484 6212 
4 3871 9908 5512 6098 
4 3871 5512 9908 7900 
4 9903 3800 5441 7971 
4 9903 5441 3800 6027 
4 3872 10015 5513 6099 
4 3872 5513 10015 7899 
4 3880 9937 5521 6107 
4 3880 5521 9937 7891 
4 9153 6209 4481 9155 
4 4481 6209 9153 6210 
4 4481 8268 9153 9155 
4 8967 3393 3395 7748 
4 3395 3393 8967 6487 
4 5238 8544 7337 5048 
4 5238 7337 8544 7338 
4 7277 3098 3099 5388 
4 7277 3099 3098 9470 
4 8392 5111 7180 5110 
4 8392 7180 5111 8391 
4 3839 10020 5480 6066 
4 5480 10020 3839 7932 
4 6012 7136 5430 9542 
4 6012 5430 7136 2766 
4 3840 10017 5481 6067 
4 5481 10017 3840 7931 
4 8250 6244 8251 9119 
4 8250 8251 6244 4510 
4 5615 10027 3977 9852 
4 5615 3977 10027 6201 
4 8966 6753 8268 4385 
4 8268 6753 8966 8361 
4 7304 3044 5171 7303 
4 7304 5171 3044 5361 
4 3020 7316 5159 5349 
4 5159 7316 3020 7315 
4 6018 8566 8554 3790 
4 8554 8566 6018 8600 
4 5807 7977 6989 3976 
4 5807 6989 7977 9642 
4 3881 9884 5522 6108 
4 3881 5522 9884 7890 
4 5331 7333 9527 2984 
4 5331 9527 7333 7334 
4 3118 7267 3119 9460 
4 3119 7267 3118 5398 
4 8344 6243 8342 9122 
4 5806 7977 5807 3976 
4 5806 5807 7977 9643 
4 9532 304 485 6003 
4 485 304 9532 484 
4 6347 8290 8292 9018 
4 7605 3693 4697 9755 
4 4697 3693 7605 4696 
4 7382 5809 9730 9733 
4 7382 9730 5809 6984 
4 7733 3567 4634 9834 
4 7733 4634 3567 4633 
4 7973 3797 10026 3798 
4 7973 10026 3797 7974 
4 6025 10026 3797 3798 
4 6025 3797 10026 7974 
4 6383 7044 8984 2762 
4 8984 7044 6383 8982 
4 7870 3754 3168 7143 
4 7870 3168 3754 4822 
4 7868 3752 3167 7141 
4 3167 3752 7868 4821 
4 7267 5397 9461 7268 
4 7267 9461 5397 3117 
4 8072 3797 9731 4175 
4 8072 9731 3797 7974 
4 7739 3561 4631 9838 
4 7739 4631 3561 4630 
4 8074 3889 9732 4176 
4 8074 9732 3889 8064 
4 9773 4681 8396 7637 
4 9773 8396 4681 3663 
4 7685 3613 4657 9806 
4 7685 4657 3613 4656 
4 7311 3030 5164 7310 
4 5164 3030 7311 5354 
4 7719 3579 4640 9826 
4 7719 4640 3579 4639 
4 3069 7292 5183 5373 
4 5183 7292 3069 7291 
4 5333 7331 9525 2989 
4 5333 9525 7331 7332 
4 9743 4706 8371 7585 
4 9743 8371 4706 3713 
4 7296 3061 5179 7295 
4 5179 3061 7296 5369 
4 3089 7282 5193 5383 
4 3089 5193 7282 7281 
4 8602 6008 5818 6807 
4 8602 5818 6008 8098 
4 6806 8097 579 8601 
4 6806 579 8097 6007 
4 7321 5343 9515 7322 
4 9515 5343 7321 3009 
4 6343 8294 8291 4581 
4 6343 8291 8294 9022 
4 5337 7327 9521 2997 
4 9521 7327 5337 7328 
4 7323 5341 9517 7324 
4 9517 5341 7323 3005 
4 5339 7325 9519 3001 
4 9519 7325 5339 7326 
4 7270 3113 5205 7269 
4 5205 3113 7270 5395 
4 3051 7301 5174 5364 
4 5174 7301 3051 7300 
4 3889 6114 10024 3890 
4 10024 6114 3889 8064 
4 10024 8063 3889 3890 
4 3889 8063 10024 8064 
4 3786 8571 3170 4827 
4 3786 3170 8571 8559 
4 6319 8305 8303 4563 
4 6319 8303 8305 9046 
4 4802 3546 8455 3548 
4 8455 8456 4802 3548 
4 4802 8456 8455 7830 
4 7574 6690 4380 7372 
4 4380 6690 7574 3196 
4 4380 7575 7574 7372 
4 7574 7575 4380 3196 
4 7302 5362 9496 7303 
4 9496 5362 7302 3047 
4 9161 4939 4080 8083 
4 4080 4939 9161 4079 
4 7701 4649 3434 4650 
4 7701 3434 4649 7699 
4 7255 5409 9449 7256 
4 7255 9449 5409 3141 
4 7150 8 272 10 
4 272 8 7150 6993 
4 5379 7285 9479 3080 
4 5379 9479 7285 7286 
4 9 7148 432 6992 
4 9 432 7148 11 
4 3609 7689 7691 4654 
4 7691 7689 3609 9808 
4 7691 4655 3609 4654 
4 3609 4655 7691 9808 
4 9753 4698 8379 7603 
4 9753 8379 4698 3697 
4 9763 4689 8388 7619 
4 9763 8388 4689 3679 
4 4644 9821 8433 3589 
4 4644 8433 9821 7711 
4 3890 9921 5528 8063 
4 5528 9921 3890 6115 
4 2971 7153 5423 9348 
4 5423 7153 2971 2970 
4 8601 5819 4847 8695 
4 4847 5819 8601 6806 
4 5820 8602 4848 6807 
4 4848 8602 5820 8786 
4 7731 4634 3409 4635 
4 7731 3409 4634 7729 
4 6335 8297 8295 4577 
4 6335 8295 8297 9030 
4 7679 3621 4661 9801 
4 7679 4661 3621 4660 
4 9782 4674 8403 7651 
4 9782 8403 4674 3649 
4 7380 4377 5627 9545 
4 7380 5627 4377 3190 
4 7673 3627 4664 9797 
4 7673 4664 3627 4663 
4 7613 3687 4694 9758 
4 4694 3687 7613 4693 
4 9531 6202 7975 9852 
4 7975 6202 9531 5616 
4 9549 3191 3385 7474 
4 3385 3191 9549 5628 
4 7573 7572 4379 7370 
4 7573 4379 7572 3195 
4 6689 4379 7572 7370 
4 6689 7572 4379 3195 
4 8386 5115 3681 5116 
4 8386 3681 5115 8387 
4 8419 5082 3615 5083 
4 3615 5082 8419 8420 
4 9779 4677 8400 7645 
4 9779 8400 4677 3655 
4 8369 5132 3715 5133 
4 8369 3715 5132 8370 
4 9748 4702 8375 7595 
4 9748 8375 4702 3705 
4 5080 8421 3611 8422 
4 5080 3611 8421 5081 
4 8456 7752 6749 9847 
4 8456 6749 7752 4801 
4 3550 6749 7752 9847 
4 3550 7752 6749 4801 
4 7659 3641 4671 9788 
4 4671 3641 7659 4670 
4 2674 7131 6013 7137 
4 2674 6013 7131 2675 
4 10025 3883 6110 5524 
4 3788 8572 3172 4828 
4 3172 8572 3788 8561 
4 7681 3617 4659 9803 
4 7681 4659 3617 4658 
4 6004 579 400 9533 
4 400 579 6004 399 
4 9741 4708 8369 7581 
4 9741 8369 4708 3717 
4 10031 306 5911 6751 
4 5911 306 10031 486 
4 3669 7787 7631 4684 
4 7631 7787 3669 8393 
4 3669 9769 7631 8393 
4 7335 2983 5140 7334 
4 5140 2983 7335 5330 
4 7717 3583 4642 9824 
4 7717 4642 3583 4641 
4 7703 3597 4649 9815 
4 7703 4649 3597 4648 
4 10025 6110 9357 5524 
4 10025 9357 6110 9916 
4 2962 9357 6110 5524 
4 2962 6110 9357 9916 
4 4837 9543 5815 8175 
4 5815 9543 4837 6011 
4 7615 4692 6666 7617 
4 6666 4692 7615 4691 
4 7208 2861 5083 7207 
4 5083 2861 7208 5273 
4 6784 8847 8297 6558 
4 8297 8847 6784 8298 
4 5306 7174 9375 2927 
4 5306 9375 7174 7175 
4 7158 2961 5133 7157 
4 5133 2961 7158 5323 
4 7315 3023 5160 7314 
4 7315 5160 3023 5350 
4 9157 4478 8980 8270 
4 9157 8980 4478 6020 
4 8360 4837 4185 8175 
4 4185 4837 8360 4477 
4 4713 7579 9738 4714 
4 4713 9738 7579 7577 
4 7745 3555 4628 9842 
4 7745 4628 3555 4627 
4 576 6701 5821 396 
4 5821 6701 576 8694 
4 9156 6211 7130 6393 
4 7130 6211 9156 9154 
4 9760 4691 8386 7615 
4 9760 8386 4691 3683 
4 9074 2716 2717 7090 
4 2717 2716 9074 6291 
4 5912 488 6702 308 
4 5912 6702 488 8785 
4 307 6702 488 308 
4 7046 6381 8985 8984 
4 7046 8985 6381 2761 
4 3883 10025 3884 6111 
4 3883 3884 10025 7888 
4 7887 3884 10025 6111 
4 7887 10025 3884 7888 
4 2937 7170 5121 5311 
4 2937 5121 7170 7169 
4 8317 6295 8316 9070 
4 5254 7226 9427 2823 
4 5254 9427 7226 7227 
4 9009 2748 2749 7057 
4 2749 2748 9009 6355 
4 8319 6291 8318 9074 
4 8319 8318 6291 4542 
4 5304 7176 9377 2923 
4 5304 9377 7176 7177 
4 7210 2857 5081 7209 
4 5081 2857 7210 5271 
4 2853 7212 5079 5269 
4 5079 7212 2853 7211 
4 7160 2957 5131 7159 
4 5131 2957 7160 5321 
4 9122 2692 2693 7115 
4 9122 2693 2692 6243 
4 6375 7047 8992 2758 
4 8992 7047 6375 8989 
4 6271 7099 9096 2706 
4 6271 9096 7099 9093 
4 9070 2718 2719 7088 
4 2719 2718 9070 6295 
4 5353 7311 9505 3029 
4 9505 7311 5353 7312 
4 7564 7565 5438 3294 
4 5438 7565 7564 9732 
4 5438 5630 7564 3294 
4 7564 5630 5438 9732 
4 5629 7471 5437 3200 
4 5629 5437 7471 9731 
4 7472 5437 7471 3200 
4 7472 7471 5437 9731 
4 8352 6225 6227 9139 
4 8352 6227 6225 4496 
4 3128 7262 5213 5403 
4 3128 5213 7262 7261 
4 7301 5363 9495 7302 
4 7301 9495 5363 3048 
4 9018 2744 2745 7063 
4 2745 2744 9018 6347 
4 5155 6714 8164 3688 
4 5155 8164 6714 8526 
4 9759 8164 6714 3688 
4 9759 6714 8164 8526 
4 4478 8789 8271 6592 
4 4478 8271 8789 8270 
4 4521 9103 8333 6261 
4 4521 8333 9103 8334 
4 4628 7745 6600 4627 
4 6600 7745 4628 7741 
4 9022 2742 2743 7065 
4 2743 2742 9022 6343 
4 5239 7243 5047 5237 
4 5047 7243 5239 7242 
4 4636 7723 9830 4637 
4 9830 7723 4636 7727 
4 9830 3573 4636 4637 
4 3170 8571 3739 4827 
4 3170 3739 8571 7837 
4 7309 5355 9503 7310 
4 9503 5355 7309 3032 
4 9079 4539 8321 8322 
4 8321 4539 9079 6285 
4 9046 2730 2731 7076 
4 2731 2730 9046 6319 
4 6379 7045 8988 2760 
4 8988 7045 6379 8985 
4 6333 7069 9034 2737 
4 9034 7069 6333 9032 
4 9151 2677 2678 7128 
4 2678 2677 9151 6213 
4 7056 6359 9008 9006 
4 7056 9008 6359 2750 
4 8361 4477 6591 8360 
4 6591 4477 8361 6753 
4 6335 7068 9032 2738 
4 6335 9032 7068 9030 
4 6275 7097 9092 2708 
4 9092 7097 6275 9089 
4 4651 7693 9811 4652 
4 9811 7693 4651 7697 
4 9811 3603 4651 4652 
4 9072 2717 2718 7089 
4 2718 2717 9072 6293 
4 2670 7136 5430 2766 
4 2670 5430 7136 8586 
4 7058 6357 9009 9008 
4 7058 9009 6357 2749 
4 6279 7095 9088 2710 
4 9088 7095 6279 9085 
4 5365 7299 9493 3052 
4 9493 7299 5365 7300 
4 6018 8554 8978 6392 
4 8978 8554 6018 8600 
4 6377 7048 8989 2759 
4 8989 7048 6377 8988 
4 6341 7064 9026 2741 
4 6341 9026 7064 9023 
4 4170 9253 3383 4370 
4 3383 9253 4170 9252 
4 9123 2691 2692 7114 
4 9123 2692 2691 6241 
4 6305 7083 9062 2723 
4 9062 7083 6305 9060 
4 7096 6281 9085 9084 
4 9085 6281 7096 2711 
4 2707 9092 2708 6273 
4 2707 2708 9092 7100 
4 6797 8795 8270 6590 
4 6797 8270 8795 8272 
4 2755 8996 2756 6369 
4 2755 2756 8996 7051 
4 9082 2712 2713 7094 
4 9082 2713 2712 6283 
4 7055 6361 9006 9004 
4 7055 9006 6361 2751 
4 6253 7109 9114 2697 
4 9114 7109 6253 9112 
4 3172 8572 3740 4828 
4 3740 8572 3172 7839 
4 6277 7098 9089 2709 
4 9089 7098 6277 9088 
4 9068 2719 2720 7087 
4 2720 2719 9068 6297 
4 9076 2715 2716 7091 
4 2716 2715 9076 6289 
4 9048 2729 2730 7077 
4 2730 2729 9048 6317 
4 3386 7473 9342 7567 
4 3386 9342 7473 3385 
4 9164 4078 3289 9163 
4 9164 3289 4078 4279 
4 9108 2699 9109 6257 
4 9108 9109 2699 7108 
4 579 6806 398 399 
4 398 6806 579 8601 
4 2681 9144 9145 7126 
4 2681 9145 9144 6221 
4 9019 2743 2744 7062 
4 2744 2743 9019 6345 
4 303 7148 7851 483 
4 303 7851 7148 6992 
4 6993 581 8 7150 
4 8 581 6993 401 
4 7082 6309 2726 2725 
4 7082 2726 6309 9056 
4 9145 2680 2681 7125 
4 2681 2680 9145 6219 
4 6325 7073 9042 2733 
4 9042 7073 6325 9040 
4 6327 7071 9040 2734 
4 9040 7071 6327 9037 
4 9120 2693 2694 7113 
4 9120 2694 2693 6245 
4 9097 2704 2705 7101 
4 2705 2704 9097 6267 
4 9036 2735 9037 6329 
4 9036 9037 2735 7072 
4 9100 2703 2704 7103 
4 2704 2703 9100 6265 
4 6229 7121 9138 2685 
4 6229 9138 7121 9136 
4 6231 7119 9136 2686 
4 6231 9136 7119 9133 
4 7061 6349 9018 9016 
4 7061 9018 6349 2745 
4 2753 9000 9001 7054 
4 2753 9001 9000 6365 
4 9148 2679 2680 7127 
4 2680 2679 9148 6217 
4 9117 2694 2695 7111 
4 9117 2695 2694 6247 
4 2757 8992 8993 7050 
4 8993 8992 2757 6373 
4 4814 8179 4823 4616 
4 4814 4823 8179 8570 
4 6345 8292 6347 4585 
4 6345 6347 8292 9019 
4 7059 6351 9016 9013 
4 7059 9016 6351 2746 
4 8317 6293 6295 9072 
4 8317 6295 6293 4547 
4 7086 6301 2722 2721 
4 7086 2722 6301 9064 
4 7060 6353 2748 2747 
4 7060 2748 6353 9012 
4 4813 8178 4824 4615 
4 4824 8178 4813 8569 
4 2695 9116 9117 7112 
4 9117 9116 2695 6249 
4 2756 8993 2757 6371 
4 2756 2757 8993 7049 
4 6307 7081 9060 2724 
4 9060 7081 6307 9057 
4 6299 7085 9068 2720 
4 9068 7085 6299 9065 
4 2752 9001 2753 6363 
4 2752 2753 9001 7053 
4 6255 7107 9112 2698 
4 9112 7107 6255 9109 
4 7574 3732 5812 7367 
4 5812 3732 7574 3196 
4 429 7855 479 3757 
4 479 7855 429 480 
4 435 3755 2779 7857 
4 2779 3755 435 275 
4 6111 9356 7887 5525 
4 7887 9356 6111 10025 
4 6225 7122 9142 2683 
4 6225 9142 7122 9139 
4 9051 2727 2728 7078 
4 2728 2727 9051 6313 
4 9103 2701 2702 7104 
4 2702 2701 9103 6261 
4 9127 2689 2690 7116 
4 9127 2690 2689 6237 
4 8602 305 6008 6807 
4 8602 6008 305 485 
4 7092 6285 9082 9079 
4 9082 6285 7092 2713 
4 2980 7336 5139 5329 
4 2980 5139 7336 7335 
4 413 7843 7876 4832 
4 7876 7843 413 467 
4 448 4830 290 7841 
4 448 290 4830 291 
4 9027 2739 2740 7066 
4 2740 2739 9027 6337 
4 3613 8420 4657 9806 
4 3613 4657 8420 3615 
4 9763 3681 8115 3679 
4 9763 8115 3681 8387 
4 5115 8115 3681 3679 
4 5115 3681 8115 8387 
4 8370 3713 4707 3715 
4 8370 4707 3713 9743 
4 9043 2731 2732 7074 
4 2732 2731 9043 6321 
4 4839 7371 6804 6387 
4 6804 7371 4839 7346 
4 4840 7373 6805 6388 
4 4840 6805 7373 7347 
4 3611 5080 8125 3609 
4 8125 5080 3611 8422 
4 8125 9808 3611 3609 
4 3611 9808 8125 8422 
4 8271 4478 9157 8270 
4 9157 4478 8271 4480 
4 3579 8437 4640 9826 
4 3579 4640 8437 3581 
4 3617 8418 4659 9803 
4 3617 4659 8418 3619 
4 9760 3685 8114 3683 
4 9760 8114 3685 8385 
4 5117 8114 3685 3683 
4 3693 8380 4697 9755 
4 4697 8380 3693 3695 
4 8597 3200 4191 6986 
4 4191 3200 8597 7471 
4 7564 7565 3293 8598 
4 3293 7565 7564 3294 
4 3293 6987 7564 8598 
4 7564 6987 3293 3294 
4 8368 3717 4709 3719 
4 8368 4709 3717 9741 
4 6317 8305 6319 4563 
4 6317 6319 8305 9048 
4 8344 6241 6243 9123 
4 8344 6243 6241 4506 
4 6693 7366 3195 5811 
4 6693 3195 7366 7572 
4 8344 6762 6243 4506 
4 8344 6243 6762 8342 
4 7781 4732 8525 7614 
4 7781 8525 4732 3686 
4 9759 8525 4732 7614 
4 8292 6788 6347 4585 
4 6347 6788 8292 8290 
4 3195 7366 7573 3731 
4 7573 7366 3195 7572 
4 4812 7870 8177 4822 
4 8177 7870 4812 8548 
4 7868 4811 8176 8547 
4 8176 4811 7868 4821 
4 6341 8294 6343 4581 
4 6341 6343 8294 9023 
4 8273 6381 6383 8984 
4 6383 6381 8273 4611 
4 6383 8982 8273 8984 
4 473 3765 472 420 
4 473 472 3765 7844 
4 284 7842 4829 442 
4 284 4829 7842 3763 
4 4536 8325 6527 6771 
4 6527 8325 4536 8323 
4 7638 3662 3488 7790 
4 7638 3488 3662 4744 
4 8323 6281 6283 9084 
4 8323 6283 6281 4536 
4 6337 8296 6339 4579 
4 6337 6339 8296 9027 
4 4504 9127 8345 6237 
4 4504 8345 9127 8346 
4 8324 6277 6279 9088 
4 8324 6279 6277 4534 
4 8358 6755 6215 4485 
4 8358 6215 6755 8356 
4 8319 6289 6291 9076 
4 8319 6291 6289 4542 
4 8320 4539 6530 6773 
4 8320 6530 4539 8322 
4 6313 8308 6315 4560 
4 6313 6315 8308 9051 
4 8275 4611 6587 8273 
4 6587 4611 8275 6796 
4 4521 8332 6516 8334 
4 4521 6516 8332 6767 
4 4547 8318 6534 6774 
4 6534 8318 4547 8317 
4 8350 4496 6495 6758 
4 8350 6495 4496 8352 
4 4567 8302 6552 8304 
4 6552 8302 4567 6782 
4 6369 8278 6371 4603 
4 6369 6371 8278 8996 
4 7345 6706 8558 8564 
4 2974 6706 8558 5432 
4 2974 8558 6706 8564 
4 3737 7761 7578 3738 
4 7578 7761 3737 9540 
4 4595 8287 6573 6790 
4 4595 6573 8287 8285 
4 8287 4592 6572 6790 
4 6572 4592 8287 8286 
4 8282 6361 6363 9004 
4 6363 6361 8282 4598 
4 6297 8314 6299 4549 
4 6297 6299 8314 9068 
4 4609 8275 6586 8274 
4 4609 6586 8275 6796 
4 6784 8297 9032 4577 
4 9032 8297 6784 8298 
4 9032 6333 6784 4577 
4 6784 6333 9032 8298 
4 8301 8851 6555 6783 
4 6555 8851 8301 8299 
4 6555 4572 8301 6783 
4 8301 4572 6555 8299 
4 7343 6705 8557 8563 
4 2788 6705 8557 5431 
4 2788 8557 6705 8563 
4 6245 8340 6247 4511 
4 6247 8340 6245 9120 
4 8285 6357 6359 9008 
4 6359 6357 8285 4595 
4 6359 9006 8285 9008 
4 7870 5620 4812 8548 
4 7870 4812 5620 2785 
4 2783 8547 7245 5619 
4 7245 8547 2783 7868 
4 6349 8288 6351 4587 
4 6349 6351 8288 9016 
4 4517 8338 6510 6764 
4 4517 6510 8338 8336 
4 8309 6778 6309 8311 
4 6309 6778 8309 4557 
4 8306 4563 6548 8305 
4 6548 4563 8306 6780 
4 6548 8863 8306 8305 
4 8306 8863 6548 6780 
4 8349 8947 6498 6759 
4 6498 8947 8349 8347 
4 6498 4501 8349 6759 
4 8349 4501 6498 8347 
4 4534 8327 6524 6770 
4 6524 8327 4534 8324 
4 8316 4549 6536 8314 
4 8316 6536 4549 6775 
4 4519 8337 6512 6765 
4 4519 6512 8337 8335 
4 8923 6512 8337 6765 
4 8923 8337 6512 8335 
4 6756 8353 6221 4493 
4 6221 8353 6756 8355 
4 4603 8280 6579 6793 
4 6579 8280 4603 8278 
4 8282 6791 6361 8284 
4 6361 6791 8282 4598 
4 8299 6784 6331 4572 
4 8299 6331 6784 8298 
4 8326 6769 6273 8329 
4 8326 6273 6769 4532 
4 8317 6775 6295 4547 
4 8317 6295 6775 8316 
4 8277 4609 6584 8274 
4 6584 4609 8277 6795 
4 8312 9060 6777 8310 
4 8312 6777 9060 6305 
4 4555 6777 9060 8310 
4 4555 9060 6777 6305 
4 4517 9112 8338 6253 
4 4517 8338 9112 8336 
4 8318 4542 6532 6774 
4 8318 6532 4542 8319 
4 4542 8320 6531 6773 
4 6531 8320 4542 8319 
4 4607 8277 6583 8276 
4 4607 6583 8277 6795 
4 4601 8280 6578 8281 
4 4601 6578 8280 6793 
4 6769 8328 6271 8329 
4 6769 6271 8328 4528 
4 4595 8284 6574 8285 
4 4595 6574 8284 6791 
4 4619 7379 5625 7755 
4 4619 5625 7379 5231 
4 8344 6761 6241 8343 
4 8344 6241 6761 4506 
4 4553 8312 6540 8313 
4 4553 6540 8312 6777 
4 8338 4514 6509 6764 
4 6509 4514 8338 8339 
4 8835 8291 6565 8292 
4 8835 6565 8291 6787 
4 4585 6565 8291 8292 
4 4585 8291 6565 6787 
4 8988 4609 8277 8274 
4 8988 8277 4609 6377 
4 8327 4532 6523 6770 
4 8327 6523 4532 8326 
4 8326 6273 6275 9092 
4 8326 6275 6273 4532 
4 6786 8294 6341 4581 
4 6341 8294 6786 8293 
4 6797 6384 8980 8272 
4 8980 6384 6797 4478 
4 8980 8270 6797 8272 
4 6797 8270 8980 4478 
4 8325 4534 6526 6771 
4 8325 6526 4534 8324 
4 8302 4569 6553 8300 
4 8302 6553 4569 6782 
4 6758 8348 6229 4499 
4 6229 8348 6758 8350 
4 6755 8354 6217 4489 
4 6217 8354 6755 8356 
4 9040 4569 8302 8300 
4 9040 8302 4569 6325 
4 8332 4525 6517 8330 
4 6517 4525 8332 6767 
4 8290 4587 6568 8288 
4 6568 4587 8290 6788 
4 8348 6229 6231 9136 
4 8348 6231 6229 4499 
4 8354 6217 6219 9148 
4 8354 6219 6217 4489 
4 4525 9100 8332 6265 
4 4525 8332 9100 8330 
4 6762 8340 6245 4511 
4 6245 8340 6762 8342 
4 8295 4577 6559 6785 
4 8295 6559 4577 8297 
4 8583 485 5235 8099 
4 5235 485 8583 10031 
4 7378 4620 5626 5232 
4 7378 5626 4620 7576 
4 8291 4581 6564 6787 
4 8291 6564 4581 8294 
4 4563 8303 6549 8305 
4 4563 6549 8303 6781 
4 8347 6760 6235 4501 
4 8347 6235 6760 8345 
4 6779 8309 6311 8307 
4 6779 6311 8309 4557 
4 8420 7687 4657 9806 
4 4657 7687 8420 7805 
4 7621 8387 4690 7782 
4 4690 8387 7621 9763 
4 8351 4493 6493 6757 
4 8351 6493 4493 8353 
4 6766 8335 6259 8333 
4 6766 6259 8335 4519 
4 8422 7691 4655 9808 
4 4655 7691 8422 7807 
4 8321 4536 6528 6772 
4 8321 6528 4536 8323 
4 7587 8370 4707 7768 
4 4707 8370 7587 9743 
4 8283 4601 6577 8281 
4 6577 4601 8283 6792 
4 8313 6776 6301 8315 
4 6301 6776 8313 4553 
4 8339 6763 6249 8341 
4 6249 6763 8339 4514 
4 6792 8282 6363 8283 
4 6792 6363 8282 4598 
4 6776 8314 6299 8315 
4 6776 6299 8314 4549 
4 8303 4567 6550 8304 
4 6550 4567 8303 6781 
4 6550 8859 8303 8304 
4 8303 8859 6550 6781 
4 8276 6794 6373 8279 
4 6373 6794 8276 4607 
4 8289 4592 6571 8286 
4 6571 4592 8289 6789 
4 8328 6768 6269 8331 
4 6269 6768 8328 4528 
4 4560 8306 6547 8308 
4 4560 6547 8306 6780 
4 8333 4521 6515 8334 
4 6515 4521 8333 6766 
4 6515 8919 8333 8334 
4 8333 8919 6515 6766 
4 8895 8321 6529 8322 
4 8895 6529 8321 6772 
4 4539 6529 8321 8322 
4 4539 8321 6529 6772 
4 8351 8955 6494 6757 
4 6494 8955 8351 8352 
4 6494 4496 8351 6757 
4 8351 4496 6494 8352 
4 6794 8278 6371 8279 
4 6794 6371 8278 4603 
4 6785 8296 6337 4579 
4 6337 8296 6785 8295 
4 8337 4517 6511 6765 
4 6511 4517 8337 8336 
4 6778 8310 6307 8311 
4 6778 6307 8310 4555 
4 8340 6763 6247 4511 
4 6247 6763 8340 8341 
4 8943 8345 6500 8346 
4 8943 6500 8345 6760 
4 4504 6500 8345 8346 
4 4504 8345 6500 6760 
4 8307 4560 6546 8308 
4 6546 4560 8307 6779 
4 6546 8867 8307 8308 
4 8307 8867 6546 6779 
4 8349 4499 6497 6759 
4 8349 6497 4499 8348 
4 8355 4489 6490 6756 
4 8355 6490 4489 8354 
4 6768 8330 6267 8331 
4 6768 6267 8330 4525 
4 4569 8301 6554 8300 
4 6554 8301 4569 6783 
4 4587 8289 6569 8288 
4 4587 6569 8289 6789 
4 8296 6786 6339 4579 
4 8296 6339 6786 8293 
4 8343 4504 6502 6761 
4 6502 4504 8343 8346 
4 7584 8541 3718 7767 
4 3718 8541 7584 9740 
4 8475 7716 3586 9822 
4 8475 3586 7716 7817 
4 7650 8508 4749 7793 
4 7650 4749 8508 9780 
4 7608 8529 3694 7777 
4 3694 8529 7608 9754 
4 7600 8533 3702 7774 
4 7600 3702 8533 9749 
4 8501 7664 3638 9789 
4 3638 7664 8501 7798 
4 7670 8497 3630 7800 
4 3630 8497 7670 9795 
4 8527 7612 3690 9756 
4 8527 3690 7612 7779 
4 7696 8485 3606 7810 
4 3606 8485 7696 9809 
4 8539 7588 3714 9742 
4 8539 3714 7588 7769 
4 8537 7592 3710 9744 
4 8537 3710 7592 7771 
4 8520 7626 4737 9764 
4 4737 7626 8520 7785 
4 8487 7692 3610 9807 
4 8487 3610 7692 7808 
4 7628 8518 4739 7786 
4 4739 8518 7628 9767 
4 8499 7666 3634 9792 
4 8499 3634 7666 7799 
4 8531 7602 3698 9752 
4 8531 3698 7602 7775 
4 8535 7594 3706 9747 
4 3706 7594 8535 7772 
4 3883 9916 10025 6110 
4 3883 10025 9916 7888 
4 9153 4481 4486 8268 
4 4486 4481 9153 6210 
4 4486 8267 9153 8268 
4 4802 4804 10030 3546 
4 10030 4804 4802 7830 
4 10030 8455 4802 3546 
4 4802 8455 10030 7830 
4 7631 3669 4685 9769 
4 4685 3669 7631 4684 
4 487 6702 488 307 
4 488 6702 487 8785 
4 4636 9830 8441 3573 
4 8441 9830 4636 7727 
4 4651 9811 8426 3603 
4 8426 9811 4651 7697 
4 7173 8114 5118 5117 
4 7173 5118 8114 8385 
4 3685 5118 8114 5117 
4 3685 8114 5118 8385 
4 8525 4732 3688 9759 
4 8525 3688 4732 3686 
4 8273 6383 8272 8982 
4 8272 6383 8273 4611 
4 2973 6706 7340 7345 
4 2973 7340 6706 5432 
4 8558 7340 6706 7345 
4 8558 6706 7340 5432 
4 2787 6705 7245 7343 
4 2787 7245 6705 5431 
4 8557 7245 6705 7343 
4 8557 6705 7245 5431 
4 8285 6359 8284 9006 
4 8284 6359 8285 4595 
4 9153 4486 6212 8267 
4 6212 4486 9153 6210 
4 697 10603 696 10538 
4 683 10601 10509 682 
4 661 660 10599 10511 
4 718 719 10597 10540 
4 10143 638 637 10527 
4 713 10539 714 10604 
4 665 10508 10602 666 
4 697 10543 698 10685 
4 10684 681 10512 682 
4 10499 10156 591 590 
4 10078 603 10496 602 
4 713 10542 10676 712 
4 667 10513 666 10678 
4 10526 10079 645 646 
4 10497 594 10142 595 
4 10541 691 10600 692 
4 10598 10510 688 687 
4 10170 10506 589 590 
4 677 10680 10504 676 
4 10682 702 703 10535 
4 702 701 10544 10804 
4 10802 10515 678 677 
4 650 10162 10528 649 
4 656 10531 10044 657 
4 10153 614 10501 613 
4 632 633 10536 10171 
4 633 634 10529 10157 
4 639 638 10292 10533 
4 584 10152 583 10500 
4 671 10803 10514 670 
4 10545 708 10805 709 
4 13 10519 10052 625 
4 12 582 10049 10489 
4 650 10169 651 10537 
4 606 10498 607 10161 
4 10507 10168 608 607 
4 719 10702 10524 720 
4 10495 660 10704 659 
4 671 672 10505 10681 
4 10683 10534 707 708 
4 10151 627 626 10530 
4 10532 644 645 10149 
4 10515 10802 10680 677 
4 10682 702 10544 10804 
4 637 10521 636 10283 
4 10494 689 10703 688 
4 690 691 10705 10525 
4 720 10958 10518 15 
4 10959 10489 659 14 
4 10486 592 10303 593 
4 12 10488 10050 615 
4 596 10503 10291 595 
4 10282 593 594 10491 
4 647 648 10517 10082 
4 15 690 10957 10519 
4 14 10488 689 10956 
4 10051 658 10518 13 
4 592 591 10493 10479 
4 657 10524 10047 658 
4 605 10487 10081 604 
4 635 10523 634 10157 
4 10487 10081 604 10477 
4 10040 648 10522 649 
4 10699 669 10491 670 
4 10520 709 10701 710 
4 606 10155 605 10492 
4 583 582 10495 10045 
4 625 10048 626 10525 
4 10486 668 669 10699 
4 711 10701 710 10517 
4 679 10802 10490 678 
4 701 700 10521 10804 
4 10164 633 10529 10157 
4 10172 602 10502 601 
4 10560 699 10523 698 
4 681 680 10558 10492 
4 604 10159 603 10490 
4 10520 646 647 10160 
4 700 10521 10804 10700 
4 10698 679 10802 10490 
4 700 699 10516 10670 
4 10487 680 10668 679 
4 615 614 10494 10046 
4 668 10486 10669 10699 
4 10701 711 10671 10517 
4 667 10595 668 10493 
4 10522 711 10596 712 
4 708 10683 10545 10805 
4 635 636 10516 10077 
4 10803 10699 10282 10491 
4 10079 10526 645 10545 
4 10149 10079 10545 10805 
4 10488 14 10050 10956 
4 626 10048 10301 10525 
4 639 10535 10274 10158 
4 10320 10192 10910 10328 
4 10079 645 10149 10545 
4 12 10488 14 10050 
4 10282 10803 10491 670 
4 10162 10528 649 10094 
4 10644 10837 10478 10383 
4 10275 10168 10677 10161 
4 10302 583 10495 10045 
4 10683 10149 10545 10805 
4 10319 10950 10447 10243 
4 10803 10699 10491 670 
4 10805 10520 709 10701 
4 635 10077 10523 10157 
4 10902 10932 10422 10910 
4 10888 724 10468 10954 
4 10957 15 10519 10052 
4 10077 10560 10523 10157 
4 10461 10034 10350 10551 
4 10043 661 10599 10511 
4 10950 10447 10243 10260 
4 10302 10495 10704 10045 
4 10034 10461 10899 10551 
4 10127 10761 10654 10123 
4 10171 10536 10538 10679 
4 10524 10702 657 10047 
4 10811 10392 10446 10236 
4 10079 646 10520 10160 
4 583 10302 10495 10704 
4 10087 10143 10285 10792 
4 10628 10483 10746 10842 
4 10826 10189 10467 10314 
4 723 10463 10371 10945 
4 10932 10320 10422 10910 
4 10928 10254 10109 10340 
4 724 619 10468 10954 
4 10958 616 10051 13 
4 10354 10103 10266 10929 
4 10889 10891 10470 725 
4 10889 10470 726 725 
4 10946 10896 10447 617 
4 10200 10841 10331 10913 
4 10628 10115 10617 10878 
4 10543 10164 10529 10685 
4 10079 10526 10545 10805 
4 10507 10168 10677 10509 
4 10702 719 10524 657 
4 10673 10310 611 10075 
4 10301 10048 10705 10525 
4 10782 10352 10772 10485 
4 10628 10483 10726 10746 
4 10927 10278 10262 10247 
4 10841 10331 10913 10612 
4 10889 10470 10955 726 
4 10777 10127 10761 10654 
4 10840 10770 10126 10111 
4 10889 10819 10955 10406 
4 10822 10429 10240 10440 
4 724 10888 10468 725 
4 10487 10668 10081 10477 
4 10891 10470 725 620 
4 10256 10661 10274 10606 
4 10744 10366 10116 10615 
4 10294 10946 10447 617 
4 10526 10545 10805 709 
4 10110 10298 10918 10952 
4 584 661 10043 10511 
4 10330 10480 10810 10722 
4 10771 10775 10121 10481 
4 10257 10739 10204 10312 
4 10536 697 10538 10679 
4 10677 10507 10509 682 
4 10298 10110 10076 10952 
4 10037 10906 10419 10547 
4 10470 726 725 621 
4 10470 10955 726 621 
4 10668 10487 10698 10477 
4 10805 10079 10520 10160 
4 10684 10039 10155 10558 
4 10955 10470 10399 621 
4 10935 10245 10177 10428 
4 10471 674 10556 10689 
4 10758 10816 10476 10747 
4 626 10301 10705 10525 
4 10811 10392 10464 10446 
4 10535 10682 10533 10274 
4 10170 10163 10279 10602 
4 10186 10829 10440 10461 
4 10442 10924 10314 10824 
4 10368 10117 10745 10362 
4 692 10600 10289 10570 
4 10103 10354 10418 10929 
4 10427 10392 10823 10236 
4 726 10465 10890 725 
4 10937 10098 10033 10428 
4 10510 10153 10501 613 
4 10124 10774 10122 10130 
4 10422 10320 10192 10910 
4 10210 10877 10134 10345 
4 10891 10458 10470 620 
4 10805 10520 10701 10160 
4 10608 10681 10142 10291 
4 10364 10591 10055 10056 
4 10529 10164 10157 10685 
4 618 723 10463 10371 
4 10468 724 725 620 
4 10143 10087 10682 10792 
4 619 10468 10954 10390 
4 10826 10189 10712 10467 
4 10143 10682 10544 10804 
4 10835 10584 10424 10336 
4 10151 627 10530 10541 
4 10854 729 10295 728 
4 10636 10131 10949 10637 
4 10739 10257 10857 10312 
4 10306 692 10289 10570 
4 10100 10349 10900 10102 
4 10775 10771 10435 10481 
4 10146 10953 10265 10041 
4 10661 10682 10274 10606 
4 10215 10394 10820 10395 
4 10835 10837 10644 10383 
4 10959 10049 10489 14 
4 10732 10100 10900 10102 
4 10354 10929 10624 10108 
4 10208 10037 10419 10547 
4 10118 10617 10842 10332 
4 10084 718 10597 10540 
4 10837 10847 10434 10383 
4 10093 10086 10437 10780 
4 10937 10033 10188 10428 
4 10642 10131 10636 10637 
4 10944 10816 10890 10380 
4 636 10700 10516 10077 
4 641 10687 10178 10552 
4 10515 10802 10078 10680 
4 583 10152 10599 10500 
4 10170 10163 10602 10678 
4 10115 10628 10617 10114 
4 10928 10254 10340 10814 
4 10819 10725 10406 10727 
4 10178 641 10552 705 
4 10515 10078 10496 602 
4 10354 10418 10929 10108 
4 10470 10889 10955 10406 
4 10275 10677 10281 10161 
4 641 10687 10552 705 
4 10774 10124 10770 10130 
4 10421 10069 10329 10577 
4 618 617 10893 10430 
4 10340 10254 10401 10814 
4 10669 10486 10303 10699 
4 10225 10211 10758 10190 
4 627 10306 692 10289 
4 10294 10447 10856 10260 
4 10906 10037 10419 10438 
4 10919 10365 10666 10614 
4 10838 10462 10900 10647 
4 10727 10217 10335 10218 
4 10321 10412 10933 10197 
4 10116 10366 10133 10615 
4 10616 10745 10362 10883 
4 10732 10826 10467 10314 
4 10746 10816 10226 10820 
4 10435 10775 10481 10646 
4 10775 10777 10654 10481 
4 10544 10143 10804 10527 
4 10543 10529 698 10685 
4 10927 10262 10608 10247 
4 10498 10684 681 10512 
4 724 619 10458 620 
4 10103 10074 10147 10939 
4 10310 612 686 611 
4 10817 10398 10220 10821 
4 10700 10516 10077 10670 
4 10355 10245 10935 10428 
4 10620 10396 10112 10134 
4 10470 725 620 621 
4 729 10956 10854 10295 
4 10032 10419 10359 10808 
4 10186 10829 10472 10440 
4 623 10431 10892 622 
4 10955 622 726 621 
4 10896 10946 10447 10856 
4 10528 10596 649 10094 
4 10521 10804 10700 10283 
4 10893 617 10296 10430 
4 10115 10628 10866 10878 
4 10783 10203 10773 10636 
4 10064 10321 10909 10407 
4 10802 10515 10078 10496 
4 10671 10701 10517 10082 
4 10362 10867 10731 10348 
4 10226 10215 10820 10395 
4 10152 584 10511 10500 
4 10100 10107 10647 10444 
4 10475 10817 10945 10891 
4 722 721 10855 10296 
4 10155 605 10492 10081 
4 10447 10950 10856 10260 
4 10217 10333 10727 10335 
4 10843 10749 10322 10220 
4 10074 10103 10815 10939 
4 10335 10631 10218 10400 
4 10458 10398 10891 10470 
4 10413 10060 10872 10207 
4 10438 10480 10330 10722 
4 10266 10667 10929 10807 
4 10600 627 692 10289 
4 10333 10727 10335 10632 
4 10561 10175 10564 609 
4 10441 10656 10665 10568 
4 10163 10789 10602 10678 
4 10421 10940 10860 10343 
4 10238 10455 10309 10611 
4 10244 10208 10419 10547 
4 10316 10146 10729 10450 
4 10867 10616 10362 10883 
4 10483 10746 10842 10332 
4 10572 10039 10684 10558 
4 10470 10955 10399 10406 
4 10105 10652 10400 10449 
4 583 10495 660 10704 
4 10482 10628 10483 10726 
4 10883 10195 10420 10721 
4 10818 10726 10394 10820 
4 10117 10616 10745 10362 
4 10652 10105 10614 10449 
4 10814 10938 10706 10182 
4 10271 10575 10421 10060 
4 619 724 10468 620 
4 10321 10911 10407 10194 
4 10524 10702 10047 720 
4 10684 10039 10281 10155 
4 10249 10948 10341 10639 
4 10879 10619 10119 10632 
4 10432 10462 10647 10444 
4 723 618 10893 10371 
4 10109 10928 10340 10806 
4 10146 10953 10450 10265 
4 10333 10748 10727 10632 
4 10900 10349 10606 10102 
4 10817 10749 10219 10759 
4 10660 10605 10926 10104 
4 10327 10779 10186 10551 
4 10584 10847 10835 10424 
4 10362 10867 10883 10731 
4 10327 10186 10304 10551 
4 10811 10464 10723 10446 
4 10250 10415 10124 10635 
4 10725 10406 10727 10218 
4 645 10683 10149 10545 
4 10173 10695 10146 10041 
4 10366 10744 10882 10615 
4 10429 10822 10240 10330 
4 618 10893 10371 10430 
4 10601 10677 10509 682 
4 10935 10177 10556 10428 
4 697 10603 10538 10679 
4 721 10957 10855 10296 
4 10320 10589 10932 10422 
4 10748 10817 10220 10821 
4 10833 10358 10400 10449 
4 10073 10795 10559 10479 
4 10189 10778 10826 10712 
4 10352 10360 10782 10894 
4 10358 10218 10833 10400 
4 10333 10748 10220 10217 
4 10829 10440 10461 10899 
4 10256 10442 10924 10102 
4 10193 10716 10345 10348 
4 10761 10231 10239 10943 
4 10078 10793 10172 10680 
4 10627 10334 10866 10326 
4 10398 10821 10891 10889 
4 10093 10605 10104 10149 
4 10924 10732 10314 10824 
4 10772 10782 10485 10639 
4 10685 10145 10574 10791 
4 10730 10386 10882 10866 
4 10174 630 695 631 
4 10076 654 10672 10095 
4 10310 686 10673 611 
4 10146 10813 10953 10041 
4 10761 10239 10764 10943 
4 10506 10170 10602 666 
4 10057 10055 10580 10056 
4 10817 10398 10821 10891 
4 10891 10398 10889 10470 
4 10278 10927 10608 10247 
4 656 10531 10540 10044 
4 726 10465 725 621 
4 10352 10782 10227 10485 
4 660 583 10704 10599 
4 10424 10835 10336 10583 
4 10160 10232 10097 10768 
4 10352 10782 10772 10894 
4 660 583 10599 10500 
4 10071 10585 10313 10338 
4 10946 10294 10447 10856 
4 10215 10746 10226 10820 
4 10441 10665 10310 10568 
4 10475 10945 10458 10891 
4 10736 10225 10211 10758 
4 10667 10266 10675 10807 
4 10716 10877 10193 10345 
4 10398 10889 10470 10406 
4 10398 10817 10475 10891 
4 10940 10860 10343 10576 
4 10771 10775 10435 10646 
4 10599 10152 10511 10500 
4 10530 10151 10541 10600 
4 10202 10923 10739 10799 
4 10333 10748 10217 10727 
4 10184 10795 10073 10287 
4 10793 10172 10680 10607 
4 10315 10231 10637 10127 
4 10249 10638 10948 10639 
4 616 10946 10958 10051 
4 10093 10926 10437 10104 
4 10210 10877 10112 10134 
4 619 10954 10469 10390 
4 10735 10278 10247 10101 
4 10726 10818 10394 10216 
4 10732 10900 10606 10102 
4 10334 10133 10866 10326 
4 10947 10897 10857 10384 
4 10118 10617 10332 10114 
4 10816 10226 10758 10476 
4 10718 10744 10366 10728 
4 10914 10836 10382 10782 
4 10056 10361 10581 10053 
4 10333 10843 10748 10632 
4 10275 10677 10790 10281 
4 10485 10227 10645 10639 
4 10822 10240 10330 10810 
4 10812 10298 10076 10952 
4 10684 10498 681 10155 
4 10069 10589 10320 10422 
4 10559 10795 10595 10479 
4 10955 10399 622 621 
4 10769 10803 10699 10282 
4 10078 10793 10309 10172 
4 10286 10327 10263 10733 
4 10107 10625 10315 10223 
4 10399 10325 10212 10887 
4 10840 10770 10252 10874 
4 10757 10391 10815 10921 
4 10695 10813 10146 10041 
4 10485 10227 10249 10645 
4 10175 10938 10564 10806 
4 631 10091 632 696 
4 10200 10622 10841 10913 
4 10946 10896 617 722 
4 10146 10709 10316 10729 
4 10362 10731 10387 10348 
4 10709 10270 10146 10316 
4 10086 10093 10660 10780 
4 10480 10858 10810 10722 
4 10211 10758 10190 10880 
4 10398 10817 10220 10475 
4 10937 10851 10550 10188 
4 10898 10443 10554 10823 
4 10412 10592 10933 10197 
4 10892 10431 10451 622 
4 10368 10195 10745 10316 
4 10118 10618 10342 10373 
4 10306 627 692 628 
4 10584 10835 10849 10336 
4 10333 10843 10322 10220 
4 10127 10231 10761 10123 
4 10552 10686 10179 705 
4 10860 10421 10343 10246 
4 10896 618 10447 617 
4 10908 10714 10191 10328 
4 10619 10134 10119 10333 
4 10771 10121 10435 10481 
4 10184 10795 10573 10073 
4 10093 10660 10926 10104 
4 10159 10698 10802 10490 
4 10560 10288 10574 10072 
4 639 10535 10533 10274 
4 10375 10734 10621 10912 
4 10429 10822 10330 10810 
4 10596 10040 649 10094 
4 10714 10908 10910 10328 
4 10702 10044 657 10047 
4 10401 10756 10372 10754 
4 10553 10906 10037 10547 
4 10756 10254 10928 10814 
4 10202 10358 10871 10449 
4 10321 10070 10064 10586 
4 10744 10366 10728 10242 
4 10468 10888 10954 10390 
4 10686 10086 643 10660 
4 10638 10249 10948 10341 
4 10572 10862 10417 10786 
4 10406 10217 10727 10218 
4 10505 596 10503 10291 
4 600 10662 10085 675 
4 10593 10369 10070 10064 
4 10280 10166 10693 10091 
4 10433 10840 10874 10750 
4 10392 10811 10823 10236 
4 10398 10475 10458 10891 
4 10698 10487 604 10477 
4 10717 10346 10755 10921 
4 10295 623 10431 10892 
4 10186 10829 10461 10551 
4 10330 10228 10722 10884 
4 10175 10561 10140 609 
4 10203 10783 10385 10636 
4 10951 10325 10204 10312 
4 10793 10309 10172 10607 
4 10624 10445 10108 10650 
4 10231 10315 10637 10762 
4 692 10306 628 10570 
4 10957 616 10048 10296 
4 10746 10215 10226 10476 
4 10680 10662 10607 10092 
4 10249 10485 10645 10639 
4 10835 10847 10837 10383 
4 10761 10943 10741 10411 
4 10793 10159 10309 10611 
4 10075 10109 10340 10806 
4 10229 10783 10915 10837 
4 10708 10413 10207 10298 
4 721 10958 15 13 
4 10654 10127 10123 10481 
4 10415 10250 10228 10884 
4 639 703 10535 10158 
4 10665 10310 10673 10109 
4 10304 10917 10355 10263 
4 10912 10840 10206 10609 
4 10720 10902 10198 10882 
4 10142 10608 10291 10247 
4 10838 10462 10610 10900 
4 10232 10269 10097 10768 
4 10920 10401 10372 10754 
4 10262 10273 10608 10247 
4 10804 10792 10767 10283 
4 643 706 10660 707 
4 10400 10652 10614 10449 
4 10440 10822 10554 10899 
4 727 10955 622 726 
4 10634 10402 10378 10759 
4 10239 10231 10236 10943 
4 10203 10838 10773 10636 
4 10572 10790 10684 10281 
4 10276 10207 10090 10604 
4 10761 10231 10943 10411 
4 10325 10212 10951 10204 
4 10656 10441 10665 10930 
4 10944 10816 10380 10344 
4 10687 641 10178 10099 
4 10812 10176 10697 10076 
4 10074 10103 10391 10815 
4 10572 10862 10053 10417 
4 10715 10876 10372 10191 
4 10271 10421 10860 10246 
4 10817 10749 10220 10219 
4 10034 10350 10551 10859 
4 10465 10468 725 620 
4 10093 10683 10605 10149 
4 10673 10310 10075 10109 
4 10231 10236 10943 10411 
4 10360 10914 10782 10894 
4 10329 10413 10060 10872 
4 10622 10735 10913 10101 
4 10902 10422 10192 10910 
4 10876 10715 10714 10191 
4 10662 10245 10167 10085 
4 10061 10588 10574 10791 
4 10876 10342 10372 10191 
4 10732 10826 10712 10467 
4 10539 713 10537 10604 
4 10508 10506 10602 666 
4 10883 10420 10387 10903 
4 10634 10378 10749 10759 
4 10627 10482 10326 10205 
4 10381 10130 10641 10221 
4 633 10543 10164 10529 
4 643 10086 10093 10660 
4 10576 10874 10213 10834 
4 10775 10777 10129 10644 
4 10804 10767 10700 10283 
4 10108 10445 10396 10650 
4 10506 10170 10508 10602 
4 10087 10682 10792 10606 
4 10459 10588 10905 10063 
4 10048 690 10705 10525 
4 10756 10401 10920 10754 
4 10365 10919 10652 10614 
4 10069 10589 10329 10577 
4 617 616 721 10296 
4 10899 10034 10551 10859 
4 10100 10732 10900 10712 
4 723 724 10463 10945 
4 10295 10854 728 10892 
4 10728 10413 10298 10242 
4 10125 10776 10760 10638 
4 10135 10119 10867 10348 
4 10572 10039 10796 10417 
4 10688 10177 674 10556 
4 10212 10399 10887 10406 
4 10919 10365 10953 10666 
4 10779 10327 10286 10827 
4 10927 10735 10278 10608 
4 10714 10192 10191 10328 
4 10828 10377 10778 10546 
4 10118 10629 10617 10876 
4 10231 10637 10761 10762 
4 10938 10340 10140 10182 
4 10897 10325 10887 10951 
4 10484 10817 10219 10759 
4 10883 10420 10903 10721 
4 10159 10238 10309 10611 
4 643 10093 644 707 
4 10897 10325 10951 10857 
4 10770 10621 10840 10126 
4 10130 10213 10641 10221 
4 674 10471 598 10689 
4 10956 10050 10046 10295 
4 10259 636 10700 10283 
4 10250 10032 10359 10710 
4 10949 10363 10444 10315 
4 10653 10454 10776 10760 
4 10758 10226 10190 10476 
4 10336 10583 10338 10196 
4 10253 10644 10478 10235 
4 10250 10124 10126 10635 
4 10631 10135 10632 10867 
4 10285 10349 10792 10138 
4 10211 10393 10423 10930 
4 10464 10337 10723 10446 
4 10288 10797 10574 10787 
4 10288 10560 10077 10157 
4 10681 10803 10608 10142 
4 10757 10346 10391 10921 
4 10231 10315 10762 10223 
4 10484 10817 10759 10845 
4 10766 10159 10793 10611 
4 706 10686 643 10660 
4 729 12 14 10050 
4 10644 10835 10235 10646 
4 10126 10840 10111 10206 
4 10045 10049 10959 624 
4 10897 10325 10399 10887 
4 10515 10078 10172 10680 
4 10603 10171 10538 10679 
4 10480 10858 10548 10810 
4 10560 10288 10797 10574 
4 10346 10757 10755 10921 
4 10856 10798 10702 10300 
4 10893 722 10855 10296 
4 10775 10777 10481 10129 
4 10039 10572 10684 10281 
4 10955 10819 10887 10406 
4 10435 10235 10196 10875 
4 10074 10280 10693 10707 
4 10756 10254 10401 10372 
4 10280 10248 10693 10707 
4 10711 10735 10622 10101 
4 10581 10790 10572 10281 
4 10814 10340 10938 10182 
4 612 10083 10310 10568 
4 10093 10605 10660 10104 
4 725 10465 620 621 
4 10163 10789 10279 10602 
4 10925 10148 10092 10167 
4 10131 10363 10949 10315 
4 10141 10812 10298 10076 
4 617 722 10893 10296 
4 719 10702 10044 657 
4 616 10946 10294 617 
4 10840 10621 10912 10206 
4 10662 10085 675 10688 
4 10789 10323 10573 10144 
4 10233 10435 10196 10875 
4 10327 10286 10827 10733 
4 10184 10404 10323 10869 
4 640 704 10661 10099 
4 10284 10803 10142 10247 
4 10319 10886 10390 10447 
4 10462 10838 10432 10647 
4 10170 10602 666 10678 
4 10643 10834 10381 10641 
4 10761 10654 10123 10411 
4 10664 10658 10922 10080 
4 10454 10120 10125 10760 
4 10124 10770 10130 10252 
4 10339 10715 10372 10191 
4 10835 10849 10336 10583 
4 10034 10392 10464 10859 
4 10412 10585 10071 10338 
4 719 10702 10597 10044 
4 10583 10404 10338 10196 
4 10569 10674 10154 10666 
4 10211 10423 10441 10930 
4 10890 10816 10820 10395 
4 10751 10841 10233 10875 
4 10799 10739 10257 10857 
4 10366 10882 10133 10615 
4 10862 10053 10417 10272 
4 10148 10925 10453 10167 
4 10145 10164 10280 10679 
4 10149 10605 10308 10805 
4 10783 10895 10229 10915 
4 10079 10149 10308 10805 
4 10056 10580 10894 10864 
4 10785 10137 10351 10612 
4 10776 10454 10125 10760 
4 10315 10625 10637 10762 
4 10361 10581 10053 10281 
4 10770 10126 10111 10252 
4 623 10295 728 10892 
4 10309 10455 10901 10611 
4 10462 10100 10647 10444 
4 10683 10605 10149 10805 
4 10495 10704 10045 659 
4 10135 10867 10362 10348 
4 10166 10939 10693 10562 
4 15 721 13 10052 
4 12 10049 729 14 
4 10337 10809 10446 10201 
4 10784 10840 10433 10750 
4 10184 10785 10287 10137 
4 629 628 10096 693 
4 10174 695 10566 10562 
4 10756 10401 10814 10920 
4 10059 10834 10234 10846 
4 10119 10879 10632 10867 
4 10363 10432 10647 10444 
4 10366 10413 10728 10242 
4 10589 10720 10329 10577 
4 10166 10693 10091 10562 
4 10361 10591 10056 10581 
4 10249 10645 10638 10639 
4 653 10076 654 716 
4 10792 10138 10767 10283 
4 10702 10047 720 10958 
4 10676 10542 10528 712 
4 667 10499 10513 10678 
4 727 10892 10451 622 
4 10815 10391 10707 10921 
4 10464 10188 10907 10337 
4 728 623 10892 727 
4 10591 10364 10361 10056 
4 10343 10576 10246 10213 
4 10036 10429 10548 10035 
4 10177 10471 674 10556 
4 10358 10833 10871 10449 
4 10177 10688 674 599 
4 10298 10812 10918 10952 
4 10954 724 10469 723 
4 10885 10446 10237 10236 
4 10677 10684 10281 10161 
4 10784 10139 10794 10571 
4 10076 10110 10277 10952 
4 10865 10588 10863 10293 
4 10168 10601 10677 10509 
4 10465 10944 726 10890 
4 10832 10205 10752 10724 
4 10835 10235 10646 10875 
4 10550 10937 10188 10428 
4 10914 10382 10360 10782 
4 10192 10714 10910 10328 
4 10711 10723 10809 10201 
4 10726 10215 10394 10820 
4 10280 10164 10171 10679 
4 10297 10045 10959 624 
4 10857 10325 10312 10384 
4 10826 10553 10181 10916 
4 10947 623 10297 624 
4 10686 10086 10660 10780 
4 10711 10885 10723 10201 
4 10409 10901 10733 10607 
4 10696 10174 695 10566 
4 10672 10076 10095 10277 
4 10715 10920 10372 10754 
4 10139 10794 10571 10054 
4 10032 10437 10419 10850 
4 10268 10901 10409 10607 
4 10321 10911 10194 10197 
4 10839 10772 10485 10639 
4 10309 10268 10148 10607 
4 624 623 10295 728 
4 10341 10455 10639 10648 
4 10697 10176 653 10076 
4 10254 10756 10401 10814 
4 10480 10429 10330 10810 
4 10588 10061 10863 10293 
4 10293 10865 10063 10062 
4 10832 10627 10205 10724 
4 10560 699 10077 10523 
4 10784 10840 10609 10269 
4 721 616 10958 13 
4 704 703 640 10661 
4 676 10662 600 675 
4 10466 10803 10284 10247 
4 10264 10455 10839 10485 
4 10531 10597 10540 10044 
4 10676 10788 10276 10604 
4 10578 10834 10848 10059 
4 10190 10758 10476 10747 
4 10957 616 10052 10048 
4 10841 10751 10233 10351 
4 10401 10814 10706 10182 
4 623 10892 727 622 
4 10327 10827 10263 10733 
4 10285 10143 10804 10792 
4 10816 10746 10476 10747 
4 10215 10726 10394 10216 
4 10724 10886 10818 10474 
4 10751 10841 10785 10351 
4 10118 10618 10629 10876 
4 10094 10676 10788 10276 
4 10851 10550 10188 10907 
4 10777 10642 10129 10644 
4 10069 10589 10422 10329 
4 10834 10343 10848 10059 
4 10888 10818 10954 10390 
4 10917 10827 10304 10555 
4 10158 10256 10442 10924 
4 10410 10618 10118 10373 
4 10739 10202 10799 10257 
4 10659 10923 10290 10799 
4 10676 10596 10528 10094 
4 10555 10460 10550 10907 
4 10494 689 10046 10703 
4 10661 10256 10924 10606 
4 10309 10148 10172 10607 
4 10777 10127 10654 10481 
4 10457 10897 10955 727 
4 10825 10662 10245 10167 
4 10337 10278 10809 10201 
4 10275 10168 10601 10677 
4 10222 10773 10356 10895 
4 10375 10734 10710 10621 
4 10261 10711 10640 10101 
4 10354 10180 10445 10931 
4 10399 10955 10887 10406 
4 10107 10100 10647 10712 
4 10350 10555 10551 10859 
4 10067 10789 10270 10279 
4 10135 10119 10632 10867 
4 10627 10482 10205 10724 
4 10145 10061 10574 10791 
4 10882 10386 10133 10866 
4 10094 10676 10557 10788 
4 10358 10202 10871 10739 
4 10795 10669 10303 10699 
4 10070 10593 10064 10586 
4 10955 10897 10399 10887 
4 10393 10211 10190 10880 
4 10749 10843 10748 10220 
4 10288 10560 10157 10072 
4 10396 10108 10650 10112 
4 10038 10442 10824 10099 
4 10288 10787 10408 10267 
4 10654 10761 10741 10411 
4 10627 10866 10615 10326 
4 10920 10401 10339 10372 
4 10883 10362 10731 10387 
4 10788 10207 10276 10604 
4 10264 10455 10238 10839 
4 10118 10618 10876 10342 
4 10783 10642 10385 10636 
4 10455 10485 10341 10639 
4 10811 10464 10859 10723 
4 10896 618 10469 10447 
4 10894 10056 10864 10862 
4 10271 10374 10575 10060 
4 10195 10719 10745 10316 
4 10439 10783 10642 10385 
4 10244 10686 10552 10936 
4 10253 10644 10235 10646 
4 10306 10667 10354 10096 
4 10816 10317 10844 10758 
4 10642 10131 10637 10777 
4 10107 10625 10223 10778 
4 10739 10202 10257 10204 
4 624 12 729 10050 
4 10392 10811 10464 10859 
4 10480 10036 10429 10548 
4 10554 10440 10899 10035 
4 10914 10058 10057 10382 
4 10438 10906 10722 10808 
4 10923 10202 10290 10799 
4 10480 10438 10858 10722 
4 684 10175 610 609 
4 10769 10803 10282 10284 
4 10578 10834 10059 10846 
4 10455 10901 10839 10648 
4 10709 10813 10146 10165 
4 10853 10717 10921 10425 
4 10329 10421 10830 10060 
4 10920 10852 10715 10339 
4 10832 10326 10436 10205 
4 10816 10890 10380 10395 
4 10795 10785 10184 10573 
4 10835 10583 10196 10875 
4 10321 10065 10070 10586 
4 10809 10723 10446 10201 
4 723 618 722 10893 
4 10510 10598 613 687 
4 10189 10107 10223 10778 
4 10315 10625 10762 10223 
4 661 10659 10043 10599 
4 10683 10093 10605 10660 
4 10159 10766 10793 10802 
4 10120 10249 10638 10341 
4 10323 10789 10573 10582 
4 10289 10600 10657 10570 
4 10588 10459 10061 10063 
4 618 617 722 10893 
4 10386 10209 10882 10133 
4 10719 10195 10066 10316 
4 10414 10186 10829 10472 
4 10325 10951 10857 10312 
4 713 10169 10537 10604 
4 10047 720 10958 10051 
4 10723 10885 10446 10201 
4 10368 10316 10729 10450 
4 10665 10928 10109 10806 
4 10796 10572 10417 10786 
4 10349 10462 10900 10138 
4 10947 10297 10959 624 
4 10176 10812 10141 10076 
4 614 10494 10703 688 
4 10886 10896 10954 10447 
4 10374 10788 10207 10276 
4 10340 10175 10938 10140 
4 10594 10456 10853 10921 
4 10409 10263 10453 10733 
4 10443 10554 10823 10549 
4 10154 10307 10666 10265 
4 10947 10897 10384 728 
4 10410 10630 10649 10113 
4 10892 10431 10844 10451 
4 10701 10671 10794 10082 
4 10885 10811 10236 10943 
4 640 10661 10158 10099 
4 10159 10698 10766 10802 
4 10620 10396 10650 10112 
4 10180 10667 10657 10931 
4 10865 10588 10293 10063 
4 687 613 612 10083 
4 10358 10202 10739 10204 
4 10244 10552 10547 10936 
4 10057 10360 10056 10894 
4 10278 10735 10201 10101 
4 10209 10366 10882 10133 
4 672 10273 10505 10681 
4 10715 10920 10339 10372 
4 10068 10590 10914 10057 
4 10919 10813 10146 10729 
4 10851 10937 10033 10188 
4 697 10536 10171 10679 
4 10870 10832 10205 10752 
4 10595 668 10493 10669 
4 711 10671 10522 10596 
4 10461 10829 10899 10551 
4 10862 10417 10786 10272 
4 10584 10065 10424 10336 
4 10790 10677 10684 10281 
4 10922 10183 10798 10738 
4 10877 10716 10879 10345 
4 10885 10811 10446 10236 
4 10115 10628 10334 10866 
4 10049 10959 10489 659 
4 10579 10058 10914 10846 
4 10228 10359 10884 10710 
4 10773 10863 10356 10895 
4 10257 10302 10857 10312 
4 10834 10381 10641 10221 
4 10893 10311 10737 10430 
4 724 10463 10945 10458 
4 10039 10572 10053 10417 
4 10180 10306 10667 10354 
4 10343 10069 10848 10059 
4 10034 10899 10549 10859 
4 10943 10885 10741 10411 
4 10413 10718 10366 10728 
4 10046 10299 10703 10854 
4 10842 10476 10132 10332 
4 10192 10370 10714 10191 
4 10110 10918 10613 10664 
4 10227 10782 10645 10639 
4 10437 10926 10032 10104 
4 10718 10329 10830 10872 
4 10431 10844 10451 10344 
4 10802 10793 10078 10680 
4 10813 10173 10565 10695 
4 10360 10056 10894 10272 
4 10133 10115 10334 10866 
4 10155 10498 606 10161 
4 10305 673 10663 672 
4 10143 10682 10804 10792 
4 10662 10245 10085 10688 
4 12 10049 624 729 
4 10115 10617 10878 10114 
4 10773 10863 10187 10356 
4 10847 10584 10065 10424 
4 10305 596 597 672 
4 10302 10947 10704 10857 
4 684 10561 609 683 
4 695 631 696 10562 
4 614 10494 10046 10703 
4 10715 10908 10714 10191 
4 10652 10833 10400 10614 
4 10349 10087 10792 10606 
4 10070 10847 10915 10586 
4 10365 10953 10666 10265 
4 10565 665 10088 10602 
4 10173 10813 10565 10165 
4 10688 675 674 599 
4 10896 10954 10469 723 
4 10401 10340 10814 10182 
4 10796 10786 10477 10766 
4 10415 10250 10884 10635 
4 10183 10870 10136 10738 
4 10902 10209 10198 10882 
4 10120 10125 10760 10638 
4 10894 10056 10862 10272 
4 10270 10709 10146 10165 
4 10277 10613 10367 10664 
4 10655 10123 10121 10481 
4 10908 10068 10579 10328 
4 10628 10627 10334 10866 
4 10273 596 10305 672 
4 10865 10063 10062 10594 
4 10202 10923 10871 10739 
4 10831 10719 10721 10066 
4 10814 10401 10706 10920 
4 10779 10327 10827 10551 
4 10595 10795 10669 10479 
4 10569 10307 10154 10043 
4 10440 10034 10899 10035 
4 10861 10347 10941 10338 
4 10370 10876 10714 10191 
4 10303 10486 593 10699 
4 10863 10061 10408 10293 
4 10036 10546 10898 10858 
4 10905 10456 10594 10921 
4 10873 10789 10067 10582 
4 14 729 10050 10956 
4 10618 10342 10373 10754 
4 10347 10861 10404 10338 
4 10934 10038 10687 10178 
4 10277 10672 10952 10664 
4 10860 10343 10576 10246 
4 10377 10778 10546 10318 
4 10794 10040 10596 10557 
4 10593 10587 10062 10853 
4 721 616 10957 10296 
4 10558 10155 10492 10081 
4 10837 10229 10379 10434 
4 10897 10325 10857 10384 
4 10888 10890 10820 10395 
4 10252 10433 10874 10213 
4 10237 10885 10741 10640 
4 10573 10789 10144 10559 
4 10218 10631 10833 10400 
4 10404 10861 10583 10338 
4 10329 10421 10577 10830 
4 721 616 13 10052 
4 10855 10893 10311 10737 
4 10443 10036 10554 10035 
4 10789 10709 10270 10279 
4 10804 10143 637 10527 
4 10628 10483 10842 10332 
4 10605 10104 10149 10308 
4 10178 10244 10552 10547 
4 10335 10631 10135 10632 
4 10816 10746 10226 10476 
4 10336 10424 10583 10196 
4 10713 10779 10286 10827 
4 638 10143 10292 10544 
4 10379 10251 10644 10478 
4 10627 10482 10724 10726 
4 10133 10882 10866 10615 
4 10886 10954 10390 10447 
4 10735 10608 10913 10247 
4 10228 10250 10359 10710 
4 10843 10333 10748 10220 
4 10120 10249 10125 10638 
4 10307 10365 10666 10265 
4 10789 10873 10067 10270 
4 721 15 10957 10052 
4 10121 10771 10435 10106 
4 10662 10092 600 10085 
4 10429 10480 10548 10810 
4 10841 10771 10106 10875 
4 636 10521 10700 10283 
4 729 10050 10956 10295 
4 10789 10709 10279 10692 
4 10083 10598 10656 10568 
4 10090 10207 10690 10604 
4 10183 10798 10738 10260 
4 10572 10039 10558 10796 
4 10068 10055 10328 10590 
4 10046 10299 10854 10295 
4 10950 10886 10319 10447 
4 10593 10587 10369 10062 
4 10870 10367 10136 10436 
4 10821 10398 10217 10406 
4 10375 10605 10734 10912 
4 10119 10335 10135 10632 
4 10667 10096 10570 10675 
4 10877 10210 10193 10345 
4 10235 10835 10196 10875 
4 10783 10222 10439 10379 
4 10716 10879 10345 10348 
4 665 10088 589 588 
4 10222 10783 10895 10229 
4 10853 10397 10064 10425 
4 10591 10361 10904 10581 
4 10617 10628 10332 10114 
4 10708 10207 10141 10298 
4 10445 10354 10624 10108 
4 10239 10761 10764 10762 
4 587 664 10695 663 
4 715 10697 653 716 
4 10743 10199 10402 10224 
4 10784 10840 10269 10433 
4 10876 10715 10372 10754 
4 10100 10900 10647 10712 
4 10412 10592 10197 10071 
4 10909 10064 10407 10425 
4 10836 10376 10782 10645 
4 10631 10725 10218 10833 
4 10672 10076 10277 10952 
4 10773 10187 10222 10356 
4 10813 10709 10146 10729 
4 684 685 610 10694 
4 630 694 10696 695 
4 10834 10836 10234 10846 
4 10950 10738 10856 10260 
4 10201 10711 10261 10101 
4 10842 10476 10747 10132 
4 10460 10555 10464 10907 
4 10207 10788 10690 10604 
4 10811 10823 10236 10943 
4 10618 10410 10118 10629 
4 10779 10763 10405 10414 
4 10588 10061 10574 10863 
4 10034 10035 10392 10549 
4 10667 10306 10657 10570 
4 10789 10067 10323 10144 
4 10574 10288 10787 10408 
4 729 624 10295 728 
4 10783 10773 10222 10895 
4 10441 10423 10665 10930 
4 10078 10515 10172 602 
4 10280 10145 10679 10791 
4 10861 10941 10583 10338 
4 10674 662 586 663 
4 10110 10613 10277 10664 
4 10589 10720 10422 10329 
4 10212 10819 10887 10725 
4 10954 10469 10390 10447 
4 10818 10394 10888 10820 
4 10833 10400 10614 10449 
4 10342 10876 10370 10191 
4 10825 10245 10263 10167 
4 610 10175 10564 10694 
4 10460 10550 10188 10428 
4 10834 10836 10643 10381 
4 10674 662 10569 10154 
4 722 617 721 10296 
4 10626 10779 10763 10405 
4 10377 10189 10778 10318 
4 10055 10852 10339 10328 
4 10627 10326 10832 10205 
4 10674 662 10154 586 
4 10803 10466 10913 10247 
4 10659 10307 10923 10666 
4 687 10598 10083 10568 
4 10419 10906 10438 10808 
4 10230 10214 10120 10760 
4 673 10305 597 672 
4 10067 10789 10279 10144 
4 10175 10561 10564 10140 
4 10956 10046 10703 10854 
4 10057 10914 10382 10360 
4 694 10042 629 630 
4 10813 10709 10692 10165 
4 10049 10959 729 14 
4 10068 10055 10590 10057 
4 10720 10198 10718 10882 
4 724 619 10954 10469 
4 10863 10865 10293 10895 
4 10794 10040 10557 10054 
4 10731 10883 10387 10903 
4 10214 10763 10120 10760 
4 10153 10510 10501 10598 
4 10913 10735 10247 10101 
4 10826 10553 10318 10181 
4 10829 10765 10440 10899 
4 10954 10896 10469 10447 
4 10248 10074 10353 10707 
4 10661 704 10687 10099 
4 10166 10074 10280 10693 
4 10150 10658 10183 10798 
4 10897 10457 10955 10399 
4 10302 10857 10312 10297 
4 10215 10482 10726 10216 
4 10765 10240 10472 10440 
4 10619 10134 10345 10119 
4 10417 10796 10786 10477 
4 10350 10460 10555 10464 
4 10419 10032 10850 10808 
4 10183 10150 10798 10260 
4 10841 10785 10351 10612 
4 641 10178 10179 705 
4 10097 10160 10768 10082 
4 10118 10842 10132 10332 
4 10753 10358 10833 10871 
4 10184 10785 10137 10351 
4 10343 10576 10834 10848 
4 10779 10327 10186 10414 
4 10942 10240 10230 10472 
4 661 10569 585 10043 
4 10624 10445 10650 10881 
4 10786 10238 10477 10766 
4 10369 10593 10062 10064 
4 10610 10462 10432 10138 
4 10471 10177 674 598 
4 10038 10687 10178 10099 
4 10651 10613 10832 10436 
4 10084 10567 718 655 
4 10942 10230 10760 10765 
4 10093 644 10683 10149 
4 10100 10712 10467 10102 
4 10684 10498 10155 10161 
4 10718 10413 10329 10872 
4 10268 10309 10901 10607 
4 10725 10212 10406 10218 
4 10228 10810 10241 10884 
4 10787 10408 10267 10187 
4 10863 10408 10356 10293 
4 10711 10237 10261 10640 
4 10448 10237 10741 10640 
4 10581 10572 10053 10281 
4 10228 10330 10810 10884 
4 10098 10781 10937 10033 
4 10553 10208 10181 10916 
4 10720 10718 10329 10830 
4 10662 10825 10245 10688 
4 10711 10885 10237 10640 
4 10956 10046 10854 10295 
4 10186 10779 10829 10551 
4 701 10544 10804 10527 
4 10515 10802 678 10496 
4 10627 10628 10482 10726 
4 10874 10213 10834 10641 
4 10203 10773 10187 10222 
4 10091 10693 10603 10562 
4 10440 10034 10461 10899 
4 10371 10475 10945 10458 
4 10229 10222 10837 10379 
4 10139 10433 10246 10750 
4 660 10599 10511 10500 
4 10597 719 10531 10540 
4 10658 10922 10183 10798 
4 10074 10248 10280 10707 
4 10731 10194 10387 10348 
4 10873 10789 10709 10270 
4 10774 10122 10130 10128 
4 10152 10302 10599 10799 
4 10719 10195 10883 10721 
4 10658 10084 718 10597 
4 10292 639 10533 10274 
4 10827 10327 10304 10551 
4 10942 10230 10765 10472 
4 10652 10105 10745 10450 
4 10455 10268 10309 10901 
4 612 10310 686 10568 
4 10886 10818 10474 10390 
4 10275 10361 10904 10182 
4 10438 10722 10359 10808 
4 680 10558 10492 10081 
4 10865 10588 10063 10594 
4 10409 10286 10263 10733 
4 10656 10211 10441 10930 
4 10665 10423 10310 10109 
4 10394 10818 10888 10390 
4 704 10687 641 705 
4 10840 10770 10111 10252 
4 10462 10100 10900 10647 
4 10391 10353 10707 10921 
4 10374 10571 10575 10788 
4 10831 10719 10066 10873 
4 10706 10275 10904 10182 
4 10877 10717 10716 10210 
4 10813 10919 10146 10953 
4 10353 10905 10707 10921 
4 695 10174 631 10562 
4 10462 10610 10900 10138 
4 10763 10120 10760 10638 
4 653 10697 10076 716 
4 10626 10779 10405 10713 
4 10042 10147 630 10696 
4 10227 10376 10249 10645 
4 10279 10789 10692 10602 
4 10863 10408 10187 10356 
4 10471 598 10689 10098 
4 10128 10130 10643 10381 
4 10651 10615 10326 10832 
4 10879 10619 10345 10119 
4 10355 10917 10825 10263 
4 10631 10727 10335 10218 
4 10302 10947 10857 10297 
4 10174 630 10696 695 
4 10228 10330 10722 10359 
4 10320 10908 10910 10579 
4 10866 10133 10615 10326 
4 10410 10393 10880 10113 
4 10722 10228 10359 10884 
4 724 619 723 10463 
4 10630 10758 10190 10747 
4 10715 10908 10191 10328 
4 10947 10302 10704 10297 
4 10466 10913 10247 10101 
4 10667 10180 10354 10931 
4 582 10049 10489 659 
4 10309 10793 10901 10607 
4 10740 10228 10241 10884 
4 10940 10069 10421 10577 
4 10464 10555 10859 10907 
4 10419 10438 10359 10808 
4 10885 10446 10201 10237 
4 10417 10786 10238 10477 
4 10763 10214 10405 10414 
4 10438 10906 10858 10722 
4 10631 10335 10135 10400 
4 10730 10386 10866 10878 
4 10286 10713 10827 10733 
4 10771 10357 10200 10106 
4 10162 10676 10528 10094 
4 10146 10919 10729 10450 
4 10601 10168 608 10509 
4 10605 10375 10308 10912 
4 10948 10638 10341 10473 
4 713 10676 10169 10604 
4 10038 10824 10687 10099 
4 10615 10403 10651 10326 
4 673 10689 10305 10663 
4 10349 10087 10285 10792 
4 10047 658 720 10051 
4 10617 10628 10842 10332 
4 10096 628 10570 693 
4 10324 10736 10854 10892 
4 10630 10410 10880 10113 
4 10339 10715 10191 10328 
4 10403 10613 10651 10436 
4 10682 10292 10533 10274 
4 10432 10838 10267 10187 
4 10237 10885 10943 10411 
4 10036 10548 10554 10035 
4 10409 10901 10713 10733 
4 10130 10252 10874 10213 
4 10584 10321 10412 10933 
4 10226 10317 10758 10190 
4 10432 10610 10138 10267 
4 10456 10853 10921 10425 
4 10302 10799 10257 10857 
4 10190 10630 10747 10132 
4 10153 10598 10452 10083 
4 10765 10822 10440 10899 
4 10098 10781 10033 10262 
4 10732 10826 10314 10824 
4 10763 10626 10120 10638 
4 10736 10324 10431 10892 
4 10801 10255 10289 10657 
4 10554 10034 10899 10549 
4 10445 10396 10650 10881 
4 10058 10068 10914 10057 
4 10373 10342 10372 10754 
4 10841 10106 10233 10875 
4 10605 10375 10104 10308 
4 686 10310 10673 10568 
4 10706 10275 10790 10904 
4 10346 10418 10757 10391 
4 10173 587 588 664 
4 10423 10623 10113 10109 
4 10613 10110 10277 10367 
4 10667 10266 10096 10675 
4 10598 10153 613 10083 
4 10306 10180 10667 10657 
4 10630 10190 10410 10132 
4 10151 626 10301 10705 
4 10394 10888 10468 10390 
4 10775 10655 10121 10481 
4 716 654 717 10672 
4 10674 10154 10666 10265 
4 10784 10269 10139 10433 
4 10782 10227 10485 10639 
4 10701 647 10517 10082 
4 10649 10880 10623 10113 
4 10393 10211 10880 10930 
4 10946 616 10294 10051 
4 10569 662 661 585 
4 10567 717 718 655 
4 10267 10838 10773 10187 
4 729 624 10050 10295 
4 10393 10880 10113 10930 
4 724 619 10469 723 
4 10629 10118 10617 10842 
4 10302 10704 10799 10857 
4 10153 10510 10598 613 
4 10313 10873 10185 10067 
4 10139 10784 10868 10571 
4 10036 10898 10443 10554 
4 698 10529 10157 10685 
4 10793 10309 10901 10611 
4 10873 10185 10067 10270 
4 10908 10320 10910 10328 
4 10302 10704 10599 10799 
4 10919 10146 10953 10450 
4 10150 10084 10597 10044 
4 10593 10070 10915 10586 
4 684 10561 10564 609 
4 10462 10838 10610 10432 
4 10275 10691 10706 10790 
4 10361 10790 10581 10281 
4 10561 10140 609 10089 
4 10630 10410 10618 10629 
4 10037 10546 10036 10858 
4 10863 10574 10787 10408 
4 10764 10828 10898 10427 
4 10918 10110 10613 10651 
4 10613 10110 10367 10403 
4 703 640 10661 10158 
4 10751 10404 10233 10184 
4 685 10075 610 10694 
4 10368 10195 10362 10883 
4 10308 10605 10912 10805 
4 10405 10779 10414 10286 
4 10136 10870 10205 10752 
4 10321 10911 10909 10407 
4 10090 651 714 652 
4 10074 10147 10939 10166 
4 10852 10364 10055 10339 
4 10259 10767 10797 10787 
4 10068 10320 10579 10328 
4 718 10084 656 10540 
4 10135 10631 10616 10867 
4 10069 10421 10343 10848 
4 10897 10457 10384 728 
4 10701 10805 10160 10768 
4 10619 10633 10134 10333 
4 10662 10925 10092 10167 
4 10827 10304 10555 10551 
4 10158 10661 10442 10099 
4 10792 10349 10900 10138 
4 10667 10354 10266 10929 
4 10410 10649 10618 10373 
4 10719 10195 10745 10883 
4 10829 10765 10472 10440 
4 10659 10569 661 10043 
4 611 685 10075 610 
4 10687 10934 10178 10552 
4 10627 10482 10334 10326 
4 10567 10672 10095 10664 
4 10067 10789 10323 10582 
4 10702 10798 10597 10300 
4 10653 10740 10454 10760 
4 10699 593 10282 10491 
4 10069 10940 10848 10577 
4 10139 10271 10868 10246 
4 10580 10057 10056 10894 
4 10647 10949 10444 10625 
4 10925 10263 10453 10167 
4 684 610 10564 10694 
4 10893 10855 10311 10430 
4 10455 10901 10611 10839 
4 10556 10471 10689 10937 
4 10419 10244 10547 10936 
4 10180 10199 10445 10931 
4 10907 10464 10337 10723 
4 10249 10776 10125 10638 
4 10567 10658 10664 10080 
4 10734 10375 10032 10104 
4 10898 10764 10427 10823 
4 10313 10585 10941 10338 
4 10169 10676 10276 10604 
4 10789 10144 10559 10678 
4 10454 10230 10120 10760 
4 10357 10771 10200 10622 
4 10444 10107 10625 10315 
4 10630 10880 10649 10113 
4 10107 10647 10444 10625 
4 10628 10115 10334 10114 
4 10740 10415 10228 10884 
4 10567 10658 10084 718 
4 10859 10464 10907 10723 
4 10231 10761 10239 10762 
4 10423 10393 10113 10930 
4 10774 10653 10124 10122 
4 10056 10864 10862 10581 
4 10633 10396 10134 10322 
4 10905 10353 10456 10921 
4 10367 10664 10922 10080 
4 10716 10877 10210 10193 
4 10345 10879 10119 10348 
4 10485 10249 10341 10639 
4 10098 598 673 10305 
4 10292 10143 10682 10544 
4 10653 10415 10122 10454 
4 10068 10908 10579 10590 
4 10949 10444 10625 10315 
4 10574 10061 10072 10408 
4 10508 10170 589 10602 
4 10369 10356 10895 10229 
4 10394 10888 10820 10395 
4 10097 10040 10794 10054 
4 10591 10580 10056 10864 
4 10840 10111 10206 10269 
4 623 10947 10297 10384 
4 10083 10441 10310 10568 
4 10686 706 10179 705 
4 10662 10092 676 600 
4 10195 10368 10745 10883 
4 10239 10223 10828 10377 
4 10947 623 624 728 
4 720 10958 10051 10518 
4 10843 10633 10619 10333 
4 10575 10060 10788 10872 
4 636 10259 10700 10077 
4 10138 10610 10259 10267 
4 10169 10539 10537 10604 
4 10413 10198 10718 10329 
4 10610 10792 10900 10138 
4 10213 10834 10641 10221 
4 10061 10145 10574 10072 
4 10772 10264 10839 10485 
4 584 661 585 10043 
4 10177 10085 10688 599 
4 10130 10643 10381 10641 
4 10124 10653 10770 10635 
4 10922 10870 10183 10738 
4 10346 10210 10755 10112 
4 10117 10105 10652 10400 
4 10341 10455 10648 10389 
4 10273 10305 10663 672 
4 10749 10748 10817 10220 
4 10880 10623 10113 10930 
4 10838 10787 10267 10773 
4 598 10689 10098 673 
4 10914 10836 10846 10382 
4 10361 10364 10904 10182 
4 10062 10587 10594 10853 
4 10853 10064 10909 10425 
4 10237 10448 10261 10640 
4 10553 10546 10037 10858 
4 10093 643 10660 707 
4 10238 10159 10766 10611 
4 618 10896 723 722 
4 10355 10825 10245 10263 
4 10320 10908 10579 10328 
4 691 10151 10530 10600 
4 10139 10097 10794 10054 
4 10212 10819 10725 10406 
4 10249 10645 10776 10638 
4 10896 618 617 722 
4 10317 10816 10844 10344 
4 10199 10445 10931 10881 
4 10919 10652 10745 10450 
4 10662 10825 10925 10167 
4 10119 10333 10335 10632 
4 10107 10625 10778 10712 
4 10698 604 10159 10477 
4 10119 10879 10867 10348 
4 10034 10554 10899 10035 
4 10557 10571 10374 10788 
4 10745 10368 10729 10450 
4 10307 10202 10923 10449 
4 10396 10634 10402 10378 
4 10201 10711 10237 10261 
4 10785 10184 10573 10869 
4 10631 10725 10727 10218 
4 10702 10597 10044 10300 
4 10877 10619 10134 10345 
4 10789 10163 10279 10144 
4 10313 10831 10873 10067 
4 10313 10831 10067 10582 
4 691 10151 626 10530 
4 10455 10839 10639 10648 
4 10465 10944 10451 726 
4 10615 10627 10326 10832 
4 10653 10774 10124 10770 
4 10816 10226 10820 10395 
4 598 673 10305 597 
4 10898 10036 10858 10548 
4 10069 10578 10059 10320 
4 10268 10409 10148 10607 
4 10133 10116 10615 10326 
4 10359 10722 10884 10710 
4 10415 10653 10740 10454 
4 10619 10877 10879 10345 
4 10749 10378 10219 10759 
4 10588 10459 10905 10791 
4 10945 724 10458 10891 
4 10795 10073 10287 10479 
4 10722 10359 10808 10710 
4 10418 10757 10391 10815 
4 10745 10368 10362 10883 
4 10589 10902 10932 10422 
4 10330 10228 10810 10241 
4 10137 10331 10612 10284 
4 10723 10337 10809 10446 
4 10870 10136 10738 10243 
4 10076 654 716 10672 
4 703 639 640 10158 
4 10075 10175 610 10694 
4 10091 10280 632 10603 
4 10074 10391 10353 10707 
4 10147 10174 10566 10166 
4 10106 10435 10233 10875 
4 10468 10465 10890 10395 
4 10831 10873 10067 10582 
4 10417 10264 10786 10272 
4 10186 10779 10414 10829 
4 10319 10886 10474 10390 
4 10365 10919 10953 10265 
4 10753 10212 10358 10204 
4 10861 10347 10404 10323 
4 10618 10876 10342 10754 
4 10771 10200 10622 10841 
4 10711 10622 10640 10101 
4 10040 10671 10794 10596 
4 10445 10354 10931 10624 
4 10810 10330 10722 10884 
4 627 10541 10600 692 
4 10349 10792 10900 10606 
4 10724 10205 10319 10216 
4 10280 632 10603 10171 
4 605 680 10492 10081 
4 691 626 10705 10525 
4 10263 10825 10925 10733 
4 10709 10270 10279 10692 
4 10594 10456 10397 10853 
4 10094 10557 10374 10788 
4 10870 10136 10832 10436 
4 10886 10724 10319 10474 
4 10250 10375 10710 10621 
4 10164 10157 10685 10145 
4 10105 10368 10745 10450 
4 10772 10894 10862 10272 
4 10524 10047 658 720 
4 10169 10276 10090 10604 
4 10140 10089 10691 10275 
4 10176 10563 10812 10697 
4 10792 10285 10138 10283 
4 10863 10787 10773 10187 
4 10234 10058 10846 10382 
4 10689 10098 673 10305 
4 10817 10475 10484 10219 
4 10111 10840 10252 10433 
4 10870 10367 10922 10136 
4 10570 10096 693 10675 
4 10836 10643 10376 10645 
4 10374 10094 10788 10276 
4 10876 10878 10370 10714 
4 654 717 10672 10095 
4 604 10698 10159 10490 
4 10145 10685 10574 10072 
4 717 10567 10672 10095 
4 10850 10419 10547 10936 
4 10608 10803 10913 10247 
4 10569 10154 585 10043 
4 10737 10402 10759 10224 
4 10423 10441 10665 10310 
4 10873 10185 10270 10316 
4 10731 10193 10194 10348 
4 10343 10576 10213 10221 
4 10151 627 10541 10600 
4 10942 10240 10416 10230 
4 10364 10852 10920 10339 
4 10803 10608 10142 10247 
4 10691 10140 10275 10182 
4 10950 10896 10447 10856 
4 10822 10240 10765 10440 
4 10175 10340 10938 10806 
4 10565 10088 10692 10602 
4 10795 10573 10073 10559 
4 10278 10851 10337 10809 
4 10661 10256 10274 10158 
4 10719 10066 10185 10316 
4 10622 10261 10640 10101 
4 10482 10205 10724 10216 
4 10643 10128 10381 10376 
4 674 10177 599 598 
4 10749 10378 10220 10219 
4 10151 691 626 10705 
4 10175 684 10564 609 
4 10055 10590 10057 10580 
4 10168 10507 10677 682 
4 10555 10350 10464 10859 
4 10188 10460 10464 10907 
4 10898 10036 10548 10554 
4 10623 10254 10113 10109 
4 10737 10743 10402 10224 
4 10720 10902 10422 10198 
4 10178 10552 10179 705 
4 10480 10037 10036 10858 
4 10787 10267 10773 10187 
4 10048 10957 10855 10705 
4 10189 10107 10778 10712 
4 10279 10088 10692 10165 
4 594 10282 670 10142 
4 10060 10374 10788 10207 
4 10724 10818 10726 10216 
4 10950 10896 10886 10447 
4 699 635 10077 10523 
4 10061 10574 10863 10408 
4 10379 10439 10642 10251 
4 10902 10209 10422 10198 
4 10888 10394 10468 10395 
4 10208 10038 10934 10178 
4 10613 10110 10403 10651 
4 10055 10852 10328 10590 
4 629 694 693 10675 
4 10195 10883 10420 10387 
4 10785 10795 10184 10287 
4 10392 10034 10549 10859 
4 10906 10037 10438 10858 
4 10633 10396 10620 10134 
4 10629 10118 10842 10132 
4 10877 10717 10210 10755 
4 10505 10503 10681 10291 
4 10771 10200 10841 10106 
4 10299 10800 10324 10452 
4 10827 10917 10304 10263 
4 10212 10753 10951 10204 
4 10550 10460 10188 10907 
4 10198 10413 10718 10366 
4 10769 10795 10303 10699 
4 10092 601 676 600 
4 10769 10282 10258 10284 
4 10621 10840 10126 10206 
4 10634 10881 10402 10759 
4 10852 10908 10328 10590 
4 10804 10521 637 10283 
4 10842 10746 10476 10332 
4 10777 10127 10481 10129 
4 10151 627 10600 10289 
4 10591 10364 10852 10920 
4 10410 10649 10373 10113 
4 10621 10250 10126 10635 
4 10356 10863 10293 10895 
4 10086 10178 10686 10179 
4 10465 10944 10890 10380 
4 10210 10717 10407 10425 
4 609 10089 608 683 
4 10361 10275 10790 10281 
4 10935 10177 10688 10556 
4 10353 10456 10063 10594 
4 10911 10321 10933 10197 
4 10460 10355 10550 10428 
4 10202 10290 10799 10257 
4 10048 10855 10301 10705 
4 630 10147 10174 10696 
4 10642 10251 10131 10127 
4 10136 10870 10832 10205 
4 10223 10828 10377 10778 
4 10230 10763 10760 10765 
4 10519 10957 10052 625 
4 632 10603 10171 10538 
4 10178 10244 10686 10552 
4 10803 10769 10612 10284 
4 10151 691 10705 10600 
4 10475 10817 10371 10945 
4 10697 10076 716 10672 
4 10923 10202 10871 10449 
4 10543 697 10164 10685 
4 10090 714 10604 10563 
4 10633 10134 10333 10322 
4 10885 10237 10741 10411 
4 10325 10457 10897 10399 
4 10448 10655 10121 10640 
4 10106 10841 10233 10351 
4 10588 10061 10293 10063 
4 10953 10674 10666 10265 
4 10514 10497 10142 595 
4 10840 10206 10609 10269 
4 10922 10367 10183 10136 
4 10321 10584 10412 10065 
4 10805 10609 10232 10768 
4 10175 10564 10694 10806 
4 10852 10908 10715 10339 
4 10175 10075 10340 10806 
4 10174 10566 10166 10562 
4 10033 10927 10278 10262 
4 10706 10364 10904 10920 
4 10593 10064 10586 10909 
4 10857 10312 10297 10384 
4 10203 10783 10773 10222 
4 10202 10307 10923 10290 
4 10649 10254 10373 10113 
4 10367 10922 10183 10080 
4 10592 10903 10933 10197 
4 10240 10942 10765 10472 
4 10772 10862 10786 10272 
4 10786 10264 10238 10611 
4 593 10699 10282 10258 
4 10565 10813 10692 10165 
4 10740 10942 10416 10760 
4 10818 10886 10954 10390 
4 10628 10334 10332 10114 
4 10918 10110 10952 10664 
4 614 10046 10153 10703 
4 10157 10685 10145 10072 
4 10152 10302 10799 10257 
4 10198 10720 10718 10329 
4 10476 10190 10747 10132 
4 665 10565 588 664 
4 10563 714 715 652 
4 10553 10037 10208 10547 
4 10205 10752 10319 10243 
4 10416 10942 10230 10760 
4 10772 10264 10786 10839 
4 10888 10468 10890 10395 
4 10778 10826 10546 10318 
4 10817 10220 10475 10219 
4 10934 10208 10552 10547 
4 10456 10063 10594 10397 
4 10631 10135 10616 10400 
4 10034 10554 10035 10549 
4 10310 10665 10673 10568 
4 10862 10056 10053 10272 
4 10346 10456 10921 10425 
4 10343 10834 10221 10059 
4 10442 10661 10924 10824 
4 10105 10365 10614 10449 
4 10847 10065 10434 10424 
4 10768 10701 10794 10082 
4 10710 10250 10621 10635 
4 10055 10591 10580 10056 
4 10655 10771 10121 10640 
4 631 10174 10166 10562 
4 10740 10415 10884 10635 
4 10906 10553 10037 10858 
4 10210 10877 10755 10112 
4 10926 10093 10437 10780 
4 10197 10592 10721 10071 
4 10056 10591 10864 10581 
4 10244 10086 10178 10686 
4 10917 10460 10304 10355 
4 10546 10426 10037 10036 
4 10789 10163 10144 10678 
4 10208 10244 10178 10547 
4 10675 10042 10696 10807 
4 10324 10854 10431 10892 
4 10771 10357 10121 10640 
4 10183 10738 10243 10260 
4 10844 10816 10944 10344 
4 10867 10879 10731 10348 
4 10095 10672 10277 10664 
4 10259 10700 10077 10670 
4 10908 10068 10328 10590 
4 718 10084 655 656 
4 10939 10147 10566 10166 
4 10222 10783 10229 10837 
4 10787 10863 10408 10187 
4 10100 10732 10712 10102 
4 10947 624 729 728 
4 10897 10457 728 727 
4 628 10306 10096 10570 
4 10085 600 675 599 
4 10794 10557 10571 10054 
4 10771 10435 10106 10875 
4 10834 10221 10059 10234 
4 10138 10259 10767 10283 
4 10735 10711 10201 10101 
4 10743 10255 10801 10657 
4 609 10561 10089 683 
4 10467 10732 10314 10102 
4 10175 684 610 10564 
4 10598 10452 10083 10656 
4 10819 10212 10887 10406 
4 631 10091 696 10562 
4 10045 10704 10959 659 
4 10401 10364 10920 10339 
4 10746 10215 10476 10332 
4 658 720 10051 10518 
4 10275 10361 10790 10904 
4 10264 10352 10772 10272 
4 10442 10314 10388 10824 
4 10587 10865 10062 10594 
4 10044 10702 10300 10047 
4 10313 10831 10347 10941 
4 10150 10658 10084 10080 
4 10851 10033 10927 10278 
4 10288 10574 10072 10408 
4 10349 10256 10606 10102 
4 10727 10631 10335 10632 
4 10251 10129 10644 10478 
4 10424 10835 10583 10196 
4 10901 10648 10389 10713 
4 10043 10659 10152 10599 
4 10117 10616 10652 10745 
4 10454 10122 10776 10125 
4 10873 10719 10316 10729 
4 10094 10571 10054 10374 
4 10307 10659 10569 10666 
4 10686 10086 706 643 
4 612 687 10083 10568 
4 10834 10836 10381 10234 
4 10592 10903 10197 10721 
4 10709 10873 10316 10729 
4 10735 10278 10608 10247 
4 10877 10620 10112 10134 
4 10717 10909 10716 10407 
4 10085 675 10688 599 
4 10349 10256 10087 10606 
4 10210 10717 10193 10407 
4 616 10946 617 721 
4 10306 10667 10096 10570 
4 10156 10499 10595 10678 
4 10738 10950 10243 10260 
4 10302 10704 10297 10045 
4 10642 10379 10251 10644 
4 10948 10341 10639 10648 
4 10160 10805 10232 10768 
4 10717 10346 10921 10425 
4 10833 10631 10616 10400 
4 10779 10405 10713 10286 
4 10409 10268 10389 10713 
4 10786 10264 10611 10839 
4 10317 10816 10226 10758 
4 10066 10831 10873 10185 
4 10154 10674 586 10041 
4 10659 10290 10599 10799 
4 10826 10553 10546 10318 
4 10755 10877 10620 10112 
4 10737 10311 10224 10430 
4 10658 10150 10183 10080 
4 10208 10178 10552 10547 
4 10686 10178 10552 10179 
4 10683 645 708 10545 
4 10475 10817 10484 10845 
4 10248 10693 10707 10791 
4 10630 10410 10649 10618 
4 10264 10772 10786 10272 
4 10064 10321 10586 10909 
4 10455 10839 10485 10639 
4 10605 10375 10734 10104 
4 10674 10154 10265 10041 
4 10837 10379 10642 10644 
4 10388 10826 10181 10916 
4 10797 10259 10787 10267 
4 10254 10623 10928 10109 
4 10813 10173 10146 10165 
4 10746 10842 10476 10747 
4 10250 10375 10621 10126 
4 10862 10056 10581 10053 
4 10623 10423 10665 10109 
4 10851 10033 10278 10337 
4 10369 10593 10070 10915 
4 10382 10836 10376 10227 
4 10827 10825 10263 10733 
4 10658 10150 10084 10597 
4 10497 594 670 10142 
4 10879 10716 10731 10348 
4 10306 10289 10657 10570 
4 10396 10650 10881 10634 
4 10758 10630 10190 10880 
4 10153 614 10703 688 
4 598 674 10689 673 
4 10110 10298 10242 10918 
4 10103 10418 10391 10815 
4 10625 10762 10223 10778 
4 10391 10074 10815 10707 
4 10413 10708 10728 10298 
4 10253 10481 10129 10644 
4 10350 10034 10464 10859 
4 10457 623 10384 728 
4 10771 10775 10655 10121 
4 10250 10228 10884 10710 
4 10911 10731 10194 10903 
4 10596 10040 10094 10557 
4 10433 10246 10750 10213 
4 10745 10368 10316 10729 
4 10353 10391 10456 10921 
4 10046 10299 10153 10703 
4 10299 10153 10800 10452 
4 10364 10706 10182 10920 
4 10788 10708 10207 10690 
4 10628 10482 10483 10334 
4 10236 10237 10943 10411 
4 10610 10792 10138 10767 
4 10719 10745 10316 10729 
4 10908 10715 10339 10328 
4 10435 10771 10646 10875 
4 10062 10593 10853 10064 
4 10136 10870 10752 10243 
4 10934 10208 10178 10552 
4 10308 10079 10805 10232 
4 10460 10917 10555 10550 
4 10840 10252 10433 10874 
4 10222 10783 10837 10379 
4 10107 10647 10625 10712 
4 10553 10208 10916 10547 
4 10122 10653 10454 10776 
4 10585 10831 10313 10941 
4 10352 10264 10772 10485 
4 10321 10584 10586 10933 
4 10608 10273 10291 10247 
4 10484 10737 10224 10430 
4 10264 10417 10786 10238 
4 10663 10273 10681 10608 
4 10094 10557 10571 10374 
4 10939 10074 10166 10693 
4 10415 10740 10416 10454 
4 10364 10591 10361 10904 
4 10589 10578 10320 10932 
4 10261 10448 10121 10640 
4 10117 10135 10616 10362 
4 10311 10255 10301 10801 
4 10597 10798 10044 10300 
4 10258 10137 10612 10284 
4 10131 10363 10636 10949 
4 10050 10488 10956 615 
4 10873 10719 10185 10316 
4 10874 10130 10213 10641 
4 10058 10068 10320 10579 
4 681 10684 10155 10558 
4 10347 10313 10941 10338 
4 10038 10824 10934 10687 
4 10626 10948 10648 10473 
4 10744 10718 10366 10882 
4 10159 10802 603 10490 
4 10587 10593 10369 10915 
4 10418 10346 10755 10112 
4 10313 10067 10347 10582 
4 10212 10753 10358 10218 
4 10459 10588 10061 10791 
4 10613 10870 10832 10436 
4 10471 10098 10937 10428 
4 10147 10807 10939 10566 
4 662 10154 586 585 
4 10931 10445 10624 10881 
4 10609 10784 10269 10768 
4 10354 10667 10266 10096 
4 10510 10501 10598 688 
4 691 10530 10541 10600 
4 10136 10832 10436 10205 
4 10959 10947 624 729 
4 10901 10268 10409 10713 
4 10855 10296 10311 10430 
4 10756 10254 10372 10754 
4 10944 727 10451 726 
4 10717 10853 10909 10425 
4 10724 10818 10216 10474 
4 10457 623 728 727 
4 10147 10174 10696 10566 
4 10299 10153 10703 10800 
4 10318 10553 10037 10181 
4 10135 10117 10616 10400 
4 10382 10360 10782 10227 
4 10613 10367 10870 10436 
4 10364 10591 10904 10920 
4 10307 10659 10923 10290 
4 10584 10847 10070 10586 
4 10460 10917 10304 10555 
4 10199 10445 10881 10402 
4 677 10680 10502 10504 
4 10682 702 10535 10533 
4 10512 10684 682 10161 
4 10189 10107 10712 10467 
4 10816 10317 10226 10344 
4 10482 10483 10215 10726 
4 706 642 10179 705 
4 715 10176 652 653 
4 10037 10480 10438 10858 
4 10895 10369 10229 10915 
4 10689 10781 10305 10663 
4 619 618 723 10463 
4 10598 613 687 10083 
4 10254 10649 10623 10113 
4 586 587 10041 663 
4 10561 10938 10564 10140 
4 10419 10906 10850 10547 
4 10800 10742 10324 10452 
4 10812 10728 10298 10918 
4 10575 10830 10060 10872 
4 10938 10175 10564 10140 
4 10795 10769 10303 10287 
4 616 10946 721 10958 
4 10749 10378 10322 10220 
4 10086 642 706 643 
4 10110 10242 10403 10651 
4 10443 10427 10392 10823 
4 10457 623 727 622 
4 10938 10140 10691 10706 
4 10040 10094 10557 10054 
4 10199 10743 10311 10224 
4 10885 10811 10723 10446 
4 10709 10873 10270 10316 
4 10811 10392 10549 10859 
4 697 10164 10685 10679 
4 10833 10616 10652 10400 
4 10188 10851 10907 10337 
4 10092 10662 10167 10085 
4 10353 10905 10456 10594 
4 10246 10576 10750 10213 
4 10769 10303 10287 10258 
4 10661 10256 10158 10924 
4 10195 10362 10883 10387 
4 704 640 641 10099 
4 10231 10761 10123 10411 
4 10743 10255 10311 10801 
4 10730 10192 10386 10370 
4 10944 10465 10451 10380 
4 10271 10139 10868 10054 
4 10365 10307 10666 10614 
4 10841 10200 10331 10351 
4 10355 10935 10550 10428 
4 10083 10656 10441 10568 
4 628 692 10570 693 
4 10610 10138 10259 10767 
4 10206 10609 10269 10232 
4 10273 10681 10608 10291 
4 10089 10691 10275 10601 
4 10629 10842 10747 10132 
4 10251 10642 10131 10385 
4 10357 10771 10622 10640 
4 10706 10401 10182 10920 
4 724 619 10463 10458 
4 10285 10804 637 10283 
4 10828 10377 10426 10427 
4 10642 10131 10777 10127 
4 10861 10347 10323 10582 
4 10825 10263 10925 10167 
4 10321 10584 10065 10586 
4 10435 10481 10253 10646 
4 10770 10252 10874 10641 
4 10763 10230 10214 10472 
4 10576 10874 10750 10213 
4 10203 10783 10222 10385 
4 10367 10277 10664 10080 
4 10252 10130 10874 10641 
4 10744 10242 10918 10651 
4 619 618 10469 723 
4 690 10957 10048 10705 
4 10205 10136 10752 10243 
4 10567 10095 10084 10080 
4 10578 10058 10059 10320 
4 10245 10935 10177 10688 
4 10849 10336 10583 10338 
4 10837 10379 10478 10383 
4 10037 10553 10208 10181 
4 10716 10193 10731 10348 
4 10878 10730 10370 10714 
4 10095 10567 10084 655 
4 10346 10717 10210 10425 
4 10259 10767 10787 10267 
4 10784 10269 10097 10139 
4 10452 10083 10656 10441 
4 10737 10484 10759 10845 
4 10578 10069 10589 10320 
4 10743 10199 10931 10881 
4 10719 10066 10873 10185 
4 10128 10249 10776 10125 
4 10264 10238 10611 10839 
4 10110 10277 10952 10664 
4 10347 10067 10323 10582 
4 10828 10426 10898 10427 
4 10254 10373 10372 10754 
4 10798 10856 10260 10300 
4 10116 10403 10615 10326 
4 10397 10062 10853 10064 
4 10659 10307 10569 10043 
4 10716 10911 10731 10194 
4 10299 10324 10854 10295 
4 10288 10259 10797 10267 
4 10209 10902 10730 10882 
4 689 10956 10046 10703 
4 10164 697 10171 10679 
4 10189 10223 10377 10778 
4 10836 10381 10234 10382 
4 10781 10098 10305 10262 
4 10150 10658 10798 10597 
4 10186 10350 10304 10551 
4 10584 10847 10065 10070 
4 10213 10576 10834 10221 
4 10090 714 10563 652 
4 10561 10938 10140 10691 
4 10055 10852 10590 10580 
4 10740 10416 10454 10760 
4 10365 10307 10614 10449 
4 10919 10745 10729 10450 
4 10357 10261 10121 10640 
4 10830 10329 10060 10872 
4 10691 10275 10706 10182 
4 10035 10443 10392 10549 
4 10403 10242 10116 10651 
4 10255 10151 10801 10600 
4 594 10282 10491 670 
4 10852 10908 10339 10328 
4 10156 10595 591 10479 
4 686 685 10673 611 
4 10556 10471 10937 10428 
4 10256 10924 10606 10102 
4 10239 10231 10762 10223 
4 10455 10901 10648 10389 
4 10379 10837 10434 10383 
4 699 10560 10077 10670 
4 10230 10763 10765 10472 
4 10756 10254 10623 10928 
4 10445 10396 10881 10402 
4 10871 10833 10614 10449 
4 10763 10414 10829 10472 
4 10307 10923 10666 10614 
4 10448 10655 10123 10121 
4 10718 10413 10872 10728 
4 10069 10940 10421 10848 
4 10770 10124 10126 10252 
4 10782 10376 10227 10645 
4 10699 10769 10282 10258 
4 10813 10173 10695 10146 
4 10703 10299 10800 10854 
4 685 10673 10075 10694 
4 10788 10708 10872 10207 
4 10325 10212 10887 10951 
4 10266 10042 10675 10807 
4 10090 10563 10176 652 
4 10815 10074 10939 10707 
4 10659 10307 10043 10290 
4 10255 10199 10743 10311 
4 10341 10648 10473 10389 
4 10369 10356 10293 10895 
4 10145 10685 10679 10791 
4 10778 10189 10826 10318 
4 10655 10448 10654 10741 
4 10542 10162 10676 10528 
4 10371 10817 10845 10945 
4 10851 10907 10337 10809 
4 623 10947 10384 728 
4 10588 10905 10063 10594 
4 10587 10369 10895 10915 
4 10375 10621 10126 10206 
4 10844 10944 10451 10344 
4 10661 10158 10442 10924 
4 687 612 686 10568 
4 10225 10317 10736 10431 
4 10826 10388 10824 10916 
4 10598 10800 10452 10656 
4 10116 10744 10615 10651 
4 10762 10239 10223 10828 
4 10659 10290 10152 10599 
4 10926 10437 10032 10850 
4 10036 10480 10858 10548 
4 10498 10684 10512 10161 
4 10455 10268 10901 10389 
4 648 10671 10040 10522 
4 10308 10912 10206 10232 
4 10376 10836 10782 10227 
4 10319 10724 10216 10474 
4 10324 10854 10295 10431 
4 10587 10865 10293 10062 
4 694 10042 630 10696 
4 10413 10708 10872 10728 
4 10222 10783 10439 10385 
4 10162 10676 10094 10276 
4 10259 10610 10767 10267 
4 10244 10419 10850 10936 
4 10270 10279 10692 10165 
4 10376 10128 10249 10645 
4 10340 10928 10814 10806 
4 593 10303 10699 10258 
4 10752 10870 10738 10243 
4 10546 10426 10318 10037 
4 10451 10465 726 621 
4 10653 10415 10124 10122 
4 10912 10308 10805 10232 
4 10303 10669 10287 10479 
4 10738 10798 10856 10260 
4 10410 10118 10629 10132 
4 10642 10131 10385 10636 
4 10359 10032 10808 10710 
4 10616 10117 10652 10400 
4 665 10565 10088 588 
4 10636 10363 10647 10949 
4 10173 587 10695 10041 
4 10693 10280 10091 10603 
4 10905 10353 10063 10594 
4 10235 10835 10424 10196 
4 10576 10343 10834 10221 
4 10526 10079 646 709 
4 10173 10565 588 10165 
4 10065 10584 10070 10586 
4 690 10957 10519 625 
4 10488 689 10956 615 
4 10560 10288 10077 10797 
4 10048 10855 10296 10301 
4 10402 10219 10759 10224 
4 10603 10280 10171 10679 
4 10131 10315 10637 10127 
4 10483 10215 10746 10332 
4 10273 596 10505 10291 
4 10040 10522 10596 649 
4 10626 10638 10948 10473 
4 10209 10730 10386 10882 
4 10626 10120 10473 10405 
4 10690 10090 10604 10563 
4 10364 10706 10904 10182 
4 10317 10736 10844 10758 
4 10058 10914 10846 10382 
4 10836 10234 10846 10382 
4 10212 10725 10753 10218 
4 10668 10796 10477 10766 
4 10917 10827 10825 10263 
4 10951 10753 10739 10204 
4 10779 10763 10414 10829 
4 10092 601 10504 676 
4 10730 10192 10370 10714 
4 10248 10145 10280 10791 
4 10448 10655 10654 10123 
4 10643 10128 10645 10776 
4 10475 10484 10371 10845 
4 10096 629 693 10675 
4 10742 10211 10656 10930 
4 10585 10412 10849 10338 
4 10816 10380 10226 10395 
4 10189 10826 10318 10314 
4 10242 10744 10116 10651 
4 10660 10093 10926 10780 
4 10903 10911 10933 10197 
4 10401 10364 10182 10920 
4 10268 10901 10389 10713 
4 10689 10471 10098 10937 
4 10775 10481 10253 10644 
4 10211 10742 10880 10930 
4 10456 10397 10853 10425 
4 10831 10313 10873 10185 
4 617 10946 722 721 
4 10648 10626 10473 10389 
4 10748 10821 10217 10727 
4 10818 10394 10474 10390 
4 10613 10367 10664 10922 
4 10307 10569 10154 10666 
4 10143 10285 10804 637 
4 10917 10355 10935 10550 
4 10847 10070 10915 10434 
4 10855 10301 10705 10801 
4 10317 10225 10758 10190 
4 10633 10877 10619 10134 
4 10609 10269 10232 10768 
4 10290 10152 10599 10799 
4 10042 10147 10696 10807 
4 10119 10619 10333 10632 
4 10623 10423 10113 10930 
4 10375 10308 10912 10206 
4 10957 10048 10855 10296 
4 10836 10381 10382 10376 
4 10466 10803 10913 10284 
4 10583 10751 10196 10875 
4 582 10495 10045 659 
4 10389 10409 10713 10286 
4 10033 10851 10188 10337 
4 10598 10153 10703 688 
4 10653 10415 10740 10635 
4 10878 10617 10876 10114 
4 10558 680 10668 10081 
4 10089 10561 10691 10601 
4 10108 10757 10650 10112 
4 10785 10769 10287 10137 
4 10254 10649 10373 10754 
4 622 10451 726 621 
4 10940 10575 10421 10860 
4 618 10896 10469 723 
4 10591 10852 10055 10580 
4 10282 10803 670 10142 
4 10313 10831 10066 10185 
4 10655 10448 10741 10640 
4 10454 10416 10230 10760 
4 10743 10199 10881 10402 
4 10925 10453 10733 10607 
4 10922 10658 10183 10080 
4 10712 10732 10467 10102 
4 10337 10907 10723 10809 
4 10205 10752 10724 10319 
4 10360 10352 10782 10227 
4 10211 10452 10656 10441 
4 10744 10366 10242 10116 
4 10902 10192 10730 10910 
4 10057 10914 10360 10894 
4 10396 10633 10620 10634 
4 10633 10843 10749 10322 
4 10342 10878 10114 10370 
4 10097 10784 10139 10794 
4 10609 10912 10805 10232 
4 614 10153 10501 688 
4 10043 10659 10290 10152 
4 10785 10769 10137 10612 
4 654 717 10095 655 
4 10466 10200 10331 10913 
4 10242 10110 10918 10651 
4 10767 10259 10797 10670 
4 10717 10716 10193 10407 
4 10554 10443 10035 10549 
4 10391 10346 10456 10921 
4 10831 10347 10941 10582 
4 10199 10180 10743 10931 
4 10215 10726 10746 10820 
4 10225 10736 10324 10431 
4 10273 596 672 10505 
4 10862 10581 10572 10053 
4 10033 10781 10927 10262 
4 642 641 10179 705 
4 10327 10827 10304 10263 
4 10347 10861 10941 10582 
4 10499 667 10595 10678 
4 10596 10676 10528 712 
4 10909 10911 10716 10407 
4 10357 10771 10121 10106 
4 10162 713 10169 10537 
4 10786 10238 10766 10611 
4 702 638 10292 10544 
4 10578 10058 10579 10846 
4 10740 10415 10416 10228 
4 10139 10784 10433 10750 
4 10932 10320 10910 10579 
4 10487 10668 605 10081 
4 690 10048 625 10525 
4 10263 10925 10453 10733 
4 10136 10183 10738 10243 
4 10163 10170 666 10678 
4 10616 10135 10867 10362 
4 10144 10073 10559 10156 
4 10219 10484 10759 10224 
4 10753 10358 10871 10739 
4 10586 10321 10911 10909 
4 10193 10716 10731 10194 
4 10223 10762 10828 10778 
4 10781 10851 10033 10927 
4 10947 10857 10297 10384 
4 10855 10311 10301 10801 
4 10638 10120 10341 10473 
4 10386 10115 10866 10878 
4 10693 10280 10679 10791 
4 10404 10751 10233 10196 
4 10420 10197 10721 10071 
4 10566 10939 10166 10562 
4 685 10673 611 10075 
4 719 10597 10531 10044 
4 10070 10229 10915 10434 
4 10075 10175 10694 10806 
4 10170 10506 10508 589 
4 10805 10079 10160 10232 
4 10539 651 714 10604 
4 10774 10128 10643 10776 
4 10369 10587 10293 10062 
4 10798 10150 10044 10300 
4 10481 10775 10253 10646 
4 10060 10788 10872 10207 
4 10077 10560 10797 10670 
4 10151 10705 10801 10600 
4 10578 10058 10320 10579 
4 10314 10826 10388 10824 
4 10432 10203 10363 10636 
4 10539 10169 651 10604 
4 10838 10203 10432 10636 
4 10935 10556 10550 10428 
4 10296 10855 10311 10301 
4 10769 10795 10785 10287 
4 10128 10249 10645 10776 
4 10363 10647 10949 10444 
4 10689 10781 10098 10305 
4 10255 10151 10600 10289 
4 10836 10382 10782 10227 
4 10630 10410 10629 10132 
4 10350 10460 10304 10555 
4 10321 10586 10911 10933 
4 10484 10737 10759 10224 
4 10856 10294 10260 10300 
4 591 10595 10493 10479 
4 10849 10412 10336 10338 
4 10238 10159 10477 10766 
4 10422 10720 10198 10329 
4 10170 10163 666 590 
4 10356 10222 10895 10229 
4 10208 10388 10181 10916 
4 10793 10159 10802 10078 
4 10801 10255 10600 10289 
4 10728 10744 10242 10918 
4 10708 10812 10728 10298 
4 10421 10940 10343 10848 
4 10914 10057 10580 10894 
4 10404 10861 10323 10869 
4 10817 10475 10371 10845 
4 10878 10115 10114 10370 
4 10437 10244 10419 10850 
4 10949 10131 10315 10637 
4 10378 10402 10219 10759 
4 10781 10689 10098 10937 
4 10877 10633 10620 10134 
4 10079 10526 10805 709 
4 10042 694 10675 10696 
4 10088 10279 10692 10602 
4 648 10671 10517 10082 
4 10565 10173 664 10695 
4 10473 10626 10405 10389 
4 10658 10567 10084 10080 
4 10301 10151 10705 10801 
4 10881 10396 10634 10402 
4 10610 10838 10787 10267 
4 10049 582 10959 659 
4 10483 10215 10726 10746 
4 10691 10275 10601 10677 
4 665 10508 589 10602 
4 10643 10128 10376 10645 
4 10342 10876 10372 10754 
4 10571 10271 10054 10374 
4 10913 10803 10612 10284 
4 10463 10371 10945 10458 
4 10828 10426 10546 10898 
4 10560 698 10157 10685 
4 10926 10605 10734 10104 
4 10049 12 10489 14 
4 15 13 10519 10052 
4 10683 10532 645 10149 
4 10804 10285 10792 10283 
4 10269 10784 10097 10768 
4 10730 10192 10714 10910 
4 10498 681 10155 606 
4 10917 10460 10355 10550 
4 10367 10613 10403 10436 
4 10412 10592 10585 10849 
4 10941 10849 10583 10338 
4 10630 10629 10747 10132 
4 10331 10841 10351 10612 
4 10177 10471 10556 10428 
4 10364 10591 10852 10055 
4 10737 10484 10845 10430 
4 10621 10375 10912 10206 
4 10720 10902 10589 10422 
4 10501 10153 10598 688 
4 10418 10757 10108 10112 
4 10095 10567 10664 10080 
4 10194 10731 10387 10903 
4 10150 10798 10260 10300 
4 10571 10271 10374 10575 
4 10708 10413 10872 10207 
4 10235 10435 10646 10875 
4 10253 10775 10644 10646 
4 10307 10923 10614 10449 
4 10140 10691 10706 10182 
4 10553 10546 10318 10037 
4 10687 704 641 10099 
4 10506 10170 666 590 
4 651 10169 10090 10604 
4 10556 10937 10550 10428 
4 10649 10618 10373 10754 
4 10774 10122 10128 10776 
4 10784 10139 10868 10750 
4 10323 10861 10582 10869 
4 10764 10239 10762 10828 
4 10828 10239 10377 10427 
4 10324 10742 10211 10452 
4 10925 10148 10453 10607 
4 10091 10603 696 10562 
4 10600 10801 10289 10657 
4 10831 10071 10313 10066 
4 616 721 10957 10052 
4 10843 10633 10333 10322 
4 10042 10266 10147 10807 
4 10357 10261 10622 10101 
4 689 615 10494 10046 
4 10168 10507 608 10509 
4 10769 10258 10612 10284 
4 10751 10233 10196 10875 
4 10062 10594 10397 10853 
4 10642 10251 10129 10644 
4 10330 10438 10722 10359 
4 10560 10523 634 698 
4 10718 10198 10366 10882 
4 10331 10913 10612 10284 
4 10575 10271 10421 10860 
4 587 10695 10041 663 
4 10482 10724 10726 10216 
4 10826 10314 10388 10181 
4 10081 10796 10417 10477 
4 10800 10299 10324 10854 
4 10793 10159 10078 10309 
4 10634 10633 10749 10322 
4 10255 10151 10301 10801 
4 10847 10065 10070 10434 
4 10137 10331 10351 10612 
4 10237 10885 10236 10943 
4 10565 10173 588 664 
4 10690 10563 10812 10141 
4 10367 10613 10870 10922 
4 650 10162 10169 10537 
4 10380 10816 10226 10344 
4 10442 10388 10038 10824 
4 10429 10548 10822 10810 
4 10423 10623 10665 10930 
4 10878 10876 10342 10114 
4 10774 10653 10122 10776 
4 10416 10740 10228 10241 
4 10323 10573 10144 10073 
4 10884 10250 10710 10635 
4 10590 10914 10057 10580 
4 10905 10248 10707 10791 
4 592 10493 10669 10479 
4 10557 10094 10571 10054 
4 10317 10736 10431 10844 
4 607 10512 682 10161 
4 702 10292 10682 10544 
4 10837 10379 10644 10478 
4 10298 10728 10242 10918 
4 10752 10950 10886 10319 
4 10343 10940 10576 10848 
4 10855 10893 10296 10430 
4 10240 10330 10810 10241 
4 10273 10505 10681 10291 
4 10831 10721 10585 10071 
4 10186 10461 10350 10551 
4 10499 10156 10595 591 
4 10209 10902 10422 10192 
4 10237 10448 10741 10411 
4 680 10487 10668 605 
4 10248 10459 10061 10791 
4 631 10166 10091 10562 
4 10572 10039 10053 10281 
4 10245 10825 10935 10688 
4 10785 10751 10184 10869 
4 10451 727 622 726 
4 10340 10814 10938 10806 
4 10685 10164 10145 10679 
4 10421 10575 10830 10060 
4 10752 10950 10319 10243 
4 10757 10624 10108 10650 
4 10870 10922 10183 10136 
4 10563 10090 10176 10141 
4 10439 10642 10251 10385 
4 10466 10200 10622 10101 
4 10331 10466 10913 10284 
4 10906 10419 10850 10808 
4 10648 10626 10389 10713 
4 10743 10180 10657 10931 
4 10311 10743 10737 10224 
4 10671 648 10040 10082 
4 10349 10462 10100 10900 
4 10753 10358 10739 10204 
4 10200 10357 10622 10101 
4 10153 10598 10703 10800 
4 10767 10610 10787 10267 
4 10266 10103 10147 10807 
4 10371 10893 10845 10430 
4 10200 10841 10106 10351 
4 10277 10095 10664 10080 
4 10939 10074 10693 10707 
4 10049 10959 624 729 
4 10387 10194 10903 10197 
4 10396 10634 10378 10322 
4 10431 10317 10844 10344 
4 10558 10668 10796 10081 
4 10575 10940 10421 10830 
4 10834 10381 10221 10234 
4 10486 592 668 10303 
4 10493 10595 10669 10479 
4 10085 10245 10177 10688 
4 10874 10433 10750 10213 
4 10724 10752 10886 10319 
4 10838 10610 10432 10267 
4 10378 10634 10749 10322 
4 10721 10592 10585 10071 
4 10396 10620 10650 10634 
4 10592 10412 10585 10071 
4 10948 10341 10648 10473 
4 10513 666 10678 590 
4 10354 10667 10931 10624 
4 10671 10040 10522 10596 
4 10854 10295 10431 10892 
4 10531 719 10044 657 
4 10938 10140 10706 10182 
4 10663 10273 672 10681 
4 10418 10346 10757 10755 
4 10649 10756 10254 10623 
4 10290 10152 10799 10257 
4 10281 10684 10155 10161 
4 10481 10775 10129 10644 
4 10798 10150 10597 10044 
4 10266 10042 10096 10675 
4 10924 10732 10606 10102 
4 10730 10386 10878 10370 
4 10711 10885 10201 10237 
4 10303 10769 10699 10258 
4 10840 10111 10269 10433 
4 10887 10212 10753 10951 
4 10162 713 10676 10169 
4 10593 10853 10064 10909 
4 10709 10270 10692 10165 
4 10421 10940 10577 10830 
4 633 697 10536 10171 
4 10040 10097 10794 10082 
4 10089 10561 10601 683 
4 10628 10627 10482 10334 
4 10942 10740 10416 10241 
4 10861 10751 10404 10583 
4 10392 10443 10823 10549 
4 10486 668 10669 10303 
4 10831 10313 10347 10582 
4 10956 10050 615 10046 
4 10717 10909 10407 10425 
4 10585 10831 10071 10313 
4 10207 10090 10690 10141 
4 10756 10649 10254 10754 
4 10105 10365 10652 10614 
4 10676 10162 10169 10276 
4 10229 10369 10070 10915 
4 10812 10708 10141 10298 
4 10420 10387 10903 10197 
4 10238 10455 10611 10839 
4 10483 10628 10334 10332 
4 10824 10038 10934 10916 
4 10755 10620 10650 10112 
4 10868 10139 10571 10054 
4 10069 10578 10848 10059 
4 10561 10140 10089 10691 
4 10831 10721 10071 10066 
4 10563 10176 10812 10141 
4 10673 10075 10694 10806 
4 10868 10139 10246 10750 
4 10288 10259 10077 10797 
4 10426 10377 10546 10318 
4 10405 10389 10713 10286 
4 10708 10690 10812 10141 
4 10671 10040 10794 10082 
4 10887 10212 10725 10753 
4 10584 10412 10592 10933 
4 713 10162 650 10537 
4 10565 10088 588 10165 
4 10763 10214 10414 10472 
4 647 10701 10160 10082 
4 10779 10327 10414 10286 
4 10304 10350 10555 10551 
4 10131 10363 10385 10636 
4 10431 10736 10892 10844 
4 10573 10144 10073 10559 
4 10103 10266 10929 10807 
4 10042 694 629 10675 
4 10770 10774 10130 10641 
4 10148 10409 10453 10733 
4 10717 10716 10210 10193 
4 10667 10354 10929 10624 
4 10145 10248 10061 10791 
4 10669 10795 10287 10479 
4 10800 10742 10452 10656 
4 10131 10637 10777 10127 
4 10396 10633 10634 10322 
4 689 10956 615 10046 
4 10529 634 698 10157 
4 10437 10926 10780 10850 
4 10717 10346 10210 10755 
4 10097 10768 10794 10082 
4 10039 10155 10558 10081 
4 10173 587 664 10695 
4 10923 10871 10614 10449 
4 10287 10769 10258 10137 
4 10623 10665 10928 10109 
4 10937 10781 10851 10033 
4 10155 681 10558 10492 
4 10720 10329 10577 10830 
4 10388 10208 10038 10916 
4 10240 10822 10942 10810 
4 10453 10148 10733 10607 
4 10259 10077 10797 10670 
4 10919 10365 10450 10265 
4 10377 10828 10426 10546 
4 10088 665 589 10602 
4 10198 10209 10366 10882 
4 651 10090 714 10604 
4 10435 10253 10235 10646 
4 10160 10701 10768 10082 
4 10893 10737 10845 10430 
4 10619 10843 10333 10632 
4 10049 582 10045 10959 
4 10695 10674 10041 663 
4 10032 10734 10808 10710 
4 10536 632 10171 10538 
4 681 10155 606 10492 
4 642 10086 706 10179 
4 10826 10318 10314 10181 
4 10036 10898 10427 10443 
4 10159 10698 10477 10766 
4 10176 715 10697 653 
4 10868 10271 10860 10246 
4 10374 10575 10060 10788 
4 10122 10128 10776 10125 
4 10578 10069 10848 10589 
4 10133 10386 10115 10866 
4 10626 10120 10638 10473 
4 10767 10259 10700 10283 
4 10890 10465 10380 10395 
4 10751 10404 10583 10196 
4 669 593 10699 10491 
4 10520 10701 647 710 
4 10103 10929 10757 10815 
4 10691 10275 10677 10790 
4 10521 701 10804 637 
4 10802 603 10490 678 
4 10769 10258 10137 10612 
4 10836 10643 10381 10376 
4 10103 10929 10815 10807 
4 10668 10796 10081 10477 
4 10953 10674 10265 10041 
4 699 635 10516 10670 
4 10898 10427 10443 10823 
4 10172 10515 10680 602 
4 10459 10248 10905 10791 
4 10669 10795 10303 10287 
4 592 10669 10303 10479 
4 10822 10240 10942 10765 
4 10802 10159 603 10078 
4 10521 700 636 10700 
4 10573 10323 10582 10869 
4 10751 10404 10184 10869 
4 10361 10790 10904 10581 
4 10180 10199 10743 10657 
4 10543 697 633 10164 
4 10903 10420 10197 10721 
4 10147 10696 10807 10566 
4 10240 10942 10416 10241 
4 10248 10280 10693 10791 
4 10206 10912 10609 10232 
4 10038 10208 10934 10916 
4 10042 629 10096 10675 
4 10415 10653 10124 10635 
4 10693 10280 10603 10679 
4 10765 10763 10829 10472 
4 10757 10755 10650 10112 
4 10671 711 648 10517 
4 10917 10355 10825 10935 
4 10248 10353 10905 10707 
4 10487 10668 10698 679 
4 10700 700 10516 10670 
4 10953 10919 10450 10265 
4 10680 10515 677 602 
4 10584 10412 10065 10336 
4 10626 10405 10389 10713 
4 10412 10584 10849 10336 
4 10818 10394 10216 10474 
4 10576 10860 10246 10750 
4 10796 10039 10081 10417 
4 10403 10116 10615 10651 
4 10388 10038 10824 10916 
4 10353 10459 10905 10063 
4 10199 10180 10289 10657 
4 10764 10239 10828 10427 
4 10168 607 682 10161 
4 10523 10560 634 10157 
4 666 10163 10678 590 
4 10451 10944 10380 10344 
4 10144 10163 10156 10678 
4 10200 10466 10622 10913 
4 10466 10622 10913 10101 
4 667 10499 10595 591 
4 10950 10752 10738 10243 
4 10087 10292 10682 10274 
4 10926 10734 10032 10104 
4 10716 10193 10407 10194 
4 10721 10420 10071 10066 
4 10868 10271 10571 10575 
4 10273 10305 10262 10663 
4 10803 10282 10284 10142 
4 10563 10176 715 10697 
4 10486 669 593 10699 
4 10701 647 710 10517 
4 632 10091 10603 696 
4 701 10804 637 10527 
4 10911 10716 10407 10194 
4 10532 10683 645 708 
4 10192 10209 10730 10386 
4 10261 10357 10622 10640 
4 700 636 10700 10516 
4 10086 10686 706 10179 
4 10317 10225 10736 10758 
4 10208 10934 10916 10547 
4 10528 10596 712 649 
4 10288 10797 10787 10267 
4 10542 10162 713 10676 
4 10386 10115 10878 10370 
4 10039 10558 10796 10081 
4 10426 10036 10898 10427 
4 10153 10598 10800 10452 
4 10770 10130 10252 10641 
4 582 10045 10959 659 
4 10305 10781 10262 10663 
4 10701 10520 647 10160 
4 10676 10596 10094 10557 
4 10058 10059 10234 10846 
4 10412 10584 10592 10849 
4 10230 10763 10214 10760 
4 10194 10911 10903 10197 
4 10069 10848 10589 10577 
4 10860 10868 10246 10750 
4 10143 10087 10292 10682 
4 10418 10103 10757 10815 
4 603 678 10078 10496 
4 10876 10878 10342 10370 
4 10742 10211 10452 10656 
4 10169 10539 651 10537 
4 10148 10409 10733 10607 
4 10130 10774 10128 10643 
4 10162 10542 650 10528 
4 10088 10565 10692 10165 
4 10209 10902 10192 10730 
4 10578 10320 10932 10579 
4 10784 10097 10768 10794 
4 10052 10957 10048 625 
4 10751 10861 10404 10869 
4 10162 10542 713 650 
4 10825 10355 10245 10935 
4 10063 10062 10594 10397 
4 10498 10512 607 10161 
4 10668 680 605 10081 
4 10690 10090 10563 10141 
4 10559 10144 10156 10678 
4 10674 586 10041 663 
4 679 10698 604 10490 
4 10516 635 10077 10670 
4 10811 10392 10823 10549 
4 10546 10426 10036 10898 
4 10942 10240 10810 10241 
4 638 10143 10544 10527 
4 10507 10168 607 682 
4 10235 10835 10383 10424 
4 10603 632 696 10538 
4 10180 10306 10289 10657 
4 10409 10713 10286 10733 
4 10559 10156 10595 10678 
4 10868 10271 10575 10860 
4 10585 10849 10941 10338 
4 662 10569 10154 585 
4 10457 10325 10897 10384 
4 10459 10248 10353 10905 
4 10503 671 10291 595 
4 10698 10487 679 604 
4 10130 10774 10643 10641 
4 10058 10578 10059 10846 
4 678 10802 10078 10496 
4 10708 10207 10690 10141 
4 10089 10601 608 683 
4 10757 10418 10755 10112 
4 711 10671 648 10522 
4 668 592 10493 10669 
4 10418 10103 10929 10757 
4 697 633 10164 10171 
4 10957 690 10048 625 
4 10259 10767 10700 10670 
4 634 10560 698 10157 
4 668 592 10669 10303 
4 10698 10668 10477 10766 
4 717 10567 10095 655 
4 10601 608 683 10509 
4 10363 10203 10385 10636 
4 10107 10100 10712 10467 
4 10129 10253 10644 10478 
4 10625 10949 10315 10637 
4 10484 10371 10845 10430 
4 10176 10563 715 652 
4 671 10505 10503 10681 
4 10683 10532 10534 708 
4 10781 10927 10262 10663 
4 10271 10868 10571 10054 
4 10292 702 10682 10533 
4 10503 671 10681 10291 
4 635 699 10077 10670 
4 10595 667 591 10493 
4 10802 603 678 10078 
4 638 702 10292 10533 
4 10596 10522 712 649 
4 10813 10674 10041 10695 
4 10041 10674 10813 10953 
4 10812 10672 10076 10697 
4 10076 10672 10812 10952 
4 10803 671 10142 10681 
4 10803 10142 671 10514 
4 10291 10142 671 10681 
4 676 10680 10092 10662 
4 676 10092 10680 10504 
4 10502 601 10092 10172 
4 10092 601 10502 10504 
4 10092 10680 10502 10172 
4 10502 10680 10092 10504 
4 10158 10535 10661 703 
4 10158 10661 10535 10274 
4 10682 10661 10535 703 
4 10682 10535 10661 10274 
4 10644 10383 10235 10835 
4 10235 10383 10644 10478 
4 13 10958 10518 10051 
4 13 10518 10958 15 
4 10043 10511 10152 584 
4 10152 10511 10043 10599 
4 10608 10262 10663 10273 
4 10608 10663 10262 10927 
4 10854 10742 10324 10800 
4 10854 10324 10742 10736 
4 10743 10855 10311 10737 
4 10743 10311 10855 10801 
4 10890 10468 725 10465 
4 10890 725 10468 10888 
4 10108 10929 10757 10418 
4 10108 10757 10929 10624 
4 10406 10821 10889 10819 
4 10406 10889 10821 10398 
4 10851 10735 10278 10927 
4 10851 10278 10735 10809 
4 10850 10734 10032 10926 
4 10850 10032 10734 10808 
4 10084 10540 10044 656 
4 10044 10540 10084 10597 
4 10352 10894 10272 10360 
4 10272 10894 10352 10772 
4 10721 10195 10066 10719 
4 10721 10066 10195 10420 
4 10411 10654 10448 10741 
4 10411 10448 10654 10123 
4 10739 10312 10951 10204 
4 10951 10312 10739 10857 
4 10678 10499 10163 10156 
4 590 10163 10499 10156 
4 727 10844 10451 10892 
4 727 10451 10844 10944 
4 723 10845 10371 10893 
4 10371 10845 723 10945 
4 10891 620 724 10458 
4 724 620 10891 725 
4 10302 10599 583 10152 
4 583 10599 10302 10704 
4 10099 10824 10661 10442 
4 10099 10661 10824 10687 
4 10103 10939 10807 10815 
4 10807 10939 10103 10147 
4 10761 10127 10637 10231 
4 10761 10637 10127 10777 
4 10314 10924 10102 10732 
4 10314 10102 10924 10442 
4 10740 10810 10241 10942 
4 10241 10810 10740 10884 
4 10068 10914 10579 10058 
4 10579 10914 10068 10590 
4 10654 10481 10655 10775 
4 10655 10481 10654 10123 
4 10673 10109 10806 10665 
4 10806 10109 10673 10075 
4 10651 10436 10326 10403 
4 10326 10436 10651 10832 
4 10383 10847 10424 10835 
4 10383 10424 10847 10434 
4 10751 10351 10184 10233 
4 10184 10351 10751 10785 
4 10821 10220 10217 10398 
4 10821 10217 10220 10748 
4 644 10683 10532 10534 
4 644 10532 10683 10149 
4 10727 10406 10821 10217 
4 10727 10821 10406 10819 
4 10573 10184 10323 10869 
4 10573 10323 10184 10073 
4 10092 10607 10925 10662 
4 10092 10925 10607 10148 
4 707 10683 644 10534 
4 10559 10479 10156 10073 
4 10156 10479 10559 10595 
4 10737 10881 10402 10743 
4 10402 10881 10737 10759 
4 10736 10880 10211 10742 
4 10211 10880 10736 10758 
4 10187 10838 10203 10432 
4 10187 10203 10838 10773 
4 10051 10946 10047 10294 
4 10051 10047 10946 10958 
4 10702 10946 10047 10958 
4 10560 10072 10685 10157 
4 10685 10072 10560 10574 
4 10105 10745 10117 10652 
4 10117 10745 10105 10368 
4 10161 10677 682 10168 
4 10161 682 10677 10684 
4 10114 10876 10118 10617 
4 10114 10118 10876 10342 
4 622 10955 10457 10399 
4 622 10457 10955 727 
4 10783 10379 10642 10837 
4 10642 10379 10783 10439 
4 10657 10255 10199 10743 
4 10657 10199 10255 10289 
4 10450 10652 10365 10919 
4 10450 10365 10652 10105 
4 10079 709 10520 646 
4 10520 709 10079 10805 
4 10093 707 10683 644 
4 10683 707 10093 10660 
4 10642 10127 10129 10251 
4 10129 10127 10642 10777 
4 10142 670 10514 10803 
4 10142 10514 670 10497 
4 10434 10915 10837 10229 
4 10434 10837 10915 10847 
4 10375 10710 10032 10250 
4 10032 10710 10375 10734 
4 10606 10274 10087 10682 
4 10606 10087 10274 10256 
4 10297 10959 10704 10947 
4 10704 10959 10297 10045 
4 10635 10126 10770 10124 
4 10635 10770 10126 10621 
4 10293 10587 10895 10865 
4 10293 10895 10587 10369 
4 10211 10736 10324 10225 
4 10211 10324 10736 10742 
4 590 10678 10499 10163 
4 590 10499 10678 10513 
4 10432 10636 10647 10838 
4 10647 10636 10432 10363 
4 10218 10753 10833 10725 
4 10218 10833 10753 10358 
4 10880 10410 10190 10393 
4 10880 10190 10410 10630 
4 10735 10201 10809 10278 
4 10809 10201 10735 10711 
4 10763 10405 10120 10626 
4 10120 10405 10763 10214 
4 10244 10686 10780 10086 
4 10780 10686 10244 10936 
4 10780 10437 10244 10086 
4 10035 10548 10440 10429 
4 10035 10440 10548 10554 
4 10822 10440 10548 10429 
4 10822 10548 10440 10554 
4 10239 10943 10823 10764 
4 10823 10943 10239 10236 
4 10823 10427 10239 10764 
4 10239 10427 10823 10236 
4 10607 10172 10092 10148 
4 10607 10092 10172 10680 
4 10680 602 10502 10172 
4 10502 602 10680 677 
4 589 10279 10602 10170 
4 589 10602 10279 10088 
4 608 10275 10601 10089 
4 608 10601 10275 10168 
4 10142 671 595 10291 
4 10142 595 671 10514 
4 10856 10946 10300 10702 
4 10856 10300 10946 10294 
4 10047 10300 10946 10702 
4 10047 10946 10300 10294 
4 10244 10780 10850 10437 
4 10850 10780 10244 10936 
4 860 12287 859 12147 
4 12118 846 12285 845 
4 882 881 12149 12281 
4 824 823 12283 12120 
4 876 877 12288 12148 
4 12117 12286 828 829 
4 751 12105 11241 750 
4 801 11242 12136 800 
4 12121 844 845 12453 
4 860 861 12454 12152 
4 12151 12445 876 875 
4 12447 830 829 12122 
4 12135 808 809 11084 
4 12106 742 11083 743 
4 12282 12119 851 850 
4 854 855 12284 12150 
4 12449 840 839 12113 
4 865 12451 12144 866 
4 12153 865 864 12732 
4 841 12730 12124 840 
4 739 12108 11259 738 
4 813 11260 12137 812 
4 732 10988 731 12109 
4 819 12140 10989 820 
4 797 796 11254 12138 
4 12116 11267 756 755 
4 11253 12107 754 755 
4 796 795 11268 12145 
4 12154 871 12733 872 
4 12731 833 12123 834 
4 10997 17 12128 788 
4 16 12097 10995 763 
4 813 814 12146 11266 
4 11265 12115 737 738 
4 11561 801 12142 802 
4 11560 750 12111 749 
4 882 12471 12133 883 
4 12473 12104 823 822 
4 835 12450 12114 834 
4 12452 12143 870 871 
4 762 12110 11249 761 
4 789 12139 11251 790 
4 744 12112 11247 743 
4 11248 807 12141 808 
4 12730 12124 840 12449 
4 865 12153 12451 12732 
4 852 12103 851 12472 
4 853 854 12474 12134 
4 13234 12098 822 18 
4 12127 883 13233 19 
4 810 12126 11088 811 
4 11087 12095 740 741 
4 12097 18 13227 852 
4 19 12128 853 13228 
4 800 12130 799 11553 
4 752 11552 751 12099 
4 10996 821 12127 17 
4 10994 730 12098 16 
4 12133 10992 820 821 
4 731 12104 10990 730 
4 754 11253 753 12101 
4 797 798 12132 11254 
4 12131 10985 811 812 
4 12102 739 10984 740 
4 12468 832 12100 833 
4 12470 873 12129 872 
4 788 10993 789 12134 
4 10991 763 12103 762 
4 12095 12468 831 832 
4 12470 12126 873 874 
4 796 11262 11254 12138 
4 12732 864 12130 863 
4 12730 842 841 12099 
4 11253 11261 12107 755 
4 12132 861 12184 862 
4 844 843 12182 12101 
4 809 12129 11258 810 
4 741 11257 12100 742 
4 12732 12130 12469 863 
4 12467 842 12730 12099 
4 12096 843 12437 842 
4 863 862 12125 12439 
4 12468 12095 831 12438 
4 12470 12126 874 12440 
4 12102 12279 830 831 
4 874 12131 875 12280 
4 871 12452 12154 12733 
4 12450 12731 12123 834 
4 12113 11544 749 11255 
4 799 798 11082 12125 
4 12096 11081 753 752 
4 12154 808 12135 11084 
4 12106 11083 12123 743 
4 11083 12731 12123 11247 
4 12154 11248 11084 12733 
4 12911 11610 13047 11321 
4 12114 744 12112 11247 
4 10991 12103 11570 762 
4 10993 11572 789 12134 
4 12780 11807 11362 11363 
4 11345 12764 11791 11346 
4 13187 11587 11486 11991 
4 11487 13188 11588 11992 
4 11662 13222 11377 12542 
4 13221 11360 11646 12525 
4 12123 11083 11247 743 
4 11248 808 12154 11084 
4 11101 739 12108 11259 
4 11260 11102 12137 812 
4 12731 12450 12123 11247 
4 12452 11248 12154 12733 
4 11611 13047 11322 12910 
4 12468 12100 12731 833 
4 12470 12129 12733 872 
4 11490 11663 13165 12200 
4 11069 11491 13166 12883 
4 11253 11081 753 12101 
4 798 11082 12132 11254 
4 11978 11830 10979 13094 
4 11491 12236 11664 13166 
4 11490 12882 13165 11034 
4 11611 13047 11321 11322 
4 13050 11608 12913 11319 
4 11610 12911 13048 11321 
4 11830 11893 10979 13094 
4 11634 11348 12324 11633 
4 11649 11650 12343 11365 
4 11609 12912 13049 11320 
4 12097 18 10995 13227 
4 19 10997 12128 13228 
4 11358 11644 11643 12314 
4 11659 11375 11660 12333 
4 11534 13187 11486 11991 
4 11487 11535 13188 11992 
4 10963 12158 12179 13091 
4 12324 12589 12325 11633 
4 12344 11649 12343 12605 
4 11253 12182 11081 12101 
4 12132 11082 12184 11254 
4 11350 12322 11636 11635 
4 11609 13049 11319 11320 
4 13050 11608 11319 11318 
4 12377 12374 11223 13186 
4 11610 13048 11320 11321 
4 12341 11651 11652 11367 
4 11352 11638 11637 12320 
4 11653 12339 11369 11654 
4 11602 11312 11313 13028 
4 11327 11326 13042 11616 
4 12589 12071 12325 11633 
4 11649 12344 12072 12605 
4 11639 11640 12318 11354 
4 11371 11655 12337 11656 
4 12316 11356 11641 11642 
4 11657 11373 11658 12335 
4 11381 12765 12069 11823 
4 12070 12781 11824 11382 
4 13124 12028 12664 12632 
4 12351 12349 11226 13185 
4 11267 12446 12116 12118 
4 11268 12448 12145 12147 
4 13050 11607 11608 11318 
4 12022 887 13191 12970 
4 13192 12971 12023 904 
4 12471 12133 10992 820 
4 12104 731 10990 12473 
4 13124 11898 12028 12632 
4 13222 11661 11662 11377 
4 11360 11645 13221 11646 
4 11610 11611 13047 11321 
4 13196 11648 11147 11148 
4 13195 11632 11130 11131 
4 11257 12100 742 11083 
4 809 12129 11084 11258 
4 12829 12090 11422 11971 
4 12762 11348 11793 11347 
4 11364 11365 12778 11809 
4 11348 12537 12762 11793 
4 11365 12554 12778 11809 
4 12828 12091 11421 11970 
4 12803 11392 12391 11739 
4 11414 11344 12797 11664 
4 12623 11475 11916 11914 
4 11358 12079 12314 12578 
4 12333 11375 12080 12594 
4 11322 12910 13046 11612 
4 11602 11312 13028 11601 
4 12781 11824 11382 11362 
4 12765 11381 11345 11823 
4 11811 12776 12552 11367 
4 11795 12760 12535 11350 
4 12640 11459 12738 12571 
4 12807 12399 11735 11388 
4 11326 11615 13042 11616 
4 11371 12548 12772 11815 
4 12531 11354 11799 12756 
4 764 10996 13233 17 
4 13234 10994 16 787 
4 11663 11490 13165 11034 
4 11813 12774 12550 11369 
4 12758 12533 11797 11352 
4 12806 11389 12807 11736 
4 11811 11366 12776 11367 
4 11795 12760 11350 11349 
4 12558 12781 11382 11362 
4 12765 11381 12541 11345 
4 11358 11357 11803 12752 
4 12768 11819 11374 11375 
4 11373 11817 12770 11372 
4 11356 11801 12754 11355 
4 11373 11817 12546 12770 
4 11801 11356 12754 12529 
4 11813 11368 12774 11369 
4 12758 11797 11351 11352 
4 12772 11371 11815 11370 
4 11354 11353 11799 12756 
4 11491 11664 11069 13166 
4 11344 11414 13194 11224 
4 12622 12033 11918 13111 
4 12882 11490 13165 12200 
4 12079 12313 12314 12578 
4 12332 12333 12080 12594 
4 11499 11498 11940 12686 
4 12396 11404 11750 12820 
4 11740 11393 12802 12803 
4 13149 11673 11536 11115 
4 11537 13150 11674 11116 
4 12022 887 767 13191 
4 13192 12023 784 904 
4 12090 13059 12829 11422 
4 11991 13183 13008 765 
4 13184 13009 11992 786 
4 12679 11954 11505 11506 
4 11462 12633 11899 11897 
4 12033 11918 13111 11916 
4 12121 11261 12107 12453 
4 12152 12454 11262 12138 
4 12135 12154 11084 12733 
4 12106 11083 12731 12123 
4 10993 12474 11572 12134 
4 12103 10991 11570 12472 
4 11923 11921 11483 13110 
4 12626 12031 11910 11908 
4 11803 11358 12752 12527 
4 12768 12544 11819 11375 
4 12316 11356 12082 12580 
4 11373 12596 12084 12335 
4 12828 12091 13058 11421 
4 12873 11864 10960 12737 
4 12104 731 12473 823 
4 12471 882 12133 820 
4 11322 11611 12910 11612 
4 12630 11902 11900 12029 
4 12882 11490 11542 11034 
4 11864 12873 10960 11972 
4 12872 11865 10961 12736 
4 12623 11475 12650 11916 
4 11663 12796 11343 11413 
4 11491 11069 11543 12883 
4 11948 12681 11503 11502 
4 11896 13124 11898 12028 
4 12872 11865 11973 10961 
4 12322 12587 12323 11635 
4 11144 11230 12312 12311 
4 12330 12331 11232 11161 
4 11230 11144 12312 12888 
4 12331 12889 11232 11161 
4 11491 12236 13166 12883 
4 11651 12341 12342 12603 
4 12228 11592 11591 11007 
4 11898 11900 11463 12631 
4 12321 12585 11637 12320 
4 11912 11473 11910 13115 
4 11653 12601 12339 12340 
4 13120 11904 11902 11465 
4 11572 12474 789 12134 
4 12103 11570 762 12472 
4 12696 11210 12364 11177 
4 12828 12868 11970 12813 
4 11232 12330 11161 11662 
4 11144 11230 12311 11646 
4 12827 12869 12829 11971 
4 11044 11606 12265 11605 
4 855 12284 11559 12194 
4 850 12282 11558 12192 
4 12156 12085 12880 12161 
4 12319 11639 12318 12583 
4 12330 12331 11161 11662 
4 11655 12338 12599 12337 
4 12312 11144 12311 11646 
4 11500 11942 12684 12685 
4 11662 11377 11378 12542 
4 11646 11360 11361 12525 
4 11651 12342 12074 12603 
4 13121 11470 11905 11907 
4 12135 12154 12733 872 
4 12106 12731 833 12123 
4 11569 11124 13190 13089 
4 11568 13088 11123 13189 
4 11909 11911 13118 11471 
4 12587 12073 12323 11635 
4 12448 860 12145 12147 
4 12446 12116 12118 845 
4 12031 12656 12626 11910 
4 12700 11185 11217 12356 
4 12450 12114 12112 11247 
4 11915 11913 11472 13116 
4 11124 11569 13190 11080 
4 11079 11568 11123 13189 
4 11210 12364 11177 13139 
4 13184 11992 11565 786 
4 11564 13183 11991 765 
4 12343 11649 11365 12605 
4 12158 10963 12179 11337 
4 12630 11902 12029 12662 
4 13105 11985 12012 10968 
4 11257 12100 11083 12731 
4 11084 12129 12733 11258 
4 12625 11473 11912 13115 
4 12315 12316 12082 12580 
4 12084 12596 12334 12335 
4 11717 12960 11783 12498 
4 12780 11807 11363 11808 
4 11791 12764 11792 11346 
4 11614 11325 11615 13043 
4 11479 11919 11917 13113 
4 11807 12780 11362 12557 
4 12585 12321 11637 12075 
4 11369 12339 12600 12078 
4 11653 12601 12340 12076 
4 12584 12077 11352 12320 
4 11956 12677 11507 11506 
4 11948 12681 11502 12682 
4 11217 11185 13134 12356 
4 13120 12629 11904 11465 
4 11463 11900 12029 12631 
4 10967 10966 12175 11869 
4 12083 11371 12598 12337 
4 12081 12318 11354 12582 
4 12828 12868 12091 11970 
4 12786 12563 11581 11286 
4 11310 13030 11600 11599 
4 11598 11599 13031 11309 
4 11499 11940 12685 12686 
4 11649 12072 11365 12605 
4 12661 11467 13123 11903 
4 13193 11225 11343 11413 
4 12961 12514 12959 11701 
4 12945 11687 12960 12497 
4 11908 11906 12627 11468 
4 11499 11942 11500 12685 
4 13150 11863 11674 11116 
4 11862 11673 13149 11115 
4 12316 12317 11641 12581 
4 12336 12597 11657 12335 
4 12794 11331 12523 11361 
4 12449 12111 12113 11544 
4 12451 12142 12144 11545 
4 13123 11467 11901 11903 
4 12869 12090 12829 11971 
4 12319 12077 11639 12583 
4 12338 11655 12599 12078 
4 11323 13045 11324 11613 
4 11470 13121 12659 11907 
4 11574 850 11558 12192 
4 11575 855 11559 12194 
4 13156 12276 12275 11074 
4 11308 11598 13032 11309 
4 12971 903 12023 904 
4 12022 888 887 12970 
4 11599 11310 13031 11309 
4 12318 12081 12317 12582 
4 12316 11642 13215 13217 
4 12336 12083 12598 12337 
4 13218 13216 11658 12335 
4 12564 12787 11285 11580 
4 12032 12624 11912 11914 
4 12832 12926 11969 12609 
4 12129 12470 12733 11258 
4 11257 12468 12100 12731 
4 11985 11870 13105 12012 
4 11861 11459 12640 12571 
4 13219 12087 12326 12327 
4 12086 13220 12346 12345 
4 12028 11463 12663 12632 
4 11597 11307 13033 11596 
4 11262 12454 11254 12138 
4 11261 11253 12107 12453 
4 13118 11911 12655 11471 
4 12315 13217 13199 11643 
4 13218 11659 13200 12334 
4 12339 12338 12600 12078 
4 12319 12077 12584 12320 
4 11325 11324 13044 11614 
4 13214 12337 13212 11656 
4 13213 13211 11640 12318 
4 11664 12236 12871 13166 
4 13194 11964 13152 12412 
4 12046 12974 891 890 
4 12990 12061 901 900 
4 12322 12321 12586 12075 
4 12044 12976 893 892 
4 12992 12059 899 898 
4 11338 12155 11865 11489 
4 12978 895 12042 894 
4 12994 12057 897 896 
4 895 894 12996 12055 
4 897 896 12040 12980 
4 12322 12586 11350 12075 
4 898 899 12982 12038 
4 892 893 12053 12998 
4 11306 13034 11596 11595 
4 12340 12341 12076 12602 
4 12336 13214 13216 11657 
4 13213 12317 11641 13215 
4 12341 12076 12602 11367 
4 11249 12110 12119 761 
4 12139 12150 11251 790 
4 12579 11358 11643 12314 
4 12595 11375 11659 12333 
4 12587 12322 11350 11635 
4 11311 11310 13030 11600 
4 12158 11337 11488 11864 
4 11594 11305 11595 13035 
4 11289 11301 13039 11591 
4 12407 11730 12812 12409 
4 12339 13208 13210 11654 
4 11919 11479 12651 13113 
4 12585 11352 11637 12320 
4 13010 12010 12415 12830 
4 11651 12341 12603 11367 
4 11638 13209 13207 12320 
4 12601 11653 12339 11369 
4 11593 11594 13036 11304 
4 12009 12831 12416 13011 
4 11968 12927 12610 12833 
4 12675 12094 12383 12385 
4 12031 11908 12627 11468 
4 12022 767 11787 13191 
4 13192 12023 11788 784 
4 12814 11453 11756 11411 
4 12628 11906 11904 12030 
4 11603 11604 13026 11291 
4 12062 12063 12988 902 
4 12047 889 12048 12972 
4 839 12113 749 11255 
4 12083 12336 12597 11657 
4 12317 12081 11641 12581 
4 13062 10978 13094 12163 
4 11463 11898 12631 12632 
4 12338 11655 13210 13212 
4 11090 824 12283 12120 
4 11639 12318 12583 11354 
4 11655 12599 11371 12337 
4 12343 11650 12074 11365 
4 12597 11373 11657 12335 
4 11356 12316 11641 12581 
4 12319 11639 13209 13211 
4 11915 11472 12653 13116 
4 11634 11348 12073 12324 
4 13053 11296 11315 11605 
4 11475 12624 12032 11914 
4 12988 12063 13162 902 
4 889 12048 12972 13161 
4 11358 12079 11644 12314 
4 11375 11660 12333 12080 
4 12124 12730 11241 12449 
4 12451 12153 11242 12732 
4 11594 13036 11304 11305 
4 11525 11963 12382 11743 
4 11346 11632 12087 12326 
4 12086 11648 12345 11363 
4 11100 11092 11973 12708 
4 11906 12628 11468 12030 
4 11099 12709 11091 11972 
4 11865 11678 10961 12736 
4 12028 11898 11463 12632 
4 12026 11924 11460 12665 
4 11307 11306 13034 11596 
4 12688 11936 11497 12687 
4 11920 12621 11477 11918 
4 747 12457 11273 12180 
4 891 12051 890 13000 
4 900 901 12984 12036 
4 804 12456 11274 12159 
4 12388 11400 12824 12825 
4 11920 12621 11482 11477 
4 12342 12343 12074 12604 
4 11444 11445 12258 11047 
4 903 783 12023 784 
4 12023 903 784 904 
4 12022 888 768 767 
4 888 12022 887 767 
4 12864 12824 11046 12261 
4 11737 12393 12395 12805 
4 11305 11306 11595 13035 
4 850 11574 11558 761 
4 855 11575 11559 790 
4 12073 12588 12323 12324 
4 13165 11663 12870 12200 
4 11593 12225 11594 11012 
4 12678 12677 11956 11506 
4 12401 11733 12809 12403 
4 12391 12804 12393 11738 
4 837 747 11273 12180 
4 804 11274 868 12159 
4 11734 12399 12401 12808 
4 11896 12664 11460 12634 
4 12220 11596 11595 11016 
4 11509 12675 12094 11962 
4 12389 12803 12391 11739 
4 12976 12044 12975 892 
4 12992 12059 12991 899 
4 819 12149 12281 10989 
4 12395 12806 12397 11736 
4 11504 12681 11503 11950 
4 12650 11475 12033 11916 
4 12071 12590 12325 12326 
4 12344 12345 12072 12606 
4 12978 12042 12977 894 
4 12993 12994 12057 897 
4 12040 896 12979 12980 
4 895 12996 12995 12055 
4 12807 12399 12397 11735 
4 12981 898 12982 12038 
4 893 12997 12053 12998 
4 11348 12588 12073 12324 
4 12343 12074 12604 11365 
4 12111 12113 11544 749 
4 12144 12142 802 11545 
4 11603 11031 12206 12204 
4 837 12457 747 12180 
4 12456 804 868 12159 
4 11308 11597 11307 13033 
4 12282 850 11558 761 
4 12284 855 11559 790 
4 12377 12374 12413 11223 
4 12878 11534 11564 11991 
4 11535 12879 11992 11565 
4 12074 11651 12603 11367 
4 12587 11350 12073 11635 
4 12316 11356 11642 12082 
4 11373 12084 11658 12335 
4 12868 12828 12091 13058 
4 12537 11348 11794 11793 
4 11365 12554 11809 11810 
4 12307 11673 13149 11121 
4 12322 11350 11636 12075 
4 12824 12864 11046 11444 
4 12822 12823 12392 11402 
4 12398 11517 11518 11949 
4 11050 12258 12260 12259 
4 12973 12974 12046 890 
4 12989 12990 12061 901 
4 12077 11638 11352 12320 
4 11369 12339 12078 11654 
4 12245 12243 11063 12242 
4 11796 11795 12535 11350 
4 11812 11811 12552 11367 
4 12816 12817 11754 11408 
4 889 888 12048 13161 
4 12063 903 13162 902 
4 10966 12175 11869 13085 
4 11310 12894 13030 11599 
4 11673 11862 13149 11121 
4 12090 13059 12869 12829 
4 11133 11634 13203 11132 
4 11740 12387 12389 12802 
4 12810 12405 12403 11732 
4 12469 799 11082 12125 
4 12096 11081 752 12467 
4 12818 11406 12819 12400 
4 12341 11652 12076 11367 
4 11371 12548 11815 11816 
4 12531 11354 11800 11799 
4 11414 11964 13194 11224 
4 12085 12156 10981 12161 
4 12550 11813 11369 11814 
4 11640 12081 12318 11354 
4 12533 11798 11797 11352 
4 12083 11371 12337 11656 
4 12321 13205 13207 11637 
4 11514 11513 11957 12390 
4 13183 12878 11991 13008 
4 13009 12879 13184 11992 
4 11138 11139 13213 11640 
4 11650 13204 11150 11149 
4 12563 12021 11581 11286 
4 13214 11155 11156 11656 
4 12230 12228 11591 11007 
4 11893 10978 10979 13094 
4 11352 12585 11637 12075 
4 11153 11154 13210 11654 
4 11653 12601 12076 11369 
4 13208 11653 12340 13206 
4 11137 11638 13209 11136 
4 11501 11944 11946 12683 
4 12700 11217 12358 13134 
4 13136 12360 11211 12698 
4 11593 11009 12226 11012 
4 12243 12904 11618 12241 
4 11629 11193 12301 11631 
4 11630 11647 11194 12303 
4 11210 12361 12696 13139 
4 906 907 12876 11566 
4 885 884 12877 11567 
4 12595 11375 12084 11659 
4 11358 12579 11643 12082 
4 11392 12804 12803 12391 
4 12694 11209 12366 13141 
4 13039 12496 11591 12902 
4 12987 12005 12064 904 
4 13003 887 12006 12065 
4 861 12454 12152 12138 
4 12121 12107 844 12453 
4 12806 12807 12397 11736 
4 12681 13138 11176 12682 
4 11591 12230 11007 11005 
4 12812 11730 12813 12409 
4 12315 12579 11643 12314 
4 11659 12595 12333 12334 
4 12032 12625 11473 11912 
4 11078 11246 11116 13164 
4 12077 11639 12583 11354 
4 12599 11655 11371 12078 
4 11245 11077 13163 11115 
4 12814 11453 11410 11756 
4 11731 12405 12407 12811 
4 11624 12795 12330 12524 
4 11325 11326 11615 13043 
4 12244 12816 12856 11062 
4 11373 12083 12597 11657 
4 12081 11356 11641 12581 
4 12384 12827 11744 12826 
4 12096 12437 11081 12467 
4 11082 12469 12125 12439 
4 12605 11364 12778 12555 
4 12589 12762 12538 11347 
4 12399 12807 12808 11388 
4 11312 11311 13029 11601 
4 12051 891 12999 13000 
4 12983 900 12984 12036 
4 12173 12174 13082 10968 
4 12895 11598 13031 11309 
4 12629 11904 11465 12030 
4 11955 13170 11953 12698 
4 12688 11936 11496 11164 
4 11818 11373 11817 12546 
4 11802 11356 11801 12529 
4 11584 11932 12789 11456 
4 11524 11223 12704 11197 
4 11652 12341 13206 13202 
4 12449 12431 12291 11544 
4 12430 12290 12451 11545 
4 12907 11325 11614 13043 
4 12694 11947 11945 13168 
4 10978 10979 13094 12163 
4 12642 11461 12635 11897 
4 11952 12679 11954 11505 
4 11029 11027 12208 12206 
4 13188 11535 12879 11992 
4 13187 11534 12878 11991 
4 12028 11896 12664 11460 
4 11893 13062 10978 13094 
4 12372 11199 12375 12634 
4 11593 13037 11303 11304 
4 739 12279 11101 12108 
4 11102 12280 12137 812 
4 12817 12404 11754 11408 
4 13144 11206 11169 12692 
4 11636 13205 11135 11134 
4 11924 11896 11460 12634 
4 13117 11911 11913 11474 
4 12408 12814 12815 11410 
4 12020 12564 11285 11580 
4 12351 12349 12380 11226 
4 12786 12706 11586 12156 
4 11242 12153 12136 12732 
4 12730 12105 12124 11241 
4 12468 11087 12095 12438 
4 12126 12470 11088 12440 
4 11905 11466 13122 11903 
4 13112 11919 11921 11478 
4 11652 11151 13206 11152 
4 12890 11603 12206 12204 
4 13205 12322 13201 11636 
4 12558 12781 11362 12557 
4 12765 12541 12540 11345 
4 11041 11044 12267 11605 
4 11377 11821 11822 12766 
4 11360 11805 11806 12750 
4 12985 901 12035 12984 
4 890 13001 13000 12050 
4 11222 11583 13185 11226 
4 11620 12276 13156 11074 
4 11027 12207 12208 12206 
4 12389 11740 12802 12803 
4 11917 13114 11915 11476 
4 11594 12225 11013 11012 
4 12816 11452 12856 11062 
4 12258 11047 11050 12260 
4 11595 11594 12222 11013 
4 12675 12094 11962 12383 
4 12635 11461 11860 11897 
4 903 12987 12064 904 
4 888 887 13003 12065 
4 11909 11469 13119 11907 
4 11651 13202 13204 12342 
4 11663 11034 12870 11072 
4 11882 11988 13067 11884 
4 11740 12387 12802 11394 
4 12628 12627 11468 12657 
4 12633 11464 11462 11899 
4 11094 12451 11242 12720 
4 11988 12016 13098 11884 
4 12323 13203 13201 11635 
4 13150 11537 12436 12735 
4 12434 13149 11536 12734 
4 11964 12088 13152 12412 
4 11595 12222 11016 11013 
4 11642 11140 13215 13217 
4 12906 11326 11615 13042 
4 13216 11157 13218 11658 
4 12016 10975 11988 13098 
4 11155 13214 13212 11656 
4 11241 12721 11093 12449 
4 13211 11138 13213 11640 
4 11078 11116 12745 13164 
4 12301 13219 11631 11129 
4 11647 11146 12303 13220 
4 13053 11605 12916 12513 
4 13170 12394 12821 11749 
4 11753 12402 13168 12817 
4 13163 11077 12744 11115 
4 13104 10969 12013 11985 
4 12660 11463 12029 12631 
4 12798 12089 11397 11742 
4 12624 11475 12649 12623 
4 13143 11168 12685 12686 
4 12016 11989 13097 11886 
4 10972 12014 11987 13101 
4 11986 12013 13103 10970 
4 11473 12656 12031 11910 
4 11913 11474 11472 13179 
4 12786 12481 11286 12706 
4 12663 11463 12631 12632 
4 12786 12481 12563 11286 
4 11930 12743 13015 12643 
4 11720 12837 12747 11380 
4 12746 12836 11379 11719 
4 11987 10973 13100 12015 
4 11718 11784 12514 11701 
4 11987 12014 11878 13101 
4 12267 11044 12265 11605 
4 12369 12694 11209 11173 
4 12678 13135 11182 12679 
4 11211 11181 12363 12698 
4 11756 11939 13173 11937 
4 10976 12016 11989 13097 
4 12623 12650 13111 11916 
4 13100 11987 12015 11880 
4 11876 11874 13075 11986 
4 11647 13220 13196 11147 
4 11876 12014 11986 13102 
4 11872 13104 12013 11985 
4 13208 11153 13210 11654 
4 12016 13065 11884 11886 
4 12961 11666 12929 12515 
4 12014 10972 10971 12170 
4 12630 12660 12029 12631 
4 13209 11638 13207 11136 
4 11665 12928 12960 12498 
4 13195 13219 11130 11631 
4 12014 11986 13102 10971 
4 12013 11874 11986 13103 
4 13222 11661 11377 12593 
4 11645 11360 13221 12577 
4 11377 11378 12542 11822 
4 11360 11806 11361 12525 
4 11009 11592 11593 12226 
4 12822 12392 11748 11402 
4 12167 10974 10975 11988 
4 11882 13099 11988 12015 
4 10974 12168 10973 12015 
4 11157 11158 13218 11658 
4 11381 12834 11629 11621 
4 11141 11140 11642 13217 
4 11382 11630 11622 12835 
4 11051 11050 12256 11049 
4 11896 13124 12028 12664 
4 13216 11156 11157 11657 
4 12029 11902 11465 12662 
4 11140 11139 11641 13215 
4 11655 11155 11154 13212 
4 11906 12628 12627 11468 
4 11138 11137 11639 13211 
4 12017 13096 11989 11888 
4 10976 12166 10975 12016 
4 10971 11986 12171 10970 
4 11070 11336 12925 11857 
4 12220 11596 11016 11017 
4 12301 13219 12327 11631 
4 11752 11406 12818 12400 
4 12303 11647 13220 12346 
4 12169 10972 10973 11987 
4 12991 12060 12990 900 
4 12045 12974 12975 891 
4 12495 12944 11689 12943 
4 11400 11746 12388 12824 
4 12622 12033 11477 11918 
4 11323 11322 13046 11612 
4 13207 11637 11135 11136 
4 11312 12892 13028 11601 
4 12681 11503 11502 11176 
4 13208 11653 11152 11153 
4 12681 11948 12397 12682 
4 11050 11051 12256 12259 
4 12502 12501 12947 11713 
4 11051 12256 12259 12257 
4 13071 11987 11880 11878 
4 12014 11876 11878 13073 
4 12512 11703 12957 12958 
4 13099 10974 11988 12015 
4 12924 11035 11335 11856 
4 11459 12966 12738 12571 
4 11699 12933 12484 12485 
4 12064 12005 784 904 
4 887 767 12006 12065 
4 12948 12502 12947 11713 
4 11069 11664 12871 13166 
4 11699 12934 12933 12485 
4 12331 12889 12330 11232 
4 12834 11629 11621 12301 
4 12312 11230 12888 12311 
4 12579 12315 11643 12082 
4 12084 12595 11659 12334 
4 11622 11630 12303 12835 
4 12754 12581 11355 12530 
4 12597 12770 12547 11372 
4 13063 11989 11888 11886 
4 13165 11663 11034 12870 
4 12826 12264 11042 12866 
4 13014 12161 12162 10980 
4 13144 12367 11206 12692 
4 11861 13126 12640 11922 
4 11597 11596 12218 11017 
4 12976 12977 12043 893 
4 12992 12993 12058 898 
4 11734 12399 12808 11388 
4 11392 12804 12391 11738 
4 12876 907 13227 11566 
4 12877 884 13228 11567 
4 12787 12707 12482 11285 
4 11882 13069 12015 11880 
4 12013 10969 12172 10970 
4 12994 12995 12056 896 
4 895 12978 12041 12979 
4 894 12054 12997 12996 
4 897 12039 12981 12980 
4 12787 12482 12564 11285 
4 11737 12393 12805 11391 
4 12406 11522 11941 11521 
4 11390 12806 12395 11736 
4 11900 12630 12029 12631 
4 899 12037 12983 12982 
4 12999 892 12052 12998 
4 11475 12624 12649 12032 
4 11223 11195 13186 11582 
4 12409 11936 12688 12687 
4 11704 12511 12957 12956 
4 12157 11585 12707 12787 
4 10960 11864 11677 12737 
4 11940 12405 12685 12686 
4 10990 12104 12473 822 
4 12133 12471 10992 883 
4 11690 12494 12943 12942 
4 11032 12203 12204 12272 
4 11733 12401 12809 11387 
4 12060 12991 899 900 
4 12975 12045 891 892 
4 12253 11612 11056 11057 
4 12743 10966 10965 12176 
4 12494 12495 11760 12943 
4 12794 11623 11331 11361 
4 11464 13125 11901 11899 
4 13137 12681 13138 11176 
4 13216 13214 11156 11657 
4 11139 13213 11641 13215 
4 12624 11475 12623 11914 
4 11031 11603 11604 12204 
4 12948 12949 12503 11712 
4 12058 12993 897 898 
4 12977 12043 893 894 
4 12696 12398 11517 11518 
4 12486 12934 12935 11698 
4 895 12041 896 12979 
4 12995 895 12056 896 
4 898 897 12039 12981 
4 893 894 12054 12997 
4 12644 11860 12572 13127 
4 11151 11651 13202 11150 
4 12789 11932 11627 11456 
4 13096 10977 12017 11989 
4 11146 12961 12303 13220 
4 12301 13219 11129 12960 
4 11804 11358 11803 12527 
4 12544 11820 11819 11375 
4 12450 12123 11247 743 
4 12512 11772 12511 12957 
4 12394 12396 12821 11749 
4 11655 11154 13210 13212 
4 13107 12743 10966 11829 
4 11647 12086 13220 12346 
4 12452 11248 808 12154 
4 13204 13226 11650 12343 
4 13219 12087 12327 11631 
4 899 12037 900 12983 
4 892 891 12999 12052 
4 11753 12402 12817 12404 
4 11514 11513 12390 12700 
4 11346 12071 11632 12326 
4 12345 11648 12072 11363 
4 11639 11137 13209 13211 
4 12492 12941 11692 12940 
4 11709 12952 12951 12506 
4 11695 12489 12938 12937 
4 12950 11710 12951 12505 
4 12936 11696 12937 12488 
4 12954 12508 12953 11707 
4 11708 12953 12952 12507 
4 12867 11441 11040 12827 
4 12938 12490 11694 12939 
4 12939 11693 12940 12491 
4 12446 12118 12285 845 
4 12287 860 12448 12147 
4 12942 12493 12941 11691 
4 12509 12954 12955 11706 
4 12633 13125 12641 11464 
4 11711 12950 12949 12504 
4 12936 12487 12935 11697 
4 11731 12405 12811 11385 
4 12955 12510 11705 12956 
4 11376 11377 12543 12766 
4 11360 11359 12750 12526 
4 11678 12521 11865 11975 
4 12370 12686 12687 11166 
4 11386 12810 12403 11732 
4 12027 11228 12639 11455 
4 11220 11525 12705 11226 
4 11466 11467 12661 11903 
4 11867 10966 11869 13085 
4 12829 13059 12711 11422 
4 11019 11597 12218 11017 
4 10977 12165 10976 11989 
4 903 783 12063 12023 
4 888 12022 768 12048 
4 11866 13107 10966 11829 
4 11133 13201 11635 11134 
4 12017 11890 13061 11888 
4 12881 10964 12068 12178 
4 12828 13058 12710 11421 
4 13170 11955 11953 11748 
4 11457 13177 13064 13062 
4 11045 12262 12265 12263 
4 12430 12290 11545 11531 
4 12225 11593 12226 11012 
4 11925 11481 12027 12645 
4 11469 11470 12659 11907 
4 12627 12031 11468 12654 
4 12431 11530 12291 11544 
4 12986 903 12987 12064 
4 888 13003 13002 12065 
4 11592 11009 12228 12226 
4 11480 13020 11892 13060 
4 11366 12553 12776 12603 
4 12587 12760 12536 11349 
4 11248 11100 11118 12289 
4 12196 12718 12453 11243 
4 12454 11244 12198 12719 
4 11117 11099 12292 11247 
4 12220 11595 12222 11016 
4 12406 12692 11522 11521 
4 11945 11947 11752 13168 
4 13226 11649 11148 11149 
4 11741 12801 12802 11394 
4 11269 757 758 847 
4 12387 11741 12802 11394 
4 11965 11225 13193 11413 
4 12300 11624 11232 11162 
4 11270 793 858 794 
4 12989 12062 12988 902 
4 12047 12973 889 12972 
4 11230 11145 12299 11623 
4 817 11079 11105 12441 
4 11103 12443 734 11080 
4 11942 12403 12684 12685 
4 12960 12497 11783 12498 
4 11057 11056 12250 11055 
4 10966 12743 10965 11829 
4 12626 12031 12627 12654 
4 12650 12033 13111 11916 
4 11870 12660 13079 13081 
4 11525 12705 12703 11510 
4 11874 11872 13077 12013 
4 12336 12083 12597 12598 
4 12317 12081 12581 12582 
4 12743 13107 10966 12176 
4 12319 12077 12583 12584 
4 12338 12599 12600 12078 
4 11992 13009 785 786 
4 13008 11991 765 766 
4 11633 13225 11132 11131 
4 12801 11395 12385 11742 
4 11040 12869 12827 11971 
4 11151 11652 13206 13202 
4 12780 11362 12607 11363 
4 12591 12764 11345 11346 
4 12640 13126 13176 11922 
4 11964 12412 12414 11198 
4 12878 11564 13183 11991 
4 12879 13184 11992 11565 
4 819 12140 12149 10989 
4 732 10988 12109 12120 
4 12173 10969 11985 10968 
4 11040 11398 11971 12827 
4 785 11934 786 13004 
4 766 765 13005 11935 
4 11004 11383 11970 12813 
4 12904 11618 13040 11298 
4 12534 12758 11351 12585 
4 11664 11074 11069 12871 
4 11442 12826 11042 12866 
4 11919 11479 11478 12651 
4 12601 11368 12774 12551 
4 902 12985 901 12035 
4 13001 890 889 12050 
4 11423 11108 11258 12668 
4 12669 11257 11107 11424 
4 11461 12644 12635 11860 
4 11500 12684 11170 12685 
4 12586 12321 12585 12075 
4 11948 11502 11946 12682 
4 12502 12501 11713 11297 
4 11336 12478 11857 11569 
4 13201 13205 11636 11134 
4 12255 11054 12254 12257 
4 13065 13063 12650 11886 
4 12051 890 13000 12050 
4 901 12035 12984 12036 
4 13005 11935 11567 11579 
4 13004 11934 11566 11578 
4 12436 11537 12444 12735 
4 12442 12434 11536 12734 
4 12601 12340 12076 12602 
4 12545 12768 11843 11374 
4 11357 11836 12752 12528 
4 889 888 13002 12049 
4 903 12034 12986 902 
4 12656 12626 11910 13115 
4 11606 11045 12265 12263 
4 11781 11158 11713 12948 
4 11499 11500 11170 12685 
4 11568 12477 11335 11856 
4 11769 11141 11699 12934 
4 10965 12743 12176 12177 
4 12046 12974 12045 891 
4 12990 12060 12061 900 
4 13052 11606 11316 11605 
4 12967 12572 11419 12378 
4 11911 13117 13118 12655 
4 11594 12225 12222 11013 
4 12342 12074 12603 12604 
4 11649 11648 13196 11148 
4 13205 13207 11637 11135 
4 11633 11632 13195 11131 
4 12062 782 901 781 
4 770 12047 890 769 
4 12156 13014 10981 12161 
4 782 901 781 12035 
4 890 770 769 12050 
4 11307 12897 13033 11596 
4 12514 12959 11701 13224 
4 12324 11634 13225 13203 
4 13208 11653 13206 11152 
4 12945 11687 12497 13223 
4 10964 11932 12068 12178 
4 12284 12139 12150 11251 
4 11249 12110 12282 12119 
4 11158 13218 11659 13200 
4 13217 11141 13199 11643 
4 12255 11051 11054 12257 
4 12243 12245 11063 11065 
4 11624 12330 11378 12524 
4 12630 13120 11902 12662 
4 11861 12640 11480 11922 
4 11666 12961 11718 12515 
4 11353 12583 12532 12756 
4 12599 12772 12549 11370 
4 11596 12220 12218 11017 
4 11717 11665 12960 12498 
4 11333 12833 13057 12306 
4 12484 11699 12485 11290 
4 13056 12305 11334 12832 
4 13178 11887 13066 13068 
4 11592 13038 11591 11302 
4 11685 11001 11071 12233 
4 12253 12251 11057 12250 
4 13197 13199 11644 12314 
4 11660 13198 13200 12333 
4 11073 12269 11686 11038 
4 12588 12587 12073 12323 
4 11404 12396 12821 12820 
4 12074 11366 12604 11365 
4 12626 12031 11908 12627 
4 12625 12652 12032 11473 
4 11051 11052 12255 11054 
4 12059 12992 12058 898 
4 12044 12976 12043 893 
4 11031 11029 11603 12206 
4 11348 12588 11349 12073 
4 771 892 772 12052 
4 12045 771 892 772 
4 774 773 894 12054 
4 775 12041 776 896 
4 12056 775 776 896 
4 773 12043 774 894 
4 898 777 778 12039 
4 777 12058 898 778 
4 899 12037 12982 12038 
4 12052 892 12053 12998 
4 780 12037 900 779 
4 12060 780 900 779 
4 11480 13176 13020 13060 
4 12978 895 12041 12042 
4 12057 12994 12056 896 
4 12039 897 12040 12980 
4 894 12054 12996 12055 
4 13114 12360 12356 11215 
4 12661 13123 13122 11903 
4 12629 12628 11904 12030 
4 11569 12741 13190 11080 
4 11568 11079 12740 13189 
4 11208 12364 12366 13119 
4 11604 11314 13026 11291 
4 13226 13204 11650 11149 
4 12209 11028 12208 12211 
4 12047 12973 890 889 
4 12989 12062 902 901 
4 12563 12481 12021 11286 
4 11944 11501 11500 12683 
4 765 13005 11935 11567 
4 11934 786 13004 11566 
4 11494 11858 11163 12378 
4 12251 11613 11057 11060 
4 12753 11357 12529 12580 
4 12769 12546 12596 11374 
4 13203 11133 13201 11635 
4 12584 12077 11353 11352 
4 11369 12600 11370 12078 
4 764 10993 13228 11567 
4 787 13227 11566 10991 
4 11350 12586 11351 12075 
4 11502 12681 11176 12682 
4 11870 13081 13105 12012 
4 12382 11963 12384 11398 
4 12086 11647 13220 12345 
4 13114 11915 12653 13116 
4 12087 13219 12326 11631 
4 11789 13092 12744 12615 
4 11443 12824 11046 11444 
4 13171 11957 11959 12700 
4 11508 12676 11958 11960 
4 11306 12898 13034 11595 
4 13183 13008 765 885 
4 13009 13184 906 786 
4 11954 11956 11506 12391 
4 12616 12745 13093 11790 
4 12247 12858 11450 11059 
4 12273 11853 11589 11004 
4 12076 11368 12602 11367 
4 757 11096 756 846 
4 11073 12269 13059 11686 
4 12176 10966 11867 13085 
4 11019 11597 12217 12218 
4 11663 12796 11413 11440 
4 12383 12089 12798 11742 
4 11053 11447 12252 11448 
4 11092 11100 12429 12708 
4 11952 12679 11505 11504 
4 11098 795 794 859 
4 11355 12081 11354 12582 
4 11371 12083 12598 11372 
4 11594 12899 11305 13035 
4 12709 11099 11091 12432 
4 12254 12253 11056 12252 
4 12243 11617 11065 11067 
4 12028 12663 12664 12632 
4 11730 11936 11383 12409 
4 13078 11875 13080 13181 
4 11500 11944 12683 12684 
4 11366 12604 12554 12777 
4 12537 12588 12761 11349 
4 12584 11353 12757 12533 
4 11866 13107 11984 10966 
4 12074 12553 12603 12604 
4 12550 12600 12773 11370 
4 11048 11045 11607 12263 
4 12588 12587 12536 12073 
4 11738 12393 11737 11391 
4 12679 11952 12680 11504 
4 13202 11651 13204 11150 
4 12082 11356 11357 12580 
4 11373 12596 11374 12084 
4 11787 12022 13191 12970 
4 12971 13192 12023 11788 
4 11730 12407 12812 11384 
4 11956 12678 11506 12391 
4 11025 11023 11600 12212 
4 12628 11468 12030 12657 
4 12059 12060 12991 899 
4 12044 12045 12975 892 
4 11629 12301 12327 11631 
4 11872 11870 13079 11985 
4 850 11574 761 760 
4 855 791 11575 790 
4 11630 11647 12303 12346 
4 11023 11022 11599 12214 
4 12648 12622 12033 11477 
4 11056 12253 11057 12250 
4 11735 12399 11734 11388 
4 12596 12595 12084 12334 
4 12579 12315 12082 12580 
4 13058 11685 11071 12233 
4 11009 11592 12228 11007 
4 11040 11590 11854 12277 
4 12251 12249 11060 12248 
4 12624 12625 12032 11912 
4 837 12180 11275 12458 
4 11276 868 12159 12455 
4 767 12024 11787 13191 
4 12025 13192 11788 784 
4 12816 12817 12404 11754 
4 11427 11004 12853 12813 
4 11956 12677 11958 11507 
4 12130 12732 12469 11553 
4 12641 12633 11464 11462 
4 11718 11666 12515 11294 
4 11733 11734 12401 11387 
4 12482 12020 12564 11285 
4 11892 11480 13060 11482 
4 11552 12467 12730 12099 
4 11355 12582 12531 12755 
4 12598 12771 12548 11372 
4 11511 11512 12355 12386 
4 12184 11557 12198 11076 
4 11784 11718 12515 11294 
4 11717 11665 12498 11287 
4 13136 11211 11181 12363 
4 11634 13225 13203 11132 
4 12993 12057 12058 897 
4 12977 12042 12043 894 
4 896 12041 12040 12979 
4 12995 895 12055 12056 
4 12054 893 12997 12053 
4 12039 898 12981 12038 
4 12180 12158 11488 13160 
4 13074 11879 13076 13180 
4 12391 11392 11738 11739 
4 12232 13058 11071 12233 
4 11465 12629 12030 12658 
4 12759 12535 12586 11351 
4 12196 11075 12182 11556 
4 11473 12656 11910 13115 
4 11209 12369 11173 13141 
4 10964 10965 11932 12178 
4 11783 11717 12498 11287 
4 12279 739 11101 10984 
4 10985 12280 11102 812 
4 12633 13125 11464 11899 
4 12932 11700 12933 12484 
4 11737 11390 12395 11736 
4 13170 11955 12392 12698 
4 11446 12862 11052 12255 
4 12765 12746 12069 12987 
4 12070 13003 12781 12747 
4 12694 11947 13168 12400 
4 12692 11943 11941 13167 
4 11720 12837 11380 11418 
4 12836 11417 11379 11719 
4 11368 12552 12775 12602 
4 731 10988 10990 12473 
4 10989 12471 10992 820 
4 12496 11289 13039 11591 
4 11909 13180 11469 11471 
4 11733 11386 12403 11732 
4 12002 12353 12703 11191 
4 12249 11614 11060 11061 
4 12455 11092 806 12429 
4 12458 11091 745 12432 
4 11310 12894 11599 13031 
4 11346 12590 12071 12326 
4 12369 13122 12367 11205 
4 12345 12072 12606 11363 
4 12159 12155 11489 13159 
4 12269 11073 13059 12268 
4 11365 11366 12554 11810 
4 11348 12537 11794 11349 
4 12659 13121 13119 11907 
4 11032 11030 11604 12204 
4 11902 13120 11465 12662 
4 11588 12969 11788 11992 
4 11787 11587 12968 11991 
4 887 767 766 12019 
4 12018 785 784 904 
4 12678 12677 11184 12357 
4 12677 12678 11956 12389 
4 12010 13010 12294 12830 
4 12174 13082 10968 11871 
4 11098 11264 11551 12462 
4 12398 12696 12364 11518 
4 12501 12947 11714 12946 
4 11263 11096 12460 11550 
4 12047 12973 12046 890 
4 12062 12989 12061 901 
4 11368 11812 12552 11367 
4 12535 11796 11350 11351 
4 11926 13092 12499 12874 
4 13176 11920 11482 11922 
4 12037 900 12983 12036 
4 891 12051 12999 12052 
4 12697 11516 11179 11517 
4 12009 12295 12831 13011 
4 11769 11141 12934 11698 
4 11781 11158 12948 11712 
4 12693 11171 11521 11520 
4 12215 11022 12214 12217 
4 11371 12548 11816 11372 
4 11354 11355 12531 11800 
4 11865 10982 11975 12880 
4 13117 12361 12363 11213 
4 11369 12550 11814 11370 
4 11353 11798 12533 11352 
4 12694 11519 11520 11945 
4 13179 13070 13072 11883 
4 11953 11516 11515 12698 
4 11597 11019 12217 11598 
4 11461 12642 11462 11897 
4 12640 13176 11480 11922 
4 791 855 11575 12194 
4 12390 11514 12700 12356 
4 12063 783 902 782 
4 769 889 768 12048 
4 850 11574 760 12192 
4 13071 13069 12656 11880 
4 13053 11296 11605 12513 
4 12516 11927 13093 12875 
4 12900 11593 13036 11304 
4 11495 12350 11859 11192 
4 11961 11959 11512 12386 
4 11414 12797 11454 11664 
4 11981 12307 12417 11121 
4 11193 12301 11631 11129 
4 11019 11022 12217 11598 
4 12276 11855 12241 12239 
4 11194 11647 11146 12303 
4 11982 11122 12308 12418 
4 12412 11964 12066 11198 
4 12011 12788 11933 10980 
4 11818 11373 12546 11374 
4 11357 11356 11802 12529 
4 11745 13231 11399 11400 
4 12213 11023 12212 12214 
4 12890 11603 11604 13026 
4 13051 11607 11318 11317 
4 12788 12011 12162 10980 
4 11397 11413 12838 11440 
4 11618 12243 12241 11067 
4 12684 12368 11170 12685 
4 11479 13178 11887 13066 
4 11920 13176 12621 13130 
4 13032 11598 12895 11309 
4 12824 11443 11046 12261 
4 11025 12210 12212 12211 
4 11964 11414 13194 13152 
4 11227 12374 12636 12638 
4 11494 10960 11677 12480 
4 13092 12499 12613 11667 
4 12647 11481 12645 12782 
4 11589 12273 11004 11071 
4 11896 13124 12664 12634 
4 13233 17 19 884 
4 907 13234 18 16 
4 12174 13105 12012 10968 
4 11073 11590 11040 12277 
4 11383 12411 12813 12409 
4 11513 11187 11512 12701 
4 12801 12385 11741 12387 
4 11604 11619 12918 11314 
4 12614 12516 11668 13093 
4 11022 11599 12214 11598 
4 11872 12662 13077 13079 
4 12079 11358 11359 12578 
4 11375 12080 12594 11376 
4 10966 11983 12176 11867 
4 12271 11894 13155 11072 
4 12868 11004 11970 12813 
4 12382 11963 11398 11743 
4 11452 12816 11451 11062 
4 11044 11606 11045 12265 
4 11053 12254 11056 12252 
4 13004 11934 11578 12567 
4 11935 13005 12568 11579 
4 11915 11472 11476 12653 
4 11445 11444 12258 12823 
4 12534 12586 12585 12075 
4 13056 11334 12293 12832 
4 11939 12406 11522 11941 
4 11108 11423 11540 12668 
4 12669 11107 11541 11424 
4 11763 12492 12940 12491 
4 12508 12954 12509 11775 
4 12245 12246 12244 11064 
4 11825 11981 12417 11121 
4 11313 11290 11603 13027 
4 12490 11764 12939 12491 
4 12490 12489 12938 11765 
4 12508 12953 11776 12507 
4 12952 11777 12507 12506 
4 11122 11982 11826 12418 
4 11766 12489 12937 12488 
4 806 869 12429 870 
4 836 745 835 12432 
4 12833 12296 11333 13057 
4 11778 12951 12505 12506 
4 11761 12494 12942 12493 
4 13001 889 13002 12049 
4 12034 12985 12986 902 
4 12680 12681 11178 11504 
4 11401 13229 11747 13171 
4 12601 12076 12551 12602 
4 12079 12313 11644 12314 
4 12333 11660 12332 12080 
4 11543 12921 10999 11237 
4 12350 12571 11420 11859 
4 11480 13176 13060 11482 
4 11821 11377 11376 12766 
4 11805 11360 11359 12750 
4 12286 11336 11546 11095 
4 11335 11097 11547 12288 
4 12232 13022 11003 12273 
4 11773 12510 12511 12956 
4 11022 12214 12217 11598 
4 11583 11120 12309 12637 
4 13021 11584 12789 12644 
4 13179 11472 13070 11883 
4 12681 11178 11504 11503 
4 11025 11028 12211 11601 
4 12246 11615 11061 11064 
4 11366 12604 11365 12554 
4 12936 11767 12488 12487 
4 12950 11779 12505 12504 
4 11344 11491 12236 11664 
4 12537 11348 12588 11349 
4 12675 11509 12674 11962 
4 12088 12799 12412 12410 
4 804 12456 11110 11274 
4 12457 11109 747 11273 
4 12466 11079 12740 11272 
4 12741 11271 12464 11080 
4 12411 11936 11383 11729 
4 12746 12617 12592 11379 
4 12747 12608 11380 12618 
4 11562 11002 12886 12234 
4 12674 12675 11962 12383 
4 12077 12583 12584 12532 
4 13074 11879 13180 11471 
4 12600 12599 12549 12078 
4 11009 12228 12226 12227 
4 11563 12887 12270 11037 
4 12406 12692 12371 11522 
4 11248 11100 12289 12452 
4 11099 12450 12292 11247 
4 11491 12921 11543 11237 
4 13062 12164 10978 12163 
4 11238 10998 12920 11542 
4 12800 12801 12385 11742 
4 12904 11617 12243 11618 
4 11311 13030 12893 11600 
4 12270 12198 11036 12719 
4 12743 10965 13015 12177 
4 11210 12696 12364 13139 
4 13148 11117 12432 12292 
4 11936 12704 12688 11496 
4 12002 12352 12353 12620 
4 11406 11405 12819 13230 
4 11732 12405 11731 11385 
4 12289 11118 13147 12429 
4 13232 12408 12815 11410 
4 11077 11789 12744 11115 
4 11613 12251 12249 11060 
4 12688 11936 11164 11497 
4 13231 11400 12388 12825 
4 11479 11917 11476 13178 
4 11396 11439 12800 11742 
4 12146 876 12288 12148 
4 12286 12117 12115 829 
4 11199 12372 11896 12634 
4 12644 12635 11860 13127 
4 12374 11197 11227 12636 
4 13084 13082 11871 13182 
4 12606 11364 12605 12555 
4 12493 11762 12492 12941 
4 11613 12249 11614 11060 
4 12700 11217 13134 12356 
4 11000 12718 12234 12196 
4 12590 12589 12538 11347 
4 11524 11976 11729 12413 
4 13178 11476 11887 13068 
4 11261 12121 12107 755 
4 11730 11731 12407 11384 
4 12496 11591 12902 11302 
4 11666 11231 12929 11342 
4 806 11092 11100 12429 
4 11870 11868 13081 12012 
4 12966 12350 12571 11420 
4 11091 11099 745 12432 
4 903 12064 784 904 
4 783 903 12064 784 
4 888 768 767 12065 
4 887 888 767 12065 
4 887 886 13175 12019 
4 905 12018 13174 904 
4 12556 12780 11363 11808 
4 12764 12539 11792 11346 
4 11116 11078 12745 11790 
4 13078 11875 13181 11470 
4 796 12152 11262 12138 
4 11229 12928 11665 11341 
4 11714 11782 12946 11160 
4 10993 853 12474 12134 
4 852 10991 12103 12472 
4 11159 11158 11659 13200 
4 11141 11142 13199 11643 
4 11297 11617 13041 11298 
4 10964 10963 12881 12068 
4 12721 11235 11554 11669 
4 11501 11500 12683 11172 
4 11562 11851 11000 12884 
4 12222 12220 11016 12221 
4 12225 12226 12224 11012 
4 12510 12509 12955 11774 
4 11670 12720 11555 11236 
4 12081 12581 12582 12530 
4 12083 12597 12598 12547 
4 11921 13177 11483 13110 
4 11490 11238 12920 11542 
4 11519 12695 11175 11518 
4 12823 13229 12392 11402 
4 11665 12498 11287 11341 
4 12310 11582 11119 11425 
4 12885 11852 11563 11036 
4 10966 12176 12175 13085 
4 11514 11515 11183 12699 
4 11401 13229 12823 11402 
4 12515 11666 11342 11294 
4 12382 12384 12827 11398 
4 11048 12261 12263 12260 
4 12586 12535 11350 11351 
4 11447 12820 12252 11448 
4 11117 11099 11972 13148 
4 12584 11353 12533 11352 
4 11936 12411 11383 12409 
4 12550 11369 12600 11370 
4 11061 12244 11064 11062 
4 13112 11919 12651 13113 
4 11868 12028 13083 11866 
4 787 906 786 11566 
4 12907 11325 13044 11614 
4 11100 11973 11118 13147 
4 13010 12290 12563 11114 
4 11951 11750 11949 13169 
4 11770 12932 11700 11143 
4 12904 11617 11618 11298 
4 11368 12552 12602 11367 
4 11911 11474 12655 11471 
4 11466 13181 11470 11905 
4 11895 13017 11340 11300 
4 11113 13011 12564 12291 
4 11405 11751 13169 13230 
4 12720 12294 12667 11553 
4 12819 11406 13230 12400 
4 12892 11312 13029 11601 
4 11395 12801 12385 11741 
4 12795 11332 12612 12524 
4 12611 12794 11331 12523 
4 13229 11401 11747 11402 
4 12886 11562 12234 12884 
4 11607 11048 12263 12260 
4 11406 11751 11405 13230 
4 11221 11334 12832 11126 
4 11964 12088 11414 13152 
4 11600 11025 12212 12211 
4 11552 12666 12295 12721 
4 12385 11395 11741 11742 
4 13128 12563 11980 12784 
4 11030 11032 12203 12204 
4 12212 11023 11599 12214 
4 11201 13145 12376 11897 
4 13192 12025 905 904 
4 887 12024 13191 886 
4 778 898 12039 12038 
4 773 893 12054 12053 
4 895 775 12055 12056 
4 12041 776 896 12040 
4 12043 12042 774 894 
4 12058 12057 777 897 
4 11354 11355 12582 12531 
4 11371 12598 12548 11372 
4 11099 744 745 835 
4 12059 12060 899 779 
4 12044 12045 892 772 
4 806 11100 807 870 
4 11965 12381 13151 13193 
4 12887 12885 11563 12270 
4 11894 13016 11339 11293 
4 11028 12209 11025 12211 
4 12683 11500 12684 11172 
4 11045 11606 11607 12263 
4 11197 12374 12375 12636 
4 12837 12747 11380 12618 
4 12746 12836 12617 11379 
4 12746 11381 12765 12069 
4 12781 12070 12747 11382 
4 11963 12384 11398 11744 
4 13129 12564 11979 12785 
4 10966 11984 10967 12175 
4 12216 11019 12217 12218 
4 11661 12080 11377 12593 
4 11360 11645 12079 12577 
4 12066 12412 12423 12689 
4 13136 11211 12363 12698 
4 11741 12801 12387 12802 
4 12672 13006 12884 11675 
4 13013 12789 11627 12739 
4 11676 12673 12885 13007 
4 13080 11875 11466 13181 
4 12218 12220 12219 11017 
4 12481 11112 13010 11114 
4 11748 12822 11402 11403 
4 12408 12814 11410 11756 
4 13045 12908 11324 11613 
4 12671 11527 12414 11163 
4 12011 10979 13020 12162 
4 12383 12800 12385 11742 
4 13100 13069 13071 11880 
4 13014 10981 12161 10980 
4 12909 11323 13046 11612 
4 11290 11603 13027 11291 
4 12546 11373 12596 11374 
4 11357 11356 12529 12580 
4 12047 12046 770 890 
4 12061 12062 901 781 
4 12182 11253 11081 11556 
4 12833 11125 11196 11333 
4 11082 11557 12184 11254 
4 12384 12827 11398 11744 
4 12249 12247 12246 11061 
4 12704 11524 11197 11496 
4 12714 12196 12724 11556 
4 12694 12369 11209 13141 
4 11557 12715 12725 12198 
4 11623 12311 11646 11361 
4 11624 12330 11662 11378 
4 836 12458 745 12432 
4 869 12455 806 12429 
4 12613 13092 11667 12615 
4 11605 11316 12916 12513 
4 10963 11279 12179 11337 
4 12161 12788 12162 10980 
4 11617 12243 11618 11067 
4 771 12051 891 12052 
4 12037 780 900 12036 
4 12816 12244 11451 11062 
4 12677 12676 11958 11507 
4 11667 13092 11789 12615 
4 12622 12650 12033 13111 
4 11362 12086 12607 11363 
4 11345 12591 11346 12087 
4 11268 12287 12448 12147 
4 11267 12446 12118 12285 
4 11550 12460 12475 11492 
4 12614 11668 12616 13093 
4 11220 11228 12349 12619 
4 11495 12350 11192 11221 
4 11557 12725 12184 12198 
4 901 781 12035 12036 
4 12051 770 890 12050 
4 11668 12616 13093 11790 
4 11501 11946 12682 12683 
4 767 887 12024 13191 
4 12025 13192 784 904 
4 11804 11358 12527 11359 
4 12544 11820 11375 11376 
4 12460 11077 11550 12475 
4 12724 12196 12182 11556 
4 11980 12430 12784 11110 
4 12225 12223 12222 11013 
4 11028 12208 12211 11601 
4 13071 11878 13073 13101 
4 11078 12476 11551 12462 
4 11467 11464 13182 11901 
4 11879 13076 13180 11469 
4 12241 11855 11066 12239 
4 12166 12016 13097 13098 
4 11406 11407 11752 12818 
4 12431 11979 11109 12785 
4 12565 12479 11724 12305 
4 12371 11169 11522 11521 
4 12473 11573 12879 12727 
4 12471 11571 12878 12726 
4 13067 11882 11884 12032 
4 12476 11551 12462 11493 
4 12968 11587 13187 11991 
4 13188 12969 11588 11992 
4 11480 13176 11482 11922 
4 12625 12656 11473 13115 
4 12867 11040 12266 12827 
4 11614 12249 12246 11061 
4 12168 13099 13100 12015 
4 13120 12629 11465 12662 
4 12617 11727 11845 12329 
4 11846 12618 11728 12348 
4 11983 12177 13021 12789 
4 12480 12566 12306 11723 
4 11678 11495 10961 12479 
4 766 765 885 13005 
4 11327 11297 11617 13041 
4 13101 12014 13102 12170 
4 886 766 885 13005 
4 11100 11118 12289 12429 
4 11117 11099 12432 12292 
4 12251 11612 12253 11057 
4 906 12876 13004 11566 
4 13005 885 12877 11567 
4 12494 13037 11303 12495 
4 12487 12486 12935 11768 
4 11515 11516 11181 12363 
4 12949 12503 11780 12504 
4 11648 11647 13196 11147 
4 11239 12741 11569 11080 
4 11079 11568 12740 11240 
4 12414 12412 12423 11198 
4 11562 11000 12234 12884 
4 11632 13195 11130 11631 
4 731 10988 12473 823 
4 882 12471 10989 820 
4 11476 11479 13178 11887 
4 11242 11094 12720 11555 
4 11474 11472 13179 11883 
4 12369 11519 11173 11520 
4 13090 10982 11865 12880 
4 12797 11344 12236 11664 
4 11564 13183 765 764 
4 13184 11565 787 786 
4 11326 12906 11615 13043 
4 12746 11719 12069 13174 
4 13175 12070 11720 12747 
4 803 12430 11110 867 
4 748 12431 11109 838 
4 11023 11600 12212 11599 
4 11224 12414 11163 11198 
4 12798 11030 12838 12203 
4 11111 13011 12482 11113 
4 11177 12364 11517 11518 
4 11219 12067 11965 12381 
4 11955 12392 12698 12699 
4 905 785 786 13004 
4 11495 12350 11420 11859 
4 11340 12889 11232 11162 
4 12207 11027 11029 12206 
4 12433 12427 13108 11085 
4 12435 12428 13109 11086 
4 11339 11230 11145 12888 
4 11747 11955 11957 12390 
4 12331 12931 12889 11161 
4 11144 12930 12312 12888 
4 12166 12167 10975 13098 
4 12721 11554 11241 11093 
4 12404 11753 11754 11408 
4 13133 12678 13135 11182 
4 12705 11525 12703 12382 
4 11944 12401 11946 12683 
4 11413 12796 12838 11440 
4 11874 12030 11876 13075 
4 12694 12695 11947 12400 
4 882 12471 12281 10989 
4 10988 12473 823 12283 
4 11757 11223 11195 12377 
4 12165 10977 13096 11989 
4 12885 11563 12270 11036 
4 11513 11514 11185 12356 
4 12405 12403 11942 12685 
4 11629 11193 11621 12301 
4 11622 11630 11194 12303 
4 12168 12169 10973 13100 
4 11947 12398 11949 11751 
4 11670 12290 13010 11114 
4 11936 12409 11497 12687 
4 12681 12680 11178 12362 
4 11169 13144 12692 12371 
4 11669 13011 11113 12291 
4 12414 11163 11198 12424 
4 12682 11174 12683 13140 
4 892 772 12052 12053 
4 12037 899 779 12038 
4 11888 13063 11886 12033 
4 11612 12251 11613 11057 
4 13065 13097 13063 11886 
4 13097 11989 13063 11886 
4 12246 12245 11615 11064 
4 13180 11879 11469 11471 
4 13069 13100 12015 11880 
4 11750 12396 12820 13169 
4 894 774 12054 12055 
4 897 777 12039 12040 
4 895 12041 12042 775 
4 12057 12056 776 896 
4 12044 12043 773 893 
4 12058 12059 898 778 
4 13050 12914 11607 11318 
4 11474 13179 13072 11883 
4 11244 11262 11551 12448 
4 11057 12251 11060 12248 
4 13099 13069 13100 12015 
4 12678 11956 12389 12391 
4 13100 11987 13071 13101 
4 11248 12289 11577 12733 
4 12292 12731 11576 11247 
4 11261 12446 11550 11243 
4 771 12046 12045 891 
4 12061 12060 780 900 
4 11853 12230 11591 11005 
4 12731 11083 11576 11247 
4 13142 13143 11168 12685 
4 11248 11577 11084 12733 
4 13071 11987 11878 13101 
4 11338 10982 12160 11280 
4 11882 13099 13069 13067 
4 11164 12688 11497 12687 
4 12969 12749 11588 11788 
4 11587 11787 12968 12748 
4 12826 11441 11442 11042 
4 12956 13202 13204 11150 
4 11986 13103 13102 12171 
4 12675 12676 11508 11960 
4 12010 12415 12830 11967 
4 11343 11663 11490 12200 
4 13201 11133 12942 12941 
4 12169 11987 13100 13101 
4 13026 11314 13024 12483 
4 11923 12002 12353 12620 
4 13099 11882 11988 13067 
4 12647 13177 11457 13062 
4 10976 12165 12166 13097 
4 12956 12955 13202 11150 
4 12670 11221 12832 11126 
4 12292 12450 12731 11247 
4 12289 11248 12452 12733 
4 12376 11165 11897 11200 
4 13085 12642 12641 11462 
4 11876 13075 13073 13102 
4 12352 12002 12353 12703 
4 12676 11508 11958 11507 
4 12961 11718 12514 11701 
4 13199 11142 13197 11644 
4 11159 11660 13198 13200 
4 12690 11939 11523 11937 
4 12932 11700 12484 12483 
4 12663 11868 13083 13081 
4 17 19 884 10997 
4 18 907 16 10995 
4 12987 13174 12005 904 
4 887 13003 12006 13175 
4 10976 12166 12016 13097 
4 11873 11466 11467 12661 
4 12396 11404 11749 11750 
4 13096 12165 11989 13097 
4 13071 11880 12031 11878 
4 11133 13203 13201 12942 
4 13163 11263 12185 12460 
4 791 792 856 11106 
4 12331 13198 12946 11160 
4 11104 760 849 759 
4 12932 11143 12312 13197 
4 11641 12316 11642 13215 
4 13216 11657 11658 12335 
4 12088 11756 13173 11937 
4 13092 11789 12744 12475 
4 11943 12693 11521 11520 
4 11264 13164 12462 12186 
4 13091 10963 11864 11974 
4 11955 11514 11957 12390 
4 11644 13199 11643 12314 
4 11269 847 12188 12185 
4 12190 11270 858 12186 
4 11659 11660 13200 12333 
4 13201 13205 11134 12941 
4 11746 13171 11957 11959 
4 12621 12622 11477 11918 
4 11263 11096 12185 12460 
4 12167 13099 11988 13098 
4 13231 11399 11400 12825 
4 11875 11466 13181 11470 
4 12745 13093 11790 12476 
4 11714 12501 12946 12500 
4 12827 11398 11744 12826 
4 13065 13067 13098 11884 
4 11848 11624 12300 11162 
4 11145 11847 12299 11623 
4 13015 10965 12178 12177 
4 735 734 826 11080 
4 11079 816 879 817 
4 11025 12210 11023 12212 
4 12890 11603 13026 11291 
4 11098 11264 12462 12186 
4 787 907 906 11566 
4 12897 11307 13034 11596 
4 11649 12344 13226 13196 
4 11966 12009 12831 12416 
4 12151 12445 875 12137 
4 12447 12108 830 12122 
4 12016 13065 13098 11884 
4 12290 12451 11094 12720 
4 10990 12473 13234 822 
4 12471 10992 883 13233 
4 10971 13102 12170 12171 
4 11923 11218 11921 13110 
4 12325 11633 13195 13225 
4 11524 11976 12413 11223 
4 11917 11479 13113 13178 
4 13103 12172 12171 10970 
4 12741 11569 13190 13089 
4 11568 12740 13088 13189 
4 11961 11745 11959 12386 
4 11727 12617 12592 12329 
4 12618 12608 11728 12348 
4 11578 11934 11417 12567 
4 12568 11935 11579 11418 
4 12351 11222 11226 11758 
4 12721 11093 12449 12291 
4 11999 11918 13111 12354 
4 11548 11079 11123 13189 
4 11124 13190 11549 11080 
4 11947 12398 11518 11949 
4 13020 10979 12163 12162 
4 12746 12987 13174 12005 
4 13003 12006 13175 12747 
4 13233 764 17 884 
4 907 13234 16 787 
4 12672 12710 11757 12377 
4 11058 11057 11060 12248 
4 12315 11642 13217 11643 
4 12923 12795 11332 12612 
4 12922 12611 12794 11331 
4 13067 11988 13098 11884 
4 13218 11658 11659 12334 
4 12246 11061 12244 11064 
4 12832 12670 11526 12926 
4 12593 12080 11376 12543 
4 12079 11359 12577 12526 
4 765 764 884 11567 
4 11306 12898 11595 13035 
4 11151 12954 12955 13206 
4 13226 11649 13196 11148 
4 11516 12697 11951 11517 
4 11557 11852 12715 12198 
4 11283 11851 12714 11538 
4 12647 11923 13110 12620 
4 11267 11261 12446 11550 
4 11852 11284 11539 12715 
4 11877 11469 11470 12659 
4 12455 11092 12429 12708 
4 12957 12956 13204 11149 
4 12684 12683 11172 12365 
4 13009 12025 11992 785 
4 12024 11991 13008 766 
4 887 767 12024 766 
4 785 12025 784 904 
4 11851 12196 12714 11556 
4 12679 11952 11954 12393 
4 12312 11645 12313 13197 
4 13198 12331 12332 11661 
4 12709 11091 12458 12432 
4 11988 13099 13067 13098 
4 11079 11548 11105 12441 
4 12443 11103 11549 11080 
4 11685 11001 12233 11562 
4 11270 12465 12190 858 
4 12463 11269 847 12188 
4 12169 10972 13101 12170 
4 11551 11262 11268 12448 
4 13079 11870 13081 13105 
4 12828 11976 12710 12413 
4 13205 11134 12941 12940 
4 11525 11220 12705 11510 
4 13016 12964 11339 11293 
4 11594 12899 13036 11305 
4 12070 12006 13175 11720 
4 11719 12069 13174 12005 
4 11685 12091 13058 11071 
4 12336 13214 11657 11656 
4 11640 13213 12317 11641 
4 12269 11563 11686 11038 
4 11568 11484 12559 11856 
4 12464 11271 735 11080 
4 11079 12466 816 11272 
4 12521 11678 11865 12736 
4 11959 11513 11512 12701 
4 10975 12167 11988 13098 
4 11082 12132 12184 862 
4 12252 12820 12860 11448 
4 13097 12016 13065 13098 
4 11758 12351 12673 12711 
4 12430 866 11256 11545 
4 12182 843 11081 12101 
4 11073 13059 12090 11686 
4 12293 12832 11540 12712 
4 11857 12560 11485 11569 
4 12838 11030 11440 12203 
4 12337 11655 13212 11656 
4 11502 11501 11946 12682 
4 10974 13099 12167 12168 
4 13211 11639 11640 12318 
4 839 12431 748 838 
4 12430 803 866 867 
4 12676 11958 11960 12387 
4 11633 13195 13225 11131 
4 12213 11022 11023 12214 
4 11626 11070 12925 11857 
4 11603 12890 13027 11291 
4 11146 12961 13220 12959 
4 12149 12140 12281 10989 
4 12109 10988 12283 12120 
4 11648 11647 13220 13196 
4 12447 12286 12717 11546 
4 11547 12445 12716 12288 
4 11228 11220 11925 12619 
4 13017 12965 11340 11300 
4 10972 12014 13101 12170 
4 12457 12431 11109 12785 
4 12784 12430 12456 11110 
4 12370 11994 13124 11898 
4 13092 12003 12274 12874 
4 12955 11151 13206 13202 
4 11874 13075 11986 13103 
4 11848 12795 11624 11234 
4 11847 12794 11623 11233 
4 13112 11919 11478 12651 
4 12261 11046 11048 11045 
4 11125 12671 12833 11196 
4 11129 13219 12945 12960 
4 12814 11412 12799 12854 
4 11746 11401 11747 13171 
4 11004 12231 12853 12813 
4 11541 12713 12296 12833 
4 11625 11035 12924 11856 
4 12816 12404 13167 11754 
4 11632 13219 13195 11631 
4 12671 12927 11527 12833 
4 12014 11876 13073 13102 
4 11969 12832 12609 12712 
4 12176 11983 12177 13021 
4 12264 11441 12826 11042 
4 12445 11102 11547 12716 
4 12717 12447 11546 11101 
4 11824 11807 11362 12557 
4 12315 12316 11642 12082 
4 11658 12084 12334 12335 
4 11909 13118 13180 11471 
4 12349 11228 12637 12619 
4 12016 13097 13065 11886 
4 12388 13171 11959 12700 
4 13075 11986 13103 13102 
4 12014 13073 13101 13102 
4 12594 12544 11376 12767 
4 12527 11359 12578 12751 
4 12013 13104 13103 12172 
4 11563 12887 11037 11038 
4 12697 12361 11179 12363 
4 12957 13204 13226 11149 
4 11837 11805 11359 12526 
4 11751 11750 11405 13169 
4 13152 12088 12799 12412 
4 12412 12066 12423 11198 
4 13093 12004 12278 12875 
4 12166 10975 12016 13098 
4 11002 11001 11562 12886 
4 12228 12230 12229 11007 
4 11472 11885 13070 11883 
4 13203 11132 12943 12942 
4 10974 13099 12168 12015 
4 11872 13077 13104 13079 
4 11358 12527 11359 12578 
4 12544 11375 12594 11376 
4 11660 11159 13198 11160 
4 11041 12267 11854 11605 
4 12411 11524 11729 12413 
4 11439 11395 12800 11742 
4 11142 11143 13197 11644 
4 11317 13051 12512 12511 
4 11066 12239 11454 12839 
4 10977 12164 12165 13096 
4 12367 12369 11171 12693 
4 11976 12828 11729 12413 
4 12164 13064 10977 12165 
4 12279 12447 11101 12108 
4 12280 12445 11102 12137 
4 11340 12965 12889 11162 
4 12964 11339 11145 12888 
4 13181 13121 11470 11905 
4 11968 12610 12713 12833 
4 11653 13208 12339 11654 
4 11665 12928 12498 11341 
4 11165 11201 12376 11897 
4 12165 10976 11989 13097 
4 11638 13207 11637 12320 
4 12198 11244 11036 12719 
4 11666 12929 12515 11342 
4 13075 11876 11986 13102 
4 11597 11308 12896 13033 
4 12936 12937 11138 13213 
4 13214 12950 11155 12951 
4 12918 11604 11314 13026 
4 10973 12169 11987 13100 
4 11655 12338 13210 11654 
4 11000 12718 12196 11243 
4 13125 12373 12371 11203 
4 11638 12319 11639 13209 
4 11583 11220 11228 12349 
4 12445 12181 11102 12716 
4 12717 12447 11101 12183 
4 11769 12934 11699 12485 
4 12622 12650 12648 12033 
4 787 10995 13227 10991 
4 10997 764 10993 13228 
4 12793 12520 11626 12518 
4 11557 12184 11254 11076 
4 13080 11466 12661 13181 
4 11600 11025 12211 11601 
4 11562 11851 12884 11675 
4 11278 11982 11674 13154 
4 13099 11882 13069 12015 
4 11673 11277 11981 13153 
4 11852 11676 11284 12885 
4 12496 11289 11591 11302 
4 13176 11920 11922 13130 
4 12006 12070 13175 12747 
4 12069 12746 13174 12005 
4 11980 12784 10983 11110 
4 11075 11253 12182 11556 
4 12542 11377 11822 12766 
4 11360 11806 12525 12750 
4 12948 11781 12502 11713 
4 11979 10962 11109 12785 
4 11987 13100 13071 11880 
4 11943 11941 13167 11754 
4 11484 12559 11856 11681 
4 12517 12519 12792 11625 
4 12353 12703 11191 12702 
4 13082 11873 11871 11467 
4 13075 11874 13077 13103 
4 12290 12430 13128 11531 
4 11153 12953 13210 12952 
4 13209 12938 11136 12939 
4 11851 11283 12884 11675 
4 11936 12411 11524 11729 
4 12286 11336 12717 11546 
4 11335 11547 12716 12288 
4 11603 12890 11604 12204 
4 11955 13170 12392 11748 
4 12828 12411 11729 12413 
4 11002 12008 12274 12234 
4 11530 13129 12431 12291 
4 12647 11923 12620 11481 
4 11509 12675 11508 11960 
4 13126 13176 11922 13130 
4 11963 11525 12703 11510 
4 12157 10964 12881 12178 
4 12422 11219 12379 12381 
4 11676 12673 13007 11416 
4 12560 11857 11485 11682 
4 12710 11976 11415 11757 
4 12711 11758 11977 11416 
4 12215 11019 11022 12217 
4 13124 11994 11896 11898 
4 11472 11913 13179 13116 
4 11986 13102 10971 12171 
4 11063 12243 11065 12242 
4 12672 13006 11675 11415 
4 11947 11752 13168 12400 
4 13059 11073 12090 12869 
4 889 888 768 12048 
4 783 903 12063 902 
4 11216 12355 12358 13112 
4 12165 10977 10976 11889 
4 12396 11404 12821 11749 
4 11878 12014 13073 13101 
4 11921 13177 11478 11457 
4 11527 11224 12414 11163 
4 12383 12798 12800 11742 
4 11852 11676 12885 11563 
4 12091 12868 13058 11071 
4 12302 11825 11127 11229 
4 11128 11231 12304 11826 
4 11939 12690 13173 11937 
4 11575 11674 11106 12436 
4 10983 12456 13157 11274 
4 12457 13158 10962 11273 
4 11673 11574 12434 11104 
4 12681 11950 12395 12397 
4 11889 11479 11887 13066 
4 10973 12168 13100 12015 
4 12282 12425 11558 12192 
4 12284 12426 11559 12194 
4 11296 11316 11605 12513 
4 11225 11192 11219 12379 
4 11978 12742 13094 12162 
4 13076 13180 11469 12659 
4 13096 12017 13061 11888 
4 10979 12011 13020 11892 
4 11157 13216 11657 11658 
4 11140 11641 11642 13215 
4 11760 12495 11689 12943 
4 11412 12799 12854 12839 
4 11515 11516 12363 12698 
4 11744 12384 12826 13172 
4 11655 11155 13212 11656 
4 11868 12028 12663 13083 
4 12174 10968 10967 11871 
4 11639 11138 13211 11640 
4 12817 11753 12404 11408 
4 13010 11670 12010 11236 
4 11976 12710 12413 12377 
4 13074 11881 11879 11471 
4 11955 11515 11514 12699 
4 11091 12709 11488 11972 
4 13077 11872 13104 12013 
4 13001 889 12049 12050 
4 12034 12985 902 12035 
4 12796 11663 11343 12200 
4 12694 11519 12369 11520 
4 11933 12788 12161 10980 
4 12093 12672 11757 12831 
4 10976 12166 11887 10975 
4 12009 11235 13011 11669 
4 11092 11489 11973 12708 
4 12695 11519 11947 11518 
4 12226 11009 12224 11012 
4 13214 11156 11657 11656 
4 11139 13213 11640 11641 
4 13103 12013 12172 10970 
4 11532 11538 11235 12295 
4 12950 13216 11156 12949 
4 11048 12261 11045 12263 
4 12935 12936 11139 13215 
4 11943 12692 12404 13167 
4 11649 13226 11650 11149 
4 12937 12938 11137 13211 
4 13212 11154 12952 12951 
4 11465 12629 12658 12662 
4 11236 12294 11533 11539 
4 13170 12821 12822 11403 
4 12276 12275 11068 12237 
4 13168 11407 12817 12818 
4 12571 13126 11993 12422 
4 11049 12256 12862 12822 
4 11472 12653 13179 13070 
4 11648 13220 12345 13196 
4 13219 11632 13195 12326 
4 11871 13082 11467 13182 
4 12709 12458 11488 13160 
4 13037 11593 12900 11304 
4 13225 13203 11132 12943 
4 10969 12173 13104 12172 
4 12702 12353 13132 11218 
4 12575 12964 11145 12299 
4 12965 12576 12300 11162 
4 11135 13207 12939 12940 
4 13207 13209 11136 12939 
4 12954 12953 13208 11152 
4 13064 11478 11891 11889 
4 13208 11653 11153 11654 
4 12953 13208 11153 13210 
4 11154 11655 13210 11654 
4 13207 11638 11637 11136 
4 11983 10965 12176 12177 
4 11100 12289 12452 12429 
4 11137 11638 11639 13209 
4 11894 11619 13155 11072 
4 12432 11099 12450 12292 
4 13084 11871 11464 13182 
4 12674 12067 12381 11962 
4 12136 11242 12732 800 
4 13214 11155 13212 12951 
4 11138 12937 13211 13213 
4 12105 12730 751 11241 
4 11489 12455 13159 12708 
4 12732 12720 12667 11553 
4 11463 11870 11868 13081 
4 876 12146 12288 11266 
4 11265 12286 12115 829 
4 11730 11383 12813 12409 
4 13064 12651 11889 13066 
4 13102 12014 10971 12170 
4 11614 12246 11615 11061 
4 12653 11476 13178 13068 
4 12666 11552 12730 12721 
4 12388 11746 13171 12824 
4 10994 10990 13234 822 
4 10992 10996 883 13233 
4 12629 12628 12030 12658 
4 12625 12656 12652 11473 
4 11986 13103 12171 10970 
4 10972 12169 10973 11881 
4 12431 11255 748 11109 
4 803 12430 11256 11110 
4 10969 12172 10970 11875 
4 906 905 786 13004 
4 12740 11079 11240 11272 
4 11239 11271 12741 11080 
4 11730 11936 12409 11938 
4 11740 11741 12387 11394 
4 11140 12935 13215 13217 
4 11157 13216 13218 12949 
4 12677 11956 11958 12389 
4 11223 12374 12704 11197 
4 12486 12934 11698 11769 
4 11721 11335 11547 12716 
4 11336 12717 11546 11722 
4 10972 11879 10971 12170 
4 12624 12625 12652 12032 
4 11634 11633 13225 11132 
4 12818 11058 12858 12248 
4 11781 12948 12503 11712 
4 11758 12830 12092 12673 
4 11445 12258 11047 12863 
4 12655 13074 13180 11471 
4 11634 11133 13203 11635 
4 11479 11478 12651 11889 
4 12294 12720 11236 11553 
4 11586 12786 12156 11929 
4 12381 12674 11962 12383 
4 11989 13096 13063 11888 
4 13104 13077 12013 13103 
4 11703 11772 12512 12957 
4 11235 11552 12295 12721 
4 11923 12353 11218 13110 
4 13145 12690 11201 12376 
4 11913 13117 11474 13179 
4 11401 13229 12824 12823 
4 11989 13096 13097 13063 
4 13177 13112 11921 11478 
4 10974 11885 12167 10975 
4 12470 11088 12440 12722 
4 11087 12468 12723 12438 
4 12352 11220 12349 12619 
4 13080 11875 11873 11466 
4 895 12042 774 775 
4 774 895 775 12055 
4 11651 12341 11652 13202 
4 12057 776 777 897 
4 776 777 897 12040 
4 773 12044 893 772 
4 12361 12697 11179 12696 
4 893 773 772 12053 
4 899 12059 779 778 
4 779 899 778 12038 
4 13170 12821 11403 11749 
4 13204 11651 11650 11150 
4 11283 12672 12884 11675 
4 13065 11475 11884 11886 
4 12209 11028 11025 11026 
4 11277 12425 13153 12434 
4 884 764 13228 11567 
4 907 787 13227 11566 
4 11278 12426 13154 12436 
4 771 12046 891 770 
4 781 12061 780 900 
4 11632 12071 12325 12326 
4 12345 11648 12344 12072 
4 12732 12667 12469 11553 
4 12364 12696 11517 11518 
4 13126 11861 11993 11922 
4 11284 11676 12673 12885 
4 11511 11961 11512 12386 
4 12564 11580 11979 12785 
4 12446 11267 12116 845 
4 12666 11552 12467 12730 
4 12874 12232 13022 11003 
4 860 11268 12448 12145 
4 13216 13214 12950 11156 
4 11139 12936 13213 13215 
4 13099 10974 12167 11988 
4 12563 11581 11980 12784 
4 12388 11959 12701 12700 
4 12081 11640 12318 12317 
4 11171 12367 12693 12692 
4 12336 12083 12337 11656 
4 11154 13210 13212 12952 
4 12102 12279 831 12438 
4 12131 874 12440 12280 
4 11137 12938 13209 13211 
4 11419 11494 11677 12480 
4 886 887 766 12019 
4 12018 905 785 904 
4 12711 12351 12380 11977 
4 12062 12063 902 782 
4 12047 889 769 12048 
4 12679 11180 12680 12359 
4 12948 11781 12503 12502 
4 12803 12843 12210 11024 
4 12169 10972 11987 13101 
4 12486 12934 11769 12485 
4 11039 12268 12875 13023 
4 12399 11948 11946 12682 
4 12846 12806 11018 12216 
4 11282 13109 12570 12727 
4 11281 13108 12569 12726 
4 11407 11753 13168 12817 
4 13076 11879 11877 11469 
4 11214 12678 12357 13133 
4 12173 11985 13105 10968 
4 10963 13091 12881 11974 
4 12656 12031 12626 12654 
4 11004 11383 12813 11427 
4 11514 11513 12700 12356 
4 11040 11398 12827 11441 
4 12321 13205 11637 11636 
4 11187 12355 12701 12358 
4 13205 13207 11135 12940 
4 12558 11630 11382 12835 
4 11381 12834 12541 11629 
4 11705 12955 12956 11150 
4 11498 11938 11940 12686 
4 12579 11358 12752 12528 
4 12768 12545 12595 11375 
4 11219 12422 12067 12381 
4 12247 12249 11060 11061 
4 12340 11653 11652 13206 
4 11575 11278 11674 12436 
4 12877 13005 11567 11579 
4 12876 13004 11566 11578 
4 11277 11673 11574 12434 
4 11151 11651 11652 13202 
4 12829 12711 12380 11977 
4 11033 11663 12870 11072 
4 13003 12070 12006 12747 
4 12746 12069 12987 12005 
4 13077 11874 12013 13103 
4 11474 13179 12655 13072 
4 11004 12273 12868 11071 
4 11123 13088 12297 12433 
4 12435 11124 12298 13089 
4 11187 12701 12700 12358 
4 13181 13078 11470 12659 
4 12300 11624 12330 11232 
4 12954 13208 13206 11152 
4 12311 11230 12299 11623 
4 11059 12247 11060 11061 
4 13036 12494 11304 12493 
4 11870 12029 11872 13079 
4 11618 11328 13040 11298 
4 13191 11787 12970 12748 
4 12749 13192 12971 11788 
4 12928 12499 12498 11341 
4 11592 13038 12228 12902 
4 12929 12516 12515 11342 
4 11560 12111 11544 749 
4 12142 11561 802 11545 
4 11220 12352 12002 11925 
4 12008 11002 11000 12234 
4 12794 12311 12299 11623 
4 11624 12795 12300 12330 
4 11479 12651 13178 13066 
4 10969 13104 12013 12172 
4 12017 11990 13095 11890 
4 11875 13078 11877 11470 
4 11193 12301 11129 12960 
4 12961 11194 11146 12303 
4 11466 12661 13122 11903 
4 12759 11796 12535 11351 
4 11812 11368 12552 12775 
4 11467 13082 12661 13182 
4 11509 12675 11960 12094 
4 11008 12811 12852 12227 
4 12323 11634 13203 11635 
4 12553 11366 12074 12603 
4 12676 11186 12677 12354 
4 12536 12587 11349 12073 
4 12810 11010 12850 12224 
4 11226 11525 12380 11977 
4 11472 11476 12653 11885 
4 13205 11637 11636 11135 
4 12339 12338 12078 11654 
4 786 906 13004 11566 
4 765 885 13005 11567 
4 12077 12319 11638 12320 
4 12034 903 12986 12064 
4 13002 888 12065 12049 
4 12651 11479 11889 13066 
4 11876 11468 11878 13073 
4 11476 11887 13068 11885 
4 11016 12222 12221 11013 
4 12171 10971 10970 11877 
4 12168 10974 10973 11883 
4 11039 12268 11038 12875 
4 780 781 900 12036 
4 12051 771 891 770 
4 12550 12773 11814 11370 
4 11353 11798 12757 12533 
4 11630 12558 11382 11362 
4 11381 12541 11345 11629 
4 13201 11636 11635 11134 
4 11475 12649 12623 12650 
4 11653 11652 13206 11152 
4 11983 12176 11867 13021 
4 858 794 859 12186 
4 757 847 12185 846 
4 11917 13114 11476 13178 
4 10961 11118 12565 11724 
4 11925 11228 12619 12027 
4 12322 13201 11636 11635 
4 12954 11151 12955 11706 
4 11850 11590 11039 13023 
4 11380 12837 12618 11418 
4 12836 11417 12617 11379 
4 11400 11401 11746 12824 
4 11882 13069 11880 11473 
4 12548 12771 11816 11372 
4 12531 11355 12755 11800 
4 12889 12300 12330 11232 
4 11049 11051 11446 12862 
4 11230 12888 12311 12299 
4 11858 11860 12572 11419 
4 11133 12942 12941 11691 
4 10960 11117 12566 11723 
4 12828 12411 12813 11729 
4 764 17 884 10997 
4 907 16 10995 787 
4 13071 11878 12654 13073 
4 13018 13092 12003 12274 
4 13106 11868 11984 12012 
4 11199 11924 12375 12634 
4 11651 13204 11650 12342 
4 13159 12872 11973 12708 
4 12210 11025 11023 11024 
4 13160 12709 12873 11972 
4 13180 11909 11469 13119 
4 12408 11939 11756 11755 
4 11437 12843 12803 11024 
4 12216 11019 12218 11017 
4 12846 12806 11434 11018 
4 12941 11134 11692 12940 
4 12869 11073 11040 12277 
4 12806 12847 11018 12216 
4 12210 12803 11024 12844 
4 12173 10969 13104 11985 
4 11120 11583 11426 12637 
4 13022 11849 11003 11589 
4 11511 12355 12702 12386 
4 11984 13106 12012 10967 
4 12537 12761 11794 11349 
4 11716 11340 12889 11232 
4 11466 13181 11905 13122 
4 12554 11366 12777 11810 
4 11648 12345 12344 13196 
4 12321 12322 11636 12075 
4 11051 11446 12862 11052 
4 11632 12325 13195 12326 
4 11463 11868 12663 13081 
4 13006 12672 12710 11415 
4 11747 11746 13171 11957 
4 11548 12433 12441 13189 
4 13190 12443 12435 11549 
4 10985 12722 12181 12280 
4 12279 12183 12723 10984 
4 12213 12804 12844 11021 
4 11328 13025 13040 12500 
4 12004 13093 12278 13019 
4 12847 11015 12219 12807 
4 11936 11524 12704 11496 
4 12852 12812 11006 12229 
4 11194 12961 12929 12303 
4 12301 11193 12928 12960 
4 12087 12591 12326 12327 
4 12607 12086 12346 12345 
4 12584 11352 12585 12320 
4 12340 12341 11652 12076 
4 12339 12601 11369 12600 
4 12931 11716 12562 12889 
4 11128 11122 11826 12418 
4 12417 11825 11121 11127 
4 10965 10964 13015 12178 
4 11224 11964 12414 11198 
4 12239 11066 12854 12839 
4 13114 11915 11476 12653 
4 12341 12602 12603 11367 
4 12318 12583 11354 12582 
4 11371 12599 12598 12337 
4 11592 12228 11591 12902 
4 12811 11008 12851 12227 
4 11488 12873 11864 11972 
4 11949 11750 11751 13169 
4 10960 11117 11972 13148 
4 11305 12493 12492 13035 
4 889 769 12049 12050 
4 12034 902 782 12035 
4 11199 12688 12372 12375 
4 12969 13192 11788 11992 
4 13191 11787 12968 11991 
4 12587 12322 12586 11350 
4 12834 11381 12592 11621 
4 12608 11382 11622 12835 
4 12675 13131 11188 12676 
4 11010 12810 12851 12224 
4 11395 12801 12800 11742 
4 13170 12822 12392 11748 
4 12692 12371 11522 11521 
4 12845 12804 12213 11021 
4 11117 12292 11576 11247 
4 11381 12746 12765 12541 
4 12781 12747 12558 11382 
4 12621 12646 11482 11477 
4 12219 11015 12848 12807 
4 11750 11404 11405 12820 
4 11155 12950 11710 12951 
4 11696 12936 12937 11138 
4 11852 12715 12198 12885 
4 11118 11248 12289 11577 
4 13007 12673 12711 11416 
4 11036 12270 12007 11037 
4 11582 12374 11227 12638 
4 11189 12702 13132 11218 
4 13168 11752 12818 12400 
4 11973 10961 11118 13147 
4 11340 12965 12562 12889 
4 11339 12964 12561 12888 
4 12657 11876 13075 13073 
4 12793 11626 12925 12518 
4 12931 12331 11160 11161 
4 11993 13126 13146 12422 
4 11821 11376 12543 12766 
4 11359 11805 12750 12526 
4 12930 11143 11144 12312 
4 11525 12380 11977 11743 
4 11030 11031 11604 12204 
4 11606 13052 12265 12916 
4 12884 11851 12196 12714 
4 13107 13106 13083 11984 
4 11458 12011 12788 11933 
4 13199 11142 11644 11643 
4 11159 11659 11660 13200 
4 12469 11533 799 11553 
4 11469 12659 13119 11907 
4 11351 12534 12585 12075 
4 11145 12964 12888 12299 
4 12889 12965 12300 11162 
4 12792 12517 11625 12924 
4 11952 12680 11504 12395 
4 13069 11882 13067 12652 
4 11373 12597 12596 12335 
4 11356 12316 12581 12580 
4 11467 13182 13123 11901 
4 12601 12076 11368 12551 
4 12872 11865 11489 11973 
4 12961 11666 11194 12929 
4 11532 11552 752 12467 
4 11366 12553 12074 12604 
4 11624 12330 11232 11662 
4 12311 11230 11623 11646 
4 13176 11920 12621 11482 
4 12928 11193 11665 12960 
4 11430 12810 11010 12850 
4 19 884 10997 13228 
4 18 907 10995 13227 
4 11855 11618 12241 11066 
4 12588 12536 11349 12073 
4 11606 12265 11605 12916 
4 11158 13218 11658 11659 
4 11642 11141 13217 11643 
4 10994 10990 11565 13234 
4 10996 10992 11564 13233 
4 12619 11925 12027 12645 
4 11001 12232 12874 11003 
4 13207 12321 11637 12320 
4 12953 11153 11708 12952 
4 11445 12258 12863 12823 
4 12364 12695 11175 12366 
4 11210 12361 11179 12696 
4 12938 11694 11136 12939 
4 13208 11653 12339 12340 
4 11446 11049 12862 12822 
4 12209 11026 12843 12802 
4 11183 12360 12356 12699 
4 13104 11872 13079 11985 
4 12675 12676 11960 12385 
4 11336 12286 12461 11095 
4 11335 12459 11097 12288 
4 11011 12223 12809 12850 
4 12176 11867 13021 13085 
4 11164 11199 12372 11896 
4 11014 12849 12221 12808 
4 11870 13079 11985 13105 
4 12655 11474 11881 11471 
4 11011 12223 12849 12809 
4 12192 12442 12434 11104 
4 11106 12194 12436 12444 
4 12660 12630 12029 12662 
4 11040 12869 12266 12827 
4 12209 12842 11026 12802 
4 12228 12230 11591 12902 
4 12360 11183 12698 12699 
4 12304 11128 11826 12418 
4 12695 12694 11175 12366 
4 12302 11825 12417 11127 
4 12374 12413 11223 12704 
4 11228 11583 12349 12637 
4 12156 12085 10982 12880 
4 12621 12622 12648 11477 
4 11475 13065 12650 11886 
4 12225 12223 11013 11012 
4 11292 11619 11314 13024 
4 12220 11016 12219 11017 
4 12477 11568 11335 11240 
4 12478 11336 11239 11569 
4 12805 12846 11020 12215 
4 12368 13142 11995 12685 
4 11964 12088 12412 12410 
4 12799 12088 13173 12410 
4 827 12464 735 826 
4 878 12466 816 879 
4 13092 11926 12003 12874 
4 10977 12164 13096 12017 
4 13065 13067 11884 12649 
4 13204 11650 12342 12343 
4 12641 13084 11464 13182 
4 11405 12820 12819 13230 
4 12174 12173 13105 10968 
4 11316 13052 11605 12916 
4 11946 12399 12682 12683 
4 11339 11715 11230 12888 
4 11306 12492 12491 13034 
4 11459 12966 12571 11420 
4 12267 12266 11854 12917 
4 12338 12339 13210 11654 
4 12957 11704 12956 11149 
4 11847 12297 12794 11233 
4 12795 11848 12298 11234 
4 13232 12408 11410 11755 
4 13151 11965 13193 11413 
4 12804 11436 12844 11021 
4 11638 12319 13209 12320 
4 12323 11634 12324 13203 
4 11014 12221 12848 12808 
4 12514 11701 11296 13224 
4 11711 12950 11156 12949 
4 11015 12847 11433 12807 
4 12805 11020 12845 12215 
4 11079 11548 12441 13189 
4 13190 12443 11549 11080 
4 12816 13232 12815 11409 
4 12935 12936 11697 11139 
4 11925 12620 11481 12645 
4 12589 11348 11347 12071 
4 13082 11873 11467 12661 
4 12072 11364 11365 12605 
4 11582 11227 11425 12638 
4 12497 11687 11289 13223 
4 12083 12597 12547 11372 
4 12581 12081 11355 12530 
4 12331 12946 12931 11160 
4 12930 12932 11143 12312 
4 11640 13213 12318 12317 
4 11860 12739 12572 11419 
4 13214 12336 12337 11656 
4 11829 12026 11460 12665 
4 11058 12818 12858 11450 
4 857 12465 793 858 
4 758 848 12463 847 
4 13081 12174 13105 12012 
4 11591 13038 12902 11302 
4 11846 11728 11826 12348 
4 11845 11727 11825 12329 
4 12317 12316 11641 13215 
4 13216 12336 11657 12335 
4 13020 10979 11892 12163 
4 13151 11397 11413 12838 
4 11655 12338 12337 13212 
4 11122 11982 12308 11674 
4 11154 11709 12952 12951 
4 12938 11695 12937 11137 
4 11981 11673 12307 11121 
4 12319 11639 13211 12318 
4 12491 12490 11307 13033 
4 13082 13080 11873 12661 
4 12753 11357 11802 12529 
4 11818 12546 12769 11374 
4 12583 12077 11353 12532 
4 10969 12173 11873 10968 
4 12561 12930 11715 12888 
4 12549 12599 11370 12078 
4 12235 11070 11069 11543 
4 11542 12199 11034 11035 
4 12268 12269 11038 12875 
4 13134 13114 12356 11215 
4 13158 12158 11337 12180 
4 11535 11282 12570 12727 
4 11534 11281 12569 12726 
4 12367 11171 11206 12692 
4 11336 12286 12717 12461 
4 12459 11335 12716 12288 
4 11881 11474 13072 11883 
4 13126 11861 12640 12571 
4 13117 11911 11474 12655 
4 11872 11465 11874 13077 
4 13095 12017 11890 13061 
4 12985 12763 11831 11792 
4 11808 13001 11838 12779 
4 11445 11049 11446 12822 
4 11519 12694 11947 11945 
4 11619 12918 11314 13024 
4 12953 12954 11707 11152 
4 11693 11135 12939 12940 
4 13059 11073 12869 12268 
4 11117 11099 13148 12432 
4 12425 11574 12192 12434 
4 12655 13074 11881 13072 
4 12426 11575 12194 12436 
4 11955 11953 11515 12698 
4 11666 12961 11194 11718 
4 12155 11338 13157 12159 
4 12451 11242 12720 12732 
4 10979 11978 13094 12162 
4 12730 12721 11241 12449 
4 12360 11183 11211 12698 
4 11193 11717 11665 12960 
4 12694 11209 11175 12366 
4 11943 12692 11941 11521 
4 11118 11100 13147 12429 
4 12446 12718 11550 11243 
4 11551 11244 12448 12719 
4 12230 12229 11007 11005 
4 12351 11222 11758 11967 
4 13074 12655 11881 11471 
4 11151 12955 11705 11150 
4 12364 11208 13139 13119 
4 10990 12473 11565 13234 
4 10992 12471 11564 13233 
4 11829 11930 12026 12643 
4 11008 12811 12851 11429 
4 12842 11438 11026 12802 
4 11851 11000 12196 11075 
4 12647 11483 11481 12782 
4 12085 10981 11933 12161 
4 895 12041 775 896 
4 895 775 12056 896 
4 773 893 894 12054 
4 897 777 898 12039 
4 12043 773 893 894 
4 777 12058 897 898 
4 11852 12198 11076 11036 
4 11745 13231 11400 12388 
4 11000 12234 12884 12196 
4 12696 11951 11517 11949 
4 771 891 892 12052 
4 11132 11690 12943 12942 
4 11651 12341 13202 12342 
4 12045 771 891 892 
4 13009 13192 12969 11992 
4 12968 13191 11991 13008 
4 12037 899 900 779 
4 899 12060 900 779 
4 749 839 11255 748 
4 11358 11357 12752 12528 
4 12545 12768 11374 11375 
4 11464 11871 11467 13182 
4 866 803 11256 802 
4 11220 12705 12349 11226 
4 11961 12384 13172 12702 
4 13232 12815 11409 11410 
4 11011 12849 11431 12809 
4 11364 12072 12606 12605 
4 13082 12174 13084 11871 
4 11164 12372 11994 11896 
4 11022 12213 11023 11021 
4 12590 12589 11347 12071 
4 13009 13192 12025 905 
4 13191 12024 13008 886 
4 11853 12903 12230 12231 
4 11157 13218 12948 12949 
4 10987 792 857 793 
4 12934 12935 11140 13217 
4 10986 759 848 758 
4 11960 12385 11741 11742 
4 11134 11133 12941 11691 
4 13093 11927 12004 12875 
4 12944 11759 12495 11689 
4 11858 12572 12423 12424 
4 12817 12247 11059 12857 
4 11966 11757 11195 12377 
4 11187 12700 11217 12358 
4 12571 11859 12421 12422 
4 12183 10999 12723 10984 
4 10998 10985 12722 12181 
4 11939 12691 11523 11522 
4 12089 12383 12798 13151 
4 11535 13188 12879 12570 
4 11534 13187 12878 12569 
4 11001 11002 12274 12886 
4 11771 11703 12512 12958 
4 11936 12409 11938 11497 
4 11238 12722 12712 12195 
4 11068 11074 11664 12871 
4 11264 11078 11551 12462 
4 11806 12970 12748 12750 
4 11822 12749 12766 12971 
4 11628 13012 11975 11933 
4 13005 11935 12837 12019 
4 12018 12836 11934 13004 
4 12868 12232 13058 11071 
4 12956 11704 11150 11149 
4 12545 12596 12595 12084 
4 12579 12082 12528 12580 
4 13063 13061 12648 11888 
4 13068 12653 11885 13070 
4 12355 11189 12702 13132 
4 11077 11263 12460 11550 
4 12276 12275 11074 11068 
4 12431 12457 11109 838 
4 12430 12456 11110 867 
4 12198 12885 12270 11036 
4 12651 11478 13064 11889 
4 11993 13146 11190 12067 
4 12887 12278 11037 11038 
4 11281 12427 12726 11250 
4 12428 11282 11252 12727 
4 12723 12197 12713 11237 
4 11868 13106 13081 12012 
4 12232 11001 12874 12233 
4 12861 11052 12255 12821 
4 12072 12344 12606 12605 
4 12628 12030 12658 12657 
4 11957 11513 11959 12700 
4 12590 12589 12071 12325 
4 12653 11472 11885 13070 
4 12298 11848 11684 11234 
4 11847 11683 12297 11233 
4 11078 12476 11672 11493 
4 11020 12805 12845 11435 
4 11077 12475 11671 11492 
4 12604 12343 11365 12605 
4 12962 11981 12307 12417 
4 12656 13071 11880 12031 
4 12308 11982 12418 12963 
4 11475 13065 12649 12650 
4 13129 11530 11255 11979 
4 11848 12795 12420 11624 
4 12419 11847 12794 11623 
4 11782 11716 12946 11160 
4 12705 12349 11226 12380 
4 11432 11014 12848 12808 
4 10965 10966 11983 12176 
4 12588 11348 12589 12324 
4 11238 10998 12722 12195 
4 11195 12416 11119 11111 
4 11890 13061 11888 11477 
4 11980 13128 11256 11531 
4 11935 12837 11720 11418 
4 12836 11934 11417 11719 
4 12398 12696 11517 11949 
4 11619 13024 11894 13155 
4 12003 12274 12874 11827 
4 804 11274 11276 868 
4 747 837 11273 11275 
4 11132 11133 11690 12942 
4 11681 12964 11339 11145 
4 11682 12965 11340 11162 
4 12796 12201 12838 11440 
4 10981 11933 12161 10980 
4 11197 11924 11227 12636 
4 11606 12265 12915 12263 
4 11257 11087 12669 11107 
4 11258 11108 11088 12668 
4 10999 12197 12723 11237 
4 11939 12406 11941 11755 
4 11449 12818 11058 11450 
4 12739 12644 11860 12572 
4 11464 13125 13182 11901 
4 12831 11966 12416 12377 
4 11155 12950 11156 11710 
4 11059 12817 12857 11451 
4 12936 11696 11139 11138 
4 12743 11930 11829 12643 
4 11055 11057 11449 12859 
4 11540 12832 11969 12712 
4 11583 11220 12349 11226 
4 12321 12322 13205 11636 
4 12830 12415 12351 11967 
4 11154 11155 11709 12951 
4 11860 13127 11897 11200 
4 11695 12937 11137 11138 
4 11024 12803 11436 12844 
4 12847 12806 11018 11433 
4 12276 11855 12239 11068 
4 12890 12484 13027 11291 
4 13078 13076 11877 12659 
4 11153 11154 11708 12952 
4 12456 10983 11110 11274 
4 12457 10962 11109 11273 
4 13045 12505 12506 11323 
4 11711 11156 11157 12949 
4 12919 11618 11855 11328 
4 12938 11694 11137 11136 
4 11707 12953 11152 11153 
4 12935 11697 11140 11139 
4 11829 12026 12665 12643 
4 11135 11136 11693 12939 
4 12861 11447 11052 12821 
4 13041 11617 12904 11298 
4 12191 11089 818 881 
4 12193 824 11090 733 
4 11944 12401 12683 12684 
4 12954 11151 11706 11152 
4 12479 11495 11724 12305 
4 11134 11135 11692 12940 
4 11100 11248 807 12452 
4 13078 11877 11470 12659 
4 11874 12658 13075 13077 
4 12743 11829 12665 12643 
4 11112 11670 13010 11114 
4 12369 13141 13122 11205 
4 12067 11965 12381 11962 
4 11615 12906 13042 11616 
4 12156 12786 12160 11280 
4 12595 11375 12333 12594 
4 12579 11358 12314 12578 
4 13058 13006 12710 11415 
4 13063 13096 13061 11888 
4 11449 11057 11058 12859 
4 11918 11999 13111 11916 
4 12863 12256 11049 12822 
4 11952 12679 12680 12393 
4 13136 13117 12363 11213 
4 12787 12157 11279 12179 
4 11968 12713 11541 12833 
4 12810 11010 12851 11429 
4 11112 11120 12415 11222 
4 12089 12381 12383 13151 
4 13032 11308 12489 12490 
4 902 12062 782 901 
4 890 12047 889 769 
4 13176 12640 11480 13020 
4 12273 11853 11004 12231 
4 12409 11938 11497 12687 
4 11058 12818 12859 12248 
4 11534 11281 12726 11250 
4 11252 11282 11535 12727 
4 12262 11044 11045 12265 
4 12845 12804 11021 11435 
4 782 902 901 12035 
4 889 890 769 12050 
4 12092 12830 12715 12673 
4 11563 12887 12269 13007 
4 11015 11432 12848 12807 
4 11039 11590 12268 13023 
4 11538 11532 12666 12295 
4 11310 13030 12488 12487 
4 12586 12534 11351 12075 
4 12231 11004 12868 12813 
4 11309 13031 12489 12488 
4 12710 13058 11415 11421 
4 11650 12342 12343 12074 
4 12009 11235 12295 13011 
4 12730 12105 841 12124 
4 12136 12153 864 12732 
4 12233 13006 11562 12886 
4 12505 12504 11324 13044 
4 11278 11330 11982 13154 
4 11277 11329 11981 13153 
4 13011 11111 11669 11113 
4 12331 12332 11661 12593 
4 11634 12073 12323 12324 
4 11645 12312 12313 12577 
4 11096 12185 12460 12285 
4 13059 13007 12711 11416 
4 13010 12010 12294 11236 
4 12690 12691 11939 12408 
4 11533 12294 12667 11539 
4 12076 11368 12551 12602 
4 11494 12480 12306 11723 
4 12341 12340 11652 13206 
4 12287 11098 12462 12186 
4 12157 10964 10963 12881 
4 12028 11866 11460 12783 
4 11292 11339 12561 11715 
4 11478 13177 12651 13064 
4 11872 12029 12662 13079 
4 12710 11976 11757 12377 
4 823 12109 12283 12120 
4 12140 882 12149 12281 
4 11235 11552 12721 11554 
4 12428 13109 11282 12727 
4 12427 13108 11281 12726 
4 12220 12897 11596 12218 
4 12476 11078 11551 11493 
4 11758 12351 12711 11977 
4 13218 11658 12334 12335 
4 12316 12315 11642 13217 
4 13059 12711 11422 11416 
4 11838 12051 13000 12050 
4 12035 11831 12984 12036 
4 12932 11770 11715 11143 
4 824 12428 11090 12283 
4 12427 11089 881 12281 
4 13092 11789 12475 11671 
4 12816 11754 11409 11408 
4 12720 11555 11236 11553 
4 11513 11957 12390 12700 
4 11787 13191 12968 12748 
4 13192 12749 12969 11788 
4 12812 11428 12852 11006 
4 12849 11014 11431 12808 
4 13160 11488 12873 11864 
4 13093 11790 12476 11672 
4 11128 12614 11342 11668 
4 11726 11586 12156 11929 
4 13017 11895 11340 11299 
4 11009 11008 12851 11429 
4 10969 12173 12172 13080 
4 11454 12797 12839 12237 
4 11338 11786 11280 13086 
4 13022 11003 12273 11589 
4 12721 11669 11093 12291 
4 11670 12290 11094 12720 
4 11077 11550 12475 11492 
4 12656 13071 12031 12654 
4 13016 11292 11894 11339 
4 12322 12323 13201 11635 
4 11428 11008 12811 12852 
4 11279 11785 13087 11337 
4 11525 12382 12380 11743 
4 12703 12002 11191 11510 
4 11188 13131 12000 12676 
4 11027 11602 11029 12208 
4 11194 12929 12347 12303 
4 12301 11193 12328 12928 
4 12948 11157 12949 11712 
4 12934 12935 11698 11140 
4 12688 11199 11496 12375 
4 12077 12584 11353 12532 
4 11026 11437 12843 12802 
4 12600 12549 11370 12078 
4 12457 838 837 747 
4 12456 804 867 868 
4 11235 12721 13011 11669 
4 11127 12613 11341 11667 
4 11073 12869 12268 12277 
4 12225 12899 11594 12222 
4 12278 12004 11828 12875 
4 12914 13051 11607 11318 
4 11019 11020 12215 11022 
4 10978 12017 11990 13095 
4 12195 12199 11721 12716 
4 12235 12717 11722 12197 
4 11670 13010 12720 11236 
4 13018 13092 12475 11671 
4 11825 11981 12962 12417 
4 11686 13059 11422 11416 
4 11664 11068 12871 12237 
4 11982 11826 12418 12963 
4 10978 12164 10977 12017 
4 11366 12074 12603 11367 
4 12587 11350 11349 12073 
4 11864 12522 11677 12737 
4 12474 11572 789 11251 
4 762 11570 11249 12472 
4 11255 12431 11979 11109 
4 11269 757 847 12185 
4 858 11270 794 12186 
4 12898 12220 11595 12222 
4 11585 12157 11928 12787 
4 10979 11978 12162 10980 
4 11050 11445 12863 11049 
4 12476 13093 11672 13019 
4 11586 12786 11929 11280 
4 12749 11822 11588 11788 
4 11806 11787 11587 12748 
4 12430 11980 11256 11110 
4 11869 13085 12641 11462 
4 10987 12465 11246 793 
4 12464 735 826 11080 
4 12466 11079 816 879 
4 11865 12872 11489 13159 
4 11068 11074 12871 12237 
4 12008 13018 12274 12234 
4 12012 12174 10968 10967 
4 11199 11924 11197 12375 
4 10986 11245 758 12463 
4 11218 13132 11921 13110 
4 12955 11151 11774 11706 
4 11011 12809 11430 12850 
4 11436 11023 12844 11021 
4 12026 11930 11725 12643 
4 12608 11382 11728 11622 
4 11381 11727 12592 11621 
4 11873 13080 11466 12661 
4 11867 12642 13085 11462 
4 12481 13010 12563 11114 
4 13226 11649 11650 12343 
4 11448 12819 11055 11449 
4 11593 12225 12226 12900 
4 11822 12749 12971 11788 
4 12970 11787 11806 12748 
4 12487 12935 11697 11768 
4 11877 13076 11469 12659 
4 11002 11562 11000 12234 
4 12846 12805 11020 11434 
4 11604 11032 12204 12272 
4 11711 12949 11780 12504 
4 793 12465 11270 858 
4 11269 758 12463 847 
4 765 13008 766 885 
4 13008 886 766 885 
4 13011 12482 11113 12564 
4 12903 11301 11853 11591 
4 12088 11964 11937 12410 
4 12216 11018 11019 11017 
4 11099 12709 11972 13148 
4 11374 12595 11375 12084 
4 11358 12579 12082 11357 
4 11100 11973 13147 12708 
4 13040 12501 11298 12500 
4 11328 13040 11298 12500 
4 887 12024 886 766 
4 905 12025 785 904 
4 11023 11024 11436 12844 
4 11134 11762 12941 11692 
4 11405 11406 12819 11448 
4 12647 11923 11483 13110 
4 11468 12627 12654 12657 
4 11228 12619 12027 12639 
4 11890 11892 13060 11482 
4 11674 11278 13154 12436 
4 11186 12676 12677 11507 
4 12492 11692 11763 12940 
4 11673 11277 13153 12434 
4 13052 11606 11605 12916 
4 11563 12270 11036 11037 
4 11573 12473 12879 11565 
4 11571 12471 12878 11564 
4 12501 12947 11713 11714 
4 12954 12509 11775 11706 
4 12331 13198 11160 11661 
4 11764 11693 12939 12491 
4 11437 11025 12843 11024 
4 11437 11025 11026 12843 
4 11143 11645 12312 13197 
4 11700 11699 12933 12484 
4 12819 12250 11055 12859 
4 13058 11685 11415 11421 
4 11393 11392 12803 11739 
4 12490 12938 11694 11765 
4 11174 11501 12682 12683 
4 11716 11340 12562 12889 
4 12953 12508 11776 11707 
4 13038 11592 11591 12902 
4 12803 11437 11024 11436 
4 12806 11434 11018 11433 
4 11777 11708 12952 12507 
4 11410 12408 11756 11755 
4 12489 11695 11766 12937 
4 11352 11351 12585 12075 
4 11855 12919 12276 12241 
4 12310 11582 11425 12638 
4 12445 11260 11102 12137 
4 12447 11101 12108 11259 
4 11778 11709 12951 12506 
4 12076 12601 11368 11369 
4 11787 12022 12970 11806 
4 11822 12971 12023 11788 
4 12926 12796 11343 12200 
4 13036 11304 11305 12493 
4 13021 11867 12642 13085 
4 12370 13143 12686 11166 
4 12228 11592 12226 12901 
4 12445 876 12288 11266 
4 12447 12286 11265 829 
4 13009 905 785 786 
4 11516 12697 11179 12363 
4 10962 12457 11109 12785 
4 10983 12784 12456 11110 
4 11939 12690 12408 13173 
4 11767 11696 12936 12488 
4 12456 13157 11274 12159 
4 11044 12264 12267 12265 
4 12457 13158 11273 12180 
4 11759 12944 12495 13223 
4 13224 11771 12512 12958 
4 11374 12545 12595 12084 
4 12579 12082 11357 12528 
4 11009 11010 12224 11012 
4 12950 11779 11710 12505 
4 13013 12881 12068 12178 
4 12194 791 856 11106 
4 760 12192 11104 849 
4 12743 10965 11930 13015 
4 12919 11620 11855 12276 
4 11393 11740 12802 11394 
4 12305 11221 11334 12832 
4 12955 11151 11705 11774 
4 10990 10994 730 822 
4 10992 10996 821 883 
4 11923 12353 13110 12620 
4 11858 12423 13127 11200 
4 11716 11340 11299 12562 
4 11773 11705 12956 11150 
4 12524 12749 11822 11588 
4 11882 13067 12652 12032 
4 12703 11963 11191 12702 
4 12640 11458 13020 12788 
4 13177 11921 11483 11457 
4 12273 12232 12868 11071 
4 11620 12919 11855 11328 
4 12083 11373 12597 11372 
4 12081 11356 12581 11355 
4 11427 11428 12812 11006 
4 12174 10967 12175 13084 
4 11397 11396 12800 11742 
4 12681 11997 13137 12362 
4 12589 11348 12762 11347 
4 12265 12267 11605 12916 
4 11364 11365 12605 12778 
4 12369 11171 12693 11520 
4 11851 11000 12884 12196 
4 13192 12025 11788 11992 
4 12024 11787 13191 11991 
4 11920 12621 13131 13130 
4 11997 13137 12362 11910 
4 11778 11155 11710 12951 
4 12922 11233 11281 11486 
4 11282 12923 11234 11487 
4 12892 11602 13028 11601 
4 11762 11134 12941 11691 
4 11444 11401 12823 11402 
4 12620 12647 11481 12645 
4 13220 12959 13196 11147 
4 12160 10982 13090 12880 
4 11776 12953 11153 11708 
4 11355 12081 12582 12530 
4 12598 12083 12547 11372 
4 11192 12421 11219 12379 
4 11766 11696 12937 11138 
4 12804 11436 11021 11435 
4 11015 11433 11432 12807 
4 12664 11460 12634 12783 
4 13219 13195 11130 12945 
4 11223 12374 11197 11582 
4 12380 12829 11977 11743 
4 11526 12832 12926 11969 
4 12372 12370 12687 11994 
4 12217 11597 12896 12218 
4 11003 12232 12273 11589 
4 11136 11694 11764 12939 
4 11930 13015 12791 12643 
4 11431 11011 12809 11430 
4 12382 12829 12380 11743 
4 12077 12583 11353 11354 
4 11133 11761 12942 11691 
4 11855 11066 12239 11068 
4 12599 11371 11370 12078 
4 13142 12368 11995 11902 
4 11869 13084 11871 11464 
4 12198 11852 12885 11036 
4 12646 11890 11482 11477 
4 12394 11516 11953 12698 
4 11043 11443 12865 11045 
4 11841 12549 11815 11370 
4 12002 11923 12353 11218 
4 11833 12534 11797 11351 
4 11813 11368 11840 12551 
4 12644 12642 11461 12635 
4 12087 11629 12327 11631 
4 11978 13014 12162 10980 
4 12927 12671 11527 12414 
4 12594 12080 12593 12543 
4 12079 12577 12578 12526 
4 11869 12641 11464 11462 
4 12086 11647 11630 12346 
4 13063 12650 11886 12033 
4 11227 11924 12026 12636 
4 11456 12739 11860 11419 
4 11443 12824 12865 12261 
4 13132 13177 11921 13110 
4 12402 12694 11520 11945 
4 12810 11430 11010 11429 
4 11010 11009 12851 11429 
4 12292 11117 11576 11723 
4 12824 12864 11444 12823 
4 13204 12956 11150 11149 
4 11196 12833 11333 12306 
4 12442 12434 11104 11536 
4 11537 11106 12436 12444 
4 11704 11773 12956 11150 
4 13021 12644 12642 11461 
4 11061 11059 12857 11451 
4 11315 11854 12917 11605 
4 11379 12746 11719 12069 
4 12070 11720 12747 11380 
4 11340 13017 11299 12562 
4 13106 11868 13083 11984 
4 12653 11476 13068 11885 
4 11438 11437 11026 12802 
4 12949 11157 11780 11712 
4 11683 11123 12297 12433 
4 11124 12435 12298 11684 
4 12935 11768 11698 11140 
4 11306 11305 12492 13035 
4 885 765 884 11567 
4 13012 12085 11975 11933 
4 13222 12331 11661 12593 
4 11645 13221 12312 12577 
4 10965 11932 12178 12177 
4 11501 11502 11174 12682 
4 12563 12786 11581 12784 
4 12649 12624 12652 12032 
4 11580 11979 12785 11785 
4 12676 11186 11508 11507 
4 12515 11295 11850 13055 
4 11761 12494 11690 12942 
4 12825 11043 11442 11443 
4 12865 11443 11046 11045 
4 11997 13137 11910 11908 
4 12499 11926 12874 13022 
4 12060 12990 12061 11843 
4 12974 11836 12046 12045 
4 11155 11778 11709 12951 
4 12443 825 734 826 
4 879 817 880 12441 
4 12425 11277 11574 12434 
4 11831 12538 11793 11347 
4 11809 11364 11838 12555 
4 11776 12953 11707 11153 
4 12493 11762 12941 11691 
4 11695 11766 12937 11138 
4 12289 11118 11577 11724 
4 11087 12468 12095 741 
4 12426 11278 11575 12436 
4 12126 12470 810 11088 
4 13106 12174 12012 10967 
4 11868 13106 13083 13081 
4 11133 11761 11690 12942 
4 11538 12093 11235 12295 
4 12950 11779 11711 11156 
4 12092 12294 11236 11539 
4 12269 11563 13007 11686 
4 12824 12825 11443 12865 
4 825 824 12193 733 
4 880 12191 818 881 
4 12965 13017 12520 11300 
4 12310 12374 11582 12638 
4 11089 819 12281 10989 
4 12374 12704 11197 12375 
4 13039 11301 12903 11591 
4 11693 11136 11764 12939 
4 11339 12561 11715 12888 
4 12936 11767 11697 11139 
4 12927 11968 11527 12833 
4 11581 11786 11980 12784 
4 12857 11061 11451 11062 
4 11154 11709 11777 12952 
4 11225 11526 12926 11343 
4 12564 12787 11580 12785 
4 11130 12944 11131 11688 
4 12516 11927 12875 13023 
4 12903 11853 12230 11591 
4 13016 12519 12964 11293 
4 11035 12199 12924 12716 
4 11147 11702 12958 11148 
4 12954 11775 11707 11152 
4 11695 12938 11765 11137 
4 12454 861 11254 12138 
4 12235 11070 12717 12925 
4 11117 12292 12566 11723 
4 12130 12469 799 11553 
4 11763 11135 11693 12940 
4 12422 12674 12067 12381 
4 12518 12560 12576 11682 
4 12107 11253 844 12453 
4 11995 13142 11902 11900 
4 11876 12030 12657 13075 
4 11043 12825 12262 12865 
4 11890 13060 12646 11482 
4 13013 11932 12068 11627 
4 12344 11649 13226 12343 
4 889 769 768 12049 
4 783 12034 902 782 
4 13203 11133 11132 12942 
4 11552 752 12467 12099 
4 11725 11930 12791 12643 
4 13081 13106 12174 12012 
4 12922 11281 12569 11486 
4 11282 12923 11487 12570 
4 11361 12523 12525 12748 
4 12027 12619 12645 12639 
4 11922 11993 13146 11190 
4 10988 11090 11252 12283 
4 11089 12281 11250 10989 
4 11965 12381 12089 13151 
4 11306 12491 11307 13034 
4 11113 12564 11580 11979 
4 12805 11020 11434 11435 
4 12510 12955 11705 11774 
4 11228 12637 12639 11455 
4 12575 12517 12559 11681 
4 11123 13088 12419 12297 
4 12298 11124 12420 13089 
4 11704 11773 12511 12956 
4 11583 12309 12349 12637 
4 11159 11714 12946 11160 
4 12406 12691 11939 11522 
4 12765 12069 11823 12987 
4 13003 12070 12781 11824 
4 12501 13041 12904 11298 
4 11431 11014 11432 12808 
4 11114 12563 11581 11980 
4 12814 11412 12854 11411 
4 11561 12142 12451 11545 
4 12324 11634 11633 13225 
4 12289 13056 11577 12733 
4 12449 11560 12111 11544 
4 12292 12731 13057 11576 
4 12672 11757 12831 12377 
4 11627 12789 11456 12739 
4 11157 11711 12949 11780 
4 11078 11246 13164 11264 
4 12935 11697 11768 11140 
4 11095 737 828 736 
4 814 877 11097 815 
4 11772 11704 12957 11149 
4 12658 12030 11874 13075 
4 13198 11660 11160 11661 
4 11245 11077 11263 13163 
4 11982 11330 12963 13154 
4 11981 11329 12962 13153 
4 11143 11645 13197 11644 
4 11288 11849 12498 13054 
4 13039 12903 12230 11591 
4 12411 11936 12704 12688 
4 11668 11863 12616 11790 
4 11118 12289 12565 11724 
4 11450 12817 11059 11451 
4 12011 10979 12162 10980 
4 11008 11428 12811 11429 
4 12950 11779 11156 11710 
4 12411 11383 12813 11729 
4 12768 12990 12545 11843 
4 11836 12752 12528 12974 
4 12992 12059 12058 11842 
4 12976 11835 12044 12043 
4 11839 12052 12053 12998 
4 12037 12982 12038 11832 
4 12967 11419 11677 12480 
4 11696 11767 12936 11139 
4 12932 11142 11700 11143 
4 839 12431 11255 748 
4 11602 11029 12208 12206 
4 11525 11963 12703 12382 
4 803 12430 866 11256 
4 824 11090 732 12120 
4 11708 11154 11777 12952 
4 11377 12593 11376 12543 
4 11359 11360 12577 12526 
4 11862 11667 11789 12615 
4 11844 12062 12063 12988 
4 12048 12047 12972 11837 
4 11389 12807 11735 11388 
4 11033 11032 11619 12272 
4 11760 11132 11690 12943 
4 13006 11562 12884 11675 
4 12468 11257 12669 12731 
4 12470 12733 11258 12668 
4 11775 12954 11706 11152 
4 11030 12798 12838 11440 
4 12938 11694 11765 11137 
4 11014 11016 12221 11013 
4 11834 12978 12041 12042 
4 12994 11841 12057 12056 
4 12040 12039 12980 11833 
4 12054 11840 12996 12055 
4 11673 12434 13149 11536 
4 13150 11537 11674 12436 
4 11806 11361 12525 12748 
4 12918 11604 12204 12272 
4 11692 11135 11763 12940 
4 11978 13014 12742 12162 
4 11474 12655 11881 13072 
4 12571 11861 11420 11859 
4 11703 11772 12957 11149 
4 11538 12093 12295 12831 
4 11344 12927 12797 12236 
4 11924 11199 11896 12634 
4 12351 12830 11758 12673 
4 13006 11685 12233 11562 
4 11860 11858 13127 11200 
4 11460 11924 12634 12665 
4 11458 12738 11628 11933 
4 11434 12846 11018 11019 
4 11212 12359 11912 13115 
4 13107 11984 10966 12175 
4 13231 11399 12825 12826 
4 12172 12171 10970 13078 
4 12352 12002 11925 12620 
4 11928 11585 12787 11279 
4 13018 13092 11671 12003 
4 11020 12846 11434 11019 
4 12571 11993 11859 12422 
4 11336 11070 12717 11722 
4 12266 11040 11854 12277 
4 11924 11197 12375 12636 
4 12223 11011 11013 11012 
4 11132 11760 11689 12943 
4 11620 12276 11074 11068 
4 11721 11035 11335 12716 
4 11904 13120 11204 12365 
4 12780 12607 12556 11363 
4 12764 12591 12539 11346 
4 12228 11009 11007 12227 
4 11103 12443 12435 12193 
4 12433 11105 12441 12191 
4 12923 11332 11234 11487 
4 12922 11331 11233 11486 
4 10962 13158 11337 11273 
4 12401 12399 11946 12683 
4 11864 12522 11974 11677 
4 12527 11804 11359 12751 
4 12544 11820 11376 12767 
4 12955 11151 13202 11150 
4 11015 12847 11017 11433 
4 11924 12026 12636 12665 
4 12814 11756 11412 11411 
4 11443 12865 11046 12261 
4 11676 12885 11563 13007 
4 11142 12932 11700 12933 
4 11825 12302 12328 11229 
4 13182 13123 11901 13144 
4 12515 11850 13023 13055 
4 11573 12473 12283 12727 
4 11571 12471 12281 12726 
4 11231 12304 11826 12347 
4 11002 12274 12886 12234 
4 12947 11159 11714 12946 
4 12836 11934 13004 12567 
4 11935 13005 12837 12568 
4 12965 12518 12576 11682 
4 11447 11446 11052 12821 
4 12832 11334 11540 11126 
4 12847 11018 11017 11433 
4 12714 11851 11556 11538 
4 11557 11852 11539 12715 
4 12964 12517 12575 11681 
4 12796 13193 12926 11343 
4 11133 13201 11134 12941 
4 11955 11747 12392 12390 
4 12251 12908 11613 12249 
4 12503 11325 12504 13043 
4 12486 11311 12487 13029 
4 12088 11412 13152 12799 
4 12029 12660 12662 13079 
4 12435 12193 12428 11086 
4 12433 12191 12427 11085 
4 12249 12907 11614 12246 
4 12849 11011 11431 11013 
4 11223 11195 12377 13186 
4 11541 11125 12833 11333 
4 12063 903 12023 13162 
4 888 12022 12048 13161 
4 12768 11819 11843 11374 
4 11803 11357 11836 12752 
4 13222 12331 12330 11662 
4 11016 11015 12219 11017 
4 13221 12312 12311 11646 
4 12484 11290 13027 11291 
4 12648 13063 11888 12033 
4 12499 12928 12613 11341 
4 12929 12614 12516 11342 
4 11458 12011 13020 12788 
4 13232 12816 13167 11409 
4 11547 12445 12288 11266 
4 12447 12286 11546 11265 
4 12795 12420 11624 12300 
4 12419 12794 12299 11623 
4 12675 11960 12094 12385 
4 12860 11056 11448 11055 
4 13067 11884 12649 12032 
4 11931 12027 11978 12742 
4 11414 11412 11454 12839 
4 13199 12315 11643 12314 
4 13200 11659 12333 12334 
4 11401 12824 11443 11444 
4 11338 10983 13157 11274 
4 12382 12827 12829 11743 
4 11201 12690 11523 11165 
4 12538 12762 11793 11347 
4 12778 11364 11809 12555 
4 13104 12173 11985 13105 
4 11378 12330 12542 12524 
4 12523 12311 11361 12525 
4 12193 824 12428 11090 
4 12191 12427 11089 881 
4 12498 11849 13022 13054 
4 11447 12861 11052 11054 
4 13109 11684 11086 11282 
4 13108 11683 11085 11281 
4 12676 11960 12385 12387 
4 12028 13083 11866 12783 
4 12179 10963 13091 12881 
4 13198 11159 13200 12947 
4 12959 13196 11147 12958 
4 11142 12933 13199 13197 
4 12361 11179 12363 11213 
4 13037 12494 11303 11304 
4 11222 13185 12351 11226 
4 11130 13195 12944 12945 
4 11619 11033 12272 11072 
4 12295 11235 12721 13011 
4 12817 12247 11450 11059 
4 11932 13013 12068 12178 
4 12909 12251 11612 12253 
4 12325 12324 11633 13225 
4 11672 13093 12004 13019 
4 11532 12724 11556 11538 
4 12494 11760 11690 12943 
4 12369 12367 11171 11205 
4 12305 12670 11221 12832 
4 13177 13112 11478 12651 
4 11483 12647 13062 12782 
4 12764 12540 11823 12986 
4 11772 11704 12511 12957 
4 11014 12849 11431 11013 
4 12028 11463 11868 12663 
4 12914 11607 12263 12260 
4 11296 12514 13224 12513 
4 11533 11557 11539 12725 
4 12720 13010 12294 11236 
4 12088 11412 11414 13152 
4 11512 11187 12355 12701 
4 10999 12723 10984 11107 
4 11108 10998 10985 12722 
4 12270 12887 12278 11037 
4 12676 12677 11958 12387 
4 10994 13234 12098 822 
4 883 10996 12127 13233 
4 11275 837 12458 836 
4 11276 868 12455 869 
4 11952 11504 11950 12395 
4 11947 12398 11751 12400 
4 11645 12313 13197 11644 
4 12549 12772 11815 11370 
4 11660 13198 12332 11661 
4 12088 11756 11412 12799 
4 11426 12790 11455 11726 
4 11139 12936 11138 13213 
4 12950 13214 11155 11156 
4 11452 11064 12856 11062 
4 12806 11390 11389 11736 
4 11854 12267 12917 11605 
4 13016 11292 11339 12561 
4 11091 12709 12458 11488 
4 12670 12379 11526 12926 
4 12288 12146 12148 11266 
4 11265 12286 12117 12115 
4 11557 11852 12198 11076 
4 11112 12481 13010 12415 
4 12534 12758 11797 11351 
4 11368 11813 12774 12551 
4 12496 12497 11289 13223 
4 12198 11244 11076 11036 
4 11196 11494 12306 11723 
4 11463 12660 12663 12631 
4 11533 12469 799 11082 
4 11081 11532 752 12467 
4 12776 11366 12603 11367 
4 12760 12587 11350 11349 
4 11000 12196 11075 11243 
4 11459 11861 12640 11458 
4 11204 12684 12365 12368 
4 12781 11824 11362 12557 
4 12540 12765 11345 11823 
4 11438 11028 12842 11026 
4 11092 12455 11489 12708 
4 12028 12664 13083 12783 
4 13146 13130 11190 12674 
4 12656 13069 12652 11473 
4 12458 12180 11488 13160 
4 12686 13143 11202 11166 
4 13109 12923 11282 12570 
4 13108 12922 11281 12569 
4 11155 11154 13212 12951 
4 12196 11851 11075 11556 
4 12165 10976 12166 13066 
4 12937 11137 11138 13211 
4 12738 11458 12788 11933 
4 13219 11632 12326 11631 
4 11861 12571 11993 11859 
4 11647 11648 13220 12345 
4 11156 13216 11157 12949 
4 13011 12416 11111 12482 
4 11052 11446 12255 12821 
4 11140 12935 11139 13215 
4 11628 12738 13012 11933 
4 11948 12399 12397 12682 
4 11381 12746 12592 11379 
4 12747 12608 11382 11380 
4 11745 12388 11959 12386 
4 800 12732 12130 11553 
4 11552 12730 751 12099 
4 11154 11153 13210 12952 
4 12786 12156 11929 11280 
4 12938 11137 13209 11136 
4 13079 13104 11985 13105 
4 12821 11404 11403 11749 
4 12798 11397 12800 11742 
4 12944 11759 11131 11688 
4 13053 11315 12917 11605 
4 12156 12085 10981 10982 
4 745 11099 835 12432 
4 11100 806 12429 870 
4 12674 11509 12067 11962 
4 11678 11495 12479 11420 
4 12576 12965 11682 11162 
4 11702 11771 12958 11148 
4 12953 13208 11152 11153 
4 11135 13207 11136 12939 
4 13068 12166 12167 10975 
4 12931 11716 12500 12562 
4 12455 12159 11489 13159 
4 12572 11858 12423 13127 
4 12575 12964 11681 11145 
4 12031 13071 11878 12654 
4 11351 12758 11352 12585 
4 12697 11179 12696 11517 
4 11368 12601 12774 11369 
4 11516 12394 12363 12698 
4 12680 11952 12393 12395 
4 12679 11954 12391 12393 
4 12690 11167 11201 11523 
4 12861 11447 12820 12252 
4 12490 11308 11307 13033 
4 854 12139 12284 11251 
4 12110 11249 12282 851 
4 12396 11750 11951 13169 
4 11513 12700 11185 11217 
4 11364 11838 12555 12779 
4 11831 12763 12538 11347 
4 12696 11210 11177 11517 
4 12501 11297 13041 11298 
4 11212 12680 12359 12362 
4 12414 12671 11163 12424 
4 11456 11627 12739 11419 
4 11632 12087 12326 11631 
4 12402 12694 12369 11520 
4 12086 11648 11647 12345 
4 11898 13143 12631 12632 
4 11756 12814 11412 12799 
4 11899 13145 11201 11897 
4 13173 12088 11937 12410 
4 11916 11214 12357 13133 
4 12894 12212 11599 12214 
4 11400 11401 12824 11443 
4 905 13009 906 786 
4 12906 12246 12245 11615 
4 11548 11123 11683 12433 
4 12435 11124 11549 11684 
4 12694 11519 11209 11173 
4 12403 12401 11944 12684 
4 11445 11047 11050 12863 
4 11211 11515 11181 12698 
4 12816 12244 12857 11451 
4 12873 10960 11972 13148 
4 12693 11171 12692 11521 
4 12169 12168 10973 13072 
4 11916 11214 13133 11914 
4 11513 11187 12701 12700 
4 13069 11882 12652 11473 
4 11066 12241 12239 12854 
4 12717 11722 12197 12183 
4 12181 12195 11721 12716 
4 11401 13229 13171 12824 
4 13127 12376 11897 11200 
4 13084 11869 12641 11464 
4 11377 12593 12543 12766 
4 12577 11360 12750 12526 
4 11583 11228 11426 12637 
4 12431 11530 11544 11255 
4 13192 13009 12025 11992 
4 13191 12024 11991 13008 
4 11678 12521 12479 12736 
4 11373 12770 12597 11372 
4 11356 12754 12581 11355 
4 11158 11157 12948 11712 
4 11973 12872 10961 13147 
4 12934 11698 11141 11140 
4 13091 12522 12881 11974 
4 12650 13063 12648 12033 
4 13026 12484 11291 12483 
4 11412 11414 13152 12839 
4 11256 12430 11545 11531 
4 12413 11524 11223 12704 
4 11561 12153 801 11242 
4 12071 11632 12325 11633 
4 12927 11344 11224 11527 
4 11241 12124 11560 750 
4 11648 11649 12344 12072 
4 12583 11353 11354 12756 
4 12599 11371 12772 11370 
4 11073 11039 12268 11038 
4 12471 11571 12281 10989 
4 10988 11573 12473 12283 
4 13076 10971 12170 12171 
4 12798 11397 12838 11440 
4 11404 11447 11405 12820 
4 12243 12241 11067 12240 
4 13074 10972 12169 12170 
4 12671 12833 11196 12306 
4 12616 11863 12745 11790 
4 11920 13131 11188 12001 
4 12094 11962 12383 11742 
4 13006 11562 12886 12884 
4 13070 10974 12167 12168 
4 12267 13053 12917 11605 
4 12686 11497 12687 11166 
4 12819 11055 11449 12859 
4 12525 11806 12748 12750 
4 12749 12542 11822 12766 
4 12834 11629 12301 12327 
4 12420 11848 11624 12300 
4 11847 12419 12299 11623 
4 12303 11630 12346 12835 
4 11227 12026 11425 12638 
4 12820 12819 12860 11448 
4 12914 13050 11607 11608 
4 12887 12269 12278 11038 
4 12652 11882 12032 11473 
4 11745 13231 12388 12386 
4 12264 11041 11044 12267 
4 12893 11600 12212 12211 
4 13205 11135 11134 12940 
4 12650 11475 11886 12033 
4 11386 12810 11732 11385 
4 13126 11861 12571 11993 
4 12270 12719 12007 13019 
4 11201 12690 11165 12376 
4 11495 11724 12305 11221 
4 12214 12217 11598 12895 
4 12560 11485 12576 11682 
4 12522 11677 12737 12480 
4 12855 12243 11065 12240 
4 12718 13018 12008 12234 
4 11488 13160 12873 11972 
4 11001 12274 12233 12886 
4 11789 11077 12475 11671 
4 12798 11397 11396 12800 
4 12139 854 789 11251 
4 12110 762 11249 851 
4 12827 12382 11398 11743 
4 12872 11489 13159 11973 
4 734 12443 826 11080 
4 879 11079 817 12441 
4 11862 11789 12744 12615 
4 12957 13226 12958 11148 
4 11098 795 12287 11551 
4 11151 12954 13206 11152 
4 11425 11119 12707 11285 
4 11485 12576 12420 13089 
4 12961 11194 11718 11146 
4 11717 11193 11129 12960 
4 11001 12232 11003 11071 
4 11790 11078 12476 11672 
4 12266 11854 12917 12277 
4 12840 11030 12203 12204 
4 12944 13225 11131 12943 
4 12855 12814 12240 11411 
4 756 11096 11550 12285 
4 12816 11452 11451 11409 
4 12352 12002 12703 11510 
4 11452 12816 12856 12815 
4 12423 11858 11198 11200 
4 12638 11425 12791 12643 
4 12825 11043 12262 12866 
4 11245 11263 11269 12188 
4 12575 11484 13088 12419 
4 11632 12325 11633 13195 
4 12899 13036 11305 12493 
4 11649 11648 12344 13196 
4 11053 12252 12860 11448 
4 11246 11270 12190 11264 
4 12628 12629 11904 13140 
4 13059 12090 11686 11422 
4 11848 11124 11485 12420 
4 12885 12887 11563 13007 
4 10985 12440 12722 12280 
4 12279 12723 12438 10984 
4 12878 13187 11991 13008 
4 13009 13188 12879 11992 
4 795 12287 11551 11268 
4 11484 12575 12559 11681 
4 11392 12804 11738 11391 
4 12282 12119 850 761 
4 855 12284 12150 790 
4 12561 12930 12483 11715 
4 11745 11400 11746 12388 
4 12011 13020 12788 12162 
4 11484 11847 11123 12419 
4 13109 11684 11282 11234 
4 11683 13108 11233 11281 
4 12066 12412 12689 12410 
4 12658 11465 12662 13077 
4 11267 756 11550 12285 
4 11407 11753 12817 11408 
4 13144 13125 12371 11203 
4 12667 11533 12715 12725 
4 12754 12530 11835 12976 
4 12770 12992 12547 11842 
4 11199 12688 11164 12372 
4 13021 11584 12644 11461 
4 11206 11169 12692 11521 
4 12714 11532 12724 12666 
4 11734 12808 11387 11388 
4 12704 12688 11496 12375 
4 12635 11860 13127 11897 
4 11981 11673 13153 12307 
4 11982 12308 11674 13154 
4 12416 11966 11195 12377 
4 12030 11465 12658 11874 
4 12241 11618 11067 11066 
4 12822 11445 11402 11403 
4 12392 11747 11748 11402 
4 12244 12857 11451 11062 
4 13091 12522 11864 12737 
4 11751 11406 11752 12400 
4 11722 12717 11101 12183 
4 11102 12181 11721 12716 
4 13193 11225 12926 11343 
4 13069 12656 11880 11473 
4 12415 11222 12351 11967 
4 11509 11190 12001 12674 
4 11261 11253 12453 11243 
4 11590 12268 13023 12277 
4 12501 11714 11782 12500 
4 12454 11244 11262 11254 
4 11731 12811 11384 11385 
4 12978 11834 12532 12756 
4 12286 11546 11265 11095 
4 11097 11547 12288 11266 
4 11782 11714 12946 12500 
4 11271 12189 12741 12464 
4 12187 12466 12740 11272 
4 11299 13025 12500 12562 
4 11447 11405 12820 11448 
4 12372 12370 11994 13124 
4 11703 12957 11148 11149 
4 13062 13064 11891 12164 
4 12760 12982 12536 11832 
4 12776 12553 11839 12998 
4 11747 13229 12392 12390 
4 12104 10990 730 822 
4 12133 10992 821 883 
4 11283 12672 11675 11415 
4 12103 762 851 12472 
4 12474 854 789 12134 
4 12825 11043 11443 12865 
4 12355 11216 13132 13112 
4 12245 11616 11063 11065 
4 12091 11685 13058 11421 
4 11702 12959 11147 12958 
4 13024 13016 11894 13155 
4 12944 11130 12945 11688 
4 12192 12442 11104 849 
4 856 12194 11106 12444 
4 13194 11344 12927 12797 
4 11390 11737 12805 11391 
4 13229 11747 12392 11402 
4 11102 11721 11547 12716 
4 12717 11546 11722 11101 
4 11406 11407 12818 11449 
4 13185 11583 12349 11226 
4 11158 13218 13200 12948 
4 817 11105 880 12441 
4 12443 825 11103 734 
4 11141 12934 13217 13199 
4 11249 12282 11558 761 
4 11251 12284 11559 790 
4 11963 11511 11191 12702 
4 825 12443 11103 12193 
4 11105 880 12441 12191 
4 11523 12690 11937 11165 
4 11051 11054 12257 11610 
4 11850 12516 11342 11294 
4 11075 12196 12453 11243 
4 11131 11132 11689 12943 
4 11244 12454 12198 11076 
4 12499 11849 11287 11341 
4 13200 11158 12948 12947 
4 12933 12934 11141 13199 
4 13229 11747 13171 12390 
4 11005 11427 11004 12853 
4 12812 11730 11383 12813 
4 11406 11751 13230 12400 
4 12898 11306 12492 13035 
4 11465 12658 11874 13077 
4 11054 12254 12257 11610 
4 11310 13031 11309 12488 
4 11386 11733 12809 11387 
4 11751 12398 13230 12400 
4 12507 12506 11322 13046 
4 11941 13167 11754 11755 
4 12516 12515 11850 13023 
4 11468 12031 11878 12654 
4 12695 12364 11175 11518 
4 12282 11249 12119 761 
4 11526 12926 11343 11969 
4 12677 11958 12387 12389 
4 13017 11895 13156 12275 
4 11031 12205 12206 12204 
4 12150 12284 11251 790 
4 12030 12658 12657 13075 
4 12692 12406 11941 11521 
4 12264 12867 11441 11042 
4 10978 12164 12017 13095 
4 13032 11308 11309 12489 
4 11514 11183 12356 12699 
4 12873 10960 13148 12737 
4 11488 12709 13160 11972 
4 11491 11968 12610 11237 
4 11364 11363 11808 12779 
4 12763 11792 11346 11347 
4 12901 13038 11303 12495 
4 12407 12405 11940 12686 
4 11676 11284 12673 11416 
4 12591 11346 12087 12326 
4 12787 11279 13087 12179 
4 12607 12086 12345 11363 
4 11214 12678 11184 12357 
4 11849 12499 12498 13022 
4 11489 13159 11973 12708 
4 13045 12505 11323 11324 
4 11700 11770 12484 12483 
4 11199 12688 11496 11164 
4 13005 12877 12568 11579 
4 12876 13004 11578 12567 
4 10961 12872 12736 13147 
4 11961 12384 11744 13172 
4 783 903 12034 12064 
4 888 768 12065 12049 
4 12160 11338 11280 13086 
4 11713 12501 11714 11297 
4 13090 12521 11865 12736 
4 12085 13012 11975 12880 
4 11466 12661 13181 13122 
4 12786 12160 11280 13086 
4 11563 11676 13007 11686 
4 13007 13059 11686 11416 
4 11307 12491 12897 13034 
4 11274 11276 868 12159 
4 11273 837 12180 11275 
4 12932 11770 11700 12483 
4 12030 11468 11876 12657 
4 12372 13124 11896 12634 
4 12374 11197 11582 11227 
4 11082 798 12132 862 
4 11458 12011 11480 13020 
4 12825 12826 11442 12866 
4 11286 11120 11426 12706 
4 11693 11763 12940 12491 
4 11694 12490 11764 12939 
4 11081 843 753 12101 
4 12508 12954 11775 11707 
4 12002 11923 11925 12620 
4 11183 11515 12698 12699 
4 12694 11519 12695 11175 
4 854 12474 789 11251 
4 762 11249 851 12472 
4 11279 13087 12179 11337 
4 12174 10967 13084 11871 
4 12489 11695 12938 11765 
4 11744 11398 11399 12826 
4 849 12442 759 848 
4 792 857 856 12444 
4 11776 12953 11708 12507 
4 11709 11777 12952 12506 
4 13184 787 906 786 
4 12834 12541 11629 12327 
4 11630 12558 12346 12835 
4 11220 12352 11925 12619 
4 11357 12753 11836 12528 
4 12545 11843 12769 11374 
4 11620 13025 11895 13156 
4 12691 11167 11523 11522 
4 11696 11766 12937 12488 
4 12617 11727 12592 11379 
4 12608 11380 12618 11728 
4 12931 11716 12889 11161 
4 11710 11778 12951 12505 
4 11412 11066 12854 11411 
4 12942 11761 12493 11691 
4 11837 12972 11805 12526 
4 13006 11685 11562 11675 
4 12690 11165 12376 12410 
4 11179 11516 12363 11213 
4 12003 11002 12274 11827 
4 12011 11480 13020 11892 
4 13227 12876 10991 12472 
4 12877 10993 13228 12474 
4 10964 11930 13015 11725 
4 12684 11172 11204 12365 
4 11954 11956 12391 11739 
4 11884 11475 12649 12032 
4 13145 12635 12376 11897 
4 12502 11327 13042 12905 
4 11683 12433 13108 11085 
4 12435 13109 11684 11086 
4 12157 11928 12787 11279 
4 12515 12514 11295 13055 
4 11609 11051 11050 12259 
4 11171 12369 11205 11520 
4 11050 12260 11608 12259 
4 11938 12407 11940 12686 
4 11857 12478 12560 11569 
4 12089 11965 13151 11413 
4 12245 12243 11616 11065 
4 11751 12398 13169 13230 
4 13180 11469 12659 13119 
4 11867 13021 12642 11461 
4 11468 11876 12657 13073 
4 11685 13006 13058 11415 
4 11934 12836 11417 12567 
4 12837 11935 12568 11418 
4 12497 11288 12498 13054 
4 11273 11091 11275 12458 
4 13177 11478 11457 13064 
4 11476 13114 12653 13178 
4 11056 12253 12250 12860 
4 11274 11276 12455 11092 
4 12510 11773 11705 12956 
4 13024 11292 12561 12483 
4 12873 13091 11864 12737 
4 12208 12892 12211 11601 
4 11212 11912 11910 13115 
4 12419 11847 12297 12794 
4 11848 12795 12298 12420 
4 12180 11273 12458 11488 
4 12494 13037 12900 11304 
4 11314 13026 11291 12483 
4 12936 11767 12487 11697 
4 11700 11699 12484 11290 
4 11445 12863 11049 12822 
4 12465 11246 793 11270 
4 13177 12647 11483 13110 
4 12818 12817 12858 11450 
4 11245 11269 758 12463 
4 12477 11568 12559 11856 
4 12818 11449 11058 12859 
4 11779 12950 11711 12504 
4 11926 12003 12874 11827 
4 12867 11441 12827 12826 
4 11906 11904 11996 13140 
4 13120 11904 11204 11902 
4 11179 11210 12696 11517 
4 11446 12862 12821 12822 
4 11238 11969 11490 12609 
4 795 12287 11268 12147 
4 11358 12579 11357 12528 
4 12545 11374 12595 11375 
4 12864 11046 11444 11048 
4 12128 10997 788 13228 
4 10995 12097 13227 763 
4 11267 12118 756 12285 
4 12867 11441 11041 11040 
4 11451 12816 11409 11408 
4 11485 11124 11569 13089 
4 11328 11298 11782 12500 
4 11310 11311 13030 12487 
4 12159 11274 12455 11489 
4 854 12284 12474 11251 
4 11249 12282 851 12472 
4 11303 12494 12495 11760 
4 11056 11053 12860 11448 
4 12443 12464 826 11080 
4 12466 11079 879 12441 
4 11292 11619 13024 11894 
4 12454 860 12152 11262 
4 12516 11850 11927 13023 
4 13125 12641 11464 13182 
4 11261 12121 845 12453 
4 11484 11568 13088 11123 
4 11762 12492 12941 11692 
4 11612 11611 12253 11056 
4 13067 12649 12652 12032 
4 12707 11119 12482 11285 
4 12964 11681 11339 11293 
4 11878 11468 12654 13073 
4 12496 11302 12495 13223 
4 12830 12010 11967 11236 
4 11849 11926 12499 13022 
4 11097 877 12288 12187 
4 12286 12189 11095 828 
4 11334 12293 12832 11540 
4 12296 11541 12833 11333 
4 12504 11325 11324 13044 
4 12819 12250 12860 11055 
4 13117 11474 13179 12655 
4 11923 12647 11483 11481 
4 12510 13050 11318 12511 
4 13188 13009 12969 11992 
4 13187 12968 11991 13008 
4 12515 12516 11850 11294 
4 11513 11187 12700 11217 
4 12753 11802 11836 12975 
4 12991 11843 11818 12769 
4 13158 11337 11273 12180 
4 12680 11180 11212 12359 
4 13064 11457 13062 11891 
4 12669 11424 12296 12731 
4 12733 12293 11423 12668 
4 11183 11515 11211 12698 
4 12499 11849 12498 11287 
4 11099 12709 13148 12432 
4 11100 13147 12429 12708 
4 11952 11954 12393 11738 
4 12761 12983 11794 11832 
4 11839 12777 11810 12999 
4 11463 12660 12029 11870 
4 13146 11993 12422 12067 
4 11519 12694 11209 11175 
4 12481 11120 11286 12706 
4 12057 776 897 896 
4 12042 895 774 894 
4 776 897 896 12040 
4 895 774 894 12055 
4 12059 899 898 778 
4 893 12044 892 772 
4 13224 11316 12513 12512 
4 899 898 778 12038 
4 892 893 772 12053 
4 11401 12824 11444 12823 
4 13090 11865 12872 12736 
4 11590 11073 11039 12268 
4 13061 11890 12646 11477 
4 12509 12955 11774 11706 
4 10964 12157 13015 12178 
4 12858 11450 11059 11060 
4 13157 11338 11274 12159 
4 11263 11269 12188 12185 
4 12353 13132 11218 13110 
4 13096 12017 13095 13061 
4 11954 12391 11738 11739 
4 11270 12190 11264 12186 
4 11932 13013 12178 12789 
4 12399 11735 11734 11946 
4 11475 13065 11884 12649 
4 10979 11892 12163 11990 
4 12416 11119 11111 12482 
4 11609 11051 12259 12257 
4 11004 12868 12091 11071 
4 12656 11880 11473 12031 
4 12502 12501 11297 13041 
4 13061 12648 11888 11477 
4 12981 11833 11796 12759 
4 11812 11840 12775 12997 
4 12797 11414 11454 12839 
4 11798 11834 12757 12979 
4 11841 12995 12773 11814 
4 12080 12594 11376 12543 
4 11359 12079 12578 12526 
4 12755 11800 11835 12977 
4 12993 12771 11842 11816 
4 11171 11206 12692 11521 
4 13013 12068 11974 11627 
4 12454 11244 11254 11076 
4 11406 12819 11448 11449 
4 12401 11734 11944 11946 
4 12278 12004 11037 11828 
4 11417 11329 12567 11845 
4 11330 12568 11418 11846 
4 11446 11445 12822 11403 
4 11962 12089 12383 11742 
4 11937 11964 12066 12410 
4 11715 12930 11144 12888 
4 13125 13182 11901 13144 
4 12796 13193 11343 11413 
4 12009 11235 11966 12831 
4 13190 11124 12435 13089 
4 11123 13088 12433 13189 
4 12399 11948 11735 11946 
4 12965 11682 11340 11300 
4 11253 11075 12453 11243 
4 11124 11485 12420 13089 
4 11289 11302 13223 11688 
4 11119 12310 11425 12707 
4 11747 11955 12392 11748 
4 11945 11752 11753 13168 
4 11323 12506 12909 13046 
4 828 12189 736 827 
4 877 878 12187 815 
4 11399 11400 12825 11442 
4 11003 12232 11589 11071 
4 11892 13020 12163 13060 
4 12294 12010 12830 11236 
4 12046 891 770 890 
4 901 12061 781 900 
4 11953 13170 11748 11749 
4 11968 11344 12927 11527 
4 13049 11319 12509 12510 
4 11120 12481 11112 12415 
4 11872 12029 11465 12662 
4 13088 11484 11123 12419 
4 11947 11751 11752 12400 
4 12393 11952 11738 11737 
4 11749 12396 11750 11951 
4 12677 11999 12357 12354 
4 12858 11058 11450 11060 
4 888 889 768 12049 
4 903 783 12034 902 
4 11235 12009 12295 12831 
4 11512 11511 12355 11189 
4 11465 11872 12662 13077 
4 11032 12201 12203 12272 
4 11829 12743 12665 12783 
4 12691 12373 12690 11167 
4 11310 12894 13031 12488 
4 12243 12855 11065 12242 
4 11022 12845 11021 11435 
4 11316 11296 11702 13224 
4 13045 12908 12505 11324 
4 12712 11238 12195 12920 
4 13083 11868 11866 11984 
4 12360 11183 12356 11215 
4 11734 11733 12401 11944 
4 11532 12714 12724 11538 
4 11748 13170 11403 11749 
4 12896 11308 12490 13033 
4 11533 11539 12715 12725 
4 12502 11327 12905 13041 
4 12820 11405 13169 13230 
4 11611 12254 12253 11056 
4 13132 13177 13112 11921 
4 11191 12353 12702 11218 
4 11703 12957 12958 11148 
4 11208 12364 11175 12366 
4 12207 11027 11438 11439 
4 11087 12468 12669 12723 
4 11088 12470 12668 12722 
4 13170 12822 11748 11403 
4 10965 10964 11930 13015 
4 13014 11978 10981 10980 
4 12895 13032 11309 12489 
4 12197 12921 12713 11237 
4 11313 12485 12891 13028 
4 13025 13017 11895 13156 
4 12157 11585 11928 11725 
4 11273 11091 12458 11488 
4 11159 11158 13200 12947 
4 11445 11444 12823 11402 
4 11906 12628 11904 13140 
4 11142 12933 11141 13199 
4 11207 11906 11174 13140 
4 12749 12524 12969 11588 
4 12523 11587 12968 12748 
4 11263 757 11269 12185 
4 11020 12845 11022 11435 
4 12153 11561 12451 11242 
4 12124 11241 11560 12449 
4 12944 11131 11689 12943 
4 10991 12876 11570 12472 
4 12877 10993 12474 11572 
4 11073 12090 12869 11040 
4 12405 11732 11731 11940 
4 794 11270 11264 12186 
4 11752 11407 11753 13168 
4 12746 12836 11719 13174 
4 12837 13175 11720 12747 
4 11925 12619 12620 12645 
4 12374 11223 13186 11582 
4 10986 12442 12734 12463 
4 11159 11158 12947 11713 
4 12290 11670 13010 12720 
4 10987 12465 12444 12735 
4 12957 13226 11148 11149 
4 11570 11578 11528 12728 
4 11572 12729 11579 11529 
4 12455 11274 11092 11489 
4 12721 13011 11669 12291 
4 12425 11574 11558 12192 
4 11346 12590 11347 12071 
4 12004 11927 11828 12875 
4 12072 11364 12606 11363 
4 12915 13052 11317 12512 
4 12426 11575 11559 12194 
4 11304 11761 11305 12493 
4 11699 11142 12933 11141 
4 11190 13130 12001 12674 
4 11126 12832 11526 11969 
4 11344 13194 12927 11224 
4 11716 12931 11160 11161 
4 11002 11671 12003 12274 
4 11753 11943 12404 11754 
4 12392 11955 12390 12699 
4 11950 11737 12395 11736 
4 12443 11103 12435 11549 
4 11105 11548 12433 12441 
4 11574 760 12192 11104 
4 11575 791 12194 11106 
4 12207 11438 12842 12801 
4 12404 11943 13167 11754 
4 11752 11407 13168 12818 
4 12695 12398 11947 12400 
4 12867 12264 11441 12826 
4 11948 12397 11735 11736 
4 11090 824 732 733 
4 818 11089 819 881 
4 11295 11590 13055 11315 
4 11314 12918 13026 13024 
4 11066 12239 11068 11454 
4 13107 13106 11984 12175 
4 11301 11288 13054 11589 
4 11932 10965 11983 12177 
4 781 901 900 12036 
4 891 12051 770 890 
4 11263 11245 13163 12188 
4 11485 11848 12420 11162 
4 13225 11132 11131 12943 
4 12965 13017 11340 12562 
4 11968 11125 11527 12833 
4 12964 13016 11339 12561 
4 11345 12591 12087 12327 
4 12086 11362 12607 12346 
4 13164 11246 12190 11264 
4 11484 11145 11847 12419 
4 11845 12617 12329 12962 
4 11846 12618 12348 12963 
4 11982 11846 11826 12963 
4 12197 12183 10999 12723 
4 12722 10998 12181 12195 
4 11050 12256 12863 12259 
4 12919 11618 11328 13040 
4 11981 11845 11825 12962 
4 12675 11188 11509 11508 
4 12486 12935 11768 11698 
4 12289 11118 12565 13147 
4 11680 11895 12275 11074 
4 12503 12949 11780 11712 
4 13148 11117 12292 12566 
4 12903 11853 12273 12231 
4 11932 13013 12789 11627 
4 13121 13181 13141 11905 
4 12485 12484 11290 13027 
4 12781 13002 11824 12557 
4 12540 12765 11823 12986 
4 11407 12818 11449 11450 
4 12747 12608 12558 11382 
4 12746 11381 12592 12541 
4 11869 11867 13085 11462 
4 12403 11733 11732 11942 
4 11540 11969 11238 12712 
4 12923 11332 11487 12612 
4 12922 12611 11331 11486 
4 12352 11220 12705 12349 
4 13048 11320 12508 12509 
4 907 13184 787 906 
4 11669 11530 11093 12291 
4 11302 11759 12495 13223 
4 12250 11056 12860 11055 
4 13186 11195 12310 11582 
4 12164 11891 10978 10977 
4 11906 12628 13138 12627 
4 12654 11468 12657 13073 
4 11321 13047 12508 12507 
4 11096 757 12185 846 
4 11891 13062 12164 10978 
4 13118 11909 13180 13139 
4 730 10994 12098 822 
4 10996 821 883 12127 
4 794 11098 859 12186 
4 11948 11950 12397 11736 
4 11999 13111 12357 12354 
4 12811 12810 12851 11429 
4 11481 11830 12645 12782 
4 13064 11891 12164 10977 
4 11509 11190 12674 12067 
4 11771 11316 13224 12512 
4 12521 11628 13012 11975 
4 12907 11325 12504 13044 
4 12683 11174 11996 13140 
4 11305 11762 11306 12492 
4 12290 11670 11094 11531 
4 12370 13143 11898 12632 
4 11956 11740 12389 11739 
4 12639 12637 12790 11455 
4 13059 12269 13007 11686 
4 11805 12970 11806 12750 
4 11821 11822 12766 12971 
4 12640 11458 11480 13020 
4 13158 12457 10962 12785 
4 12784 10983 12456 13157 
4 11366 12553 12777 11839 
4 12761 12536 11832 11349 
4 11064 11452 12856 11063 
4 11904 11996 13140 12365 
4 11158 12948 12947 11713 
4 11500 12684 11172 11204 
4 13030 11311 12893 12487 
4 11028 11027 11438 12842 
4 12803 12804 11436 12844 
4 12934 11699 12933 11141 
4 11899 12633 13145 11897 
4 12847 12806 11433 12807 
4 11303 12494 11760 11304 
4 12027 11931 12639 12742 
4 11525 12705 11226 12380 
4 13183 765 764 884 
4 11759 12944 11131 11689 
4 11607 11048 12260 11608 
4 11771 11703 12958 11148 
4 11528 11578 12573 12728 
4 12729 12574 11579 11529 
4 12496 11289 11302 13223 
4 11430 11011 12850 11012 
4 12411 11936 11524 12704 
4 12427 11085 11089 11250 
4 11090 12428 11086 11252 
4 12164 13096 12017 13095 
4 12157 10963 12179 12881 
4 13181 13141 11905 13122 
4 13176 12621 12646 11482 
4 12518 11857 12560 11682 
4 11687 11289 13223 11688 
4 11929 12156 10981 10982 
4 11968 12713 11237 11541 
4 12080 12332 12594 12593 
4 12313 12079 12577 12578 
4 11592 11593 12226 12901 
4 11296 11701 11702 13224 
4 13060 13176 12646 11482 
4 11772 11317 12512 12511 
4 11890 13060 13061 12646 
4 12471 11571 10989 10992 
4 10988 11573 10990 12473 
4 12771 12547 11842 11372 
4 11355 12530 12755 11835 
4 11909 13180 13139 13119 
4 13093 11790 11672 12004 
4 11722 12197 11101 10999 
4 10998 11102 12195 11721 
4 11414 11344 13194 12797 
4 11976 12828 11421 11729 
4 12458 11091 836 745 
4 11282 11487 11535 12570 
4 11281 11534 12569 11486 
4 11763 11306 12491 11307 
4 12271 12201 12870 11072 
4 12093 12672 11283 11757 
4 11010 11430 12850 11012 
4 12559 12517 11856 11681 
4 869 12455 11092 806 
4 12245 11064 12856 12242 
4 12549 11841 12773 11370 
4 11353 11834 12532 12757 
4 11368 11840 12551 12775 
4 12534 11833 12759 11351 
4 12881 13013 12068 11974 
4 13092 11789 11671 12003 
4 11715 12930 11143 11144 
4 11438 12842 12801 12802 
4 11204 12684 12368 11170 
4 12004 11672 12278 11037 
4 11400 12824 12825 11443 
4 13134 11917 13113 13178 
4 11574 12192 12434 11104 
4 11919 11216 13112 11921 
4 11994 12372 13124 11896 
4 12194 11575 11106 12436 
4 12820 11405 12819 11448 
4 11532 12714 11538 12666 
4 12642 12633 12641 11462 
4 12408 12814 11756 13173 
4 11428 12811 12812 12852 
4 11180 12680 11212 11504 
4 12805 12804 12845 11435 
4 12692 11169 12371 11521 
4 11432 12848 12807 12808 
4 11758 12092 11284 12673 
4 11414 12797 13152 12839 
4 12667 11533 11539 12715 
4 12789 11584 11456 12644 
4 12398 12696 11949 13169 
4 11621 11825 12328 11229 
4 11316 11296 13224 12513 
4 11395 12801 11741 11394 
4 11622 11231 11826 12347 
4 12849 11431 12809 12808 
4 13130 12675 12001 12674 
4 11623 12794 11331 11233 
4 11624 12795 11332 11234 
4 12217 11597 11598 12896 
4 11924 12375 12634 12636 
4 11918 11999 11186 12354 
4 13137 12626 12362 11910 
4 11918 11186 12000 12354 
4 12926 11343 12609 12200 
4 12406 11939 12408 11755 
4 11952 11950 11737 12395 
4 12669 11257 11424 12731 
4 12733 11423 11258 12668 
4 12630 12368 13142 11902 
4 12430 13128 11980 12784 
4 11047 11050 12260 11608 
4 13016 12271 11894 13155 
4 10998 11108 11238 12722 
4 12541 11345 11629 12327 
4 12501 11714 11297 11298 
4 11630 12558 11362 12346 
4 11178 12680 11212 12362 
4 13006 11685 13058 12233 
4 12672 12093 11283 11538 
4 12431 13129 11979 12785 
4 11621 12834 12301 12328 
4 11957 13171 12390 12700 
4 12347 11622 12303 12835 
4 11620 12919 11328 13025 
4 11460 11829 12665 12783 
4 12705 12352 12703 11510 
4 11193 12328 12928 11229 
4 11231 11194 12929 12347 
4 11917 13134 13114 13178 
4 11746 11401 13171 12824 
4 12965 12520 12518 11300 
4 12723 10999 11237 11107 
4 11086 12428 11282 11252 
4 11085 12427 11281 11250 
4 12634 11460 12665 12783 
4 11990 12163 13095 13060 
4 12180 11273 11275 12458 
4 11274 11276 12159 12455 
4 12123 12450 834 743 
4 12452 808 871 12154 
4 12688 11164 12372 12687 
4 13172 11961 12702 12386 
4 11826 12348 12418 12963 
4 12329 11825 12962 12417 
4 12405 11732 11940 11942 
4 11530 11669 11113 12291 
4 11850 12516 11927 11342 
4 11958 11956 11740 12389 
4 11913 13136 13179 13116 
4 12163 10978 11990 13095 
4 12199 11542 11721 11035 
4 12663 12028 12664 13083 
4 11932 12178 12177 12789 
4 12846 12806 12805 11434 
4 11313 12485 13027 12891 
4 12861 11447 12821 12820 
4 11437 12843 12802 12803 
4 13194 12927 11224 12414 
4 12817 12816 12857 11451 
4 11724 12305 11221 11334 
4 13131 11920 13130 12001 
4 11670 12290 11114 11531 
4 12460 12718 12475 11492 
4 11214 12678 13133 11182 
4 12864 11048 12258 12260 
4 11192 12421 12379 12670 
4 11043 12262 11044 11045 
4 12476 12462 12719 11493 
4 12809 12810 11430 12850 
4 13064 10977 12165 11889 
4 11783 12497 11288 12498 
4 11784 12515 12514 11295 
4 12514 11296 13053 12513 
4 11746 11745 12388 11959 
4 11090 12428 11252 12283 
4 12427 11089 12281 11250 
4 12403 11733 11942 11944 
4 12519 12517 12964 11293 
4 12494 11761 11304 12493 
4 11016 11015 11432 12848 
4 12497 12496 11289 13039 
4 11926 11849 12499 11341 
4 11929 12156 12160 11280 
4 12970 12022 11805 11806 
4 11821 11822 12971 12023 
4 11859 12421 12422 11219 
4 11070 12235 11722 11543 
4 11412 13152 12799 12839 
4 12069 11823 12987 12005 
4 12070 13003 12006 11824 
4 11564 12471 13183 13233 
4 12473 13184 11565 13234 
4 11035 12199 12792 12924 
4 11070 12235 12793 12925 
4 11039 11038 11828 12875 
4 13038 11302 11303 12495 
4 12639 11931 13014 12742 
4 11288 12497 11301 13054 
4 12373 12691 12371 11167 
4 11028 11602 12208 11601 
4 11195 12416 12310 11119 
4 11333 11196 12306 11723 
4 12829 12711 11977 11422 
4 11120 12415 11222 12309 
4 12279 11101 12183 10984 
4 12181 10985 12280 11102 
4 13133 11214 11182 11914 
4 12629 11904 13140 12365 
4 13037 12901 11303 12495 
4 12714 11538 12666 12295 
4 11848 11124 12298 11684 
4 11123 11847 11683 12297 
4 11860 11858 12572 13127 
4 13117 11913 13136 13179 
4 11976 12828 12710 11421 
4 11378 12524 11822 11588 
4 11602 11313 11603 12891 
4 11335 12477 12459 12716 
4 12717 11336 12461 12478 
4 11888 12648 12033 11477 
4 11014 11016 11432 12848 
4 11863 11116 12745 11790 
4 11054 12861 12254 12252 
4 12514 11295 13055 11315 
4 11128 11863 12614 11668 
4 12294 12667 11539 12715 
4 11083 11424 12731 11576 
4 12000 11188 12676 11508 
4 12009 12416 11195 11111 
4 11577 11084 12733 11423 
4 11869 12175 13084 13085 
4 11584 11983 13021 12789 
4 11615 12245 11616 11064 
4 11789 11862 12744 11115 
4 11032 11604 11619 12272 
4 11770 11292 12561 11715 
4 11535 11487 13188 12570 
4 11534 13187 12569 11486 
4 11452 12816 12815 11409 
4 11990 13095 11890 13060 
4 12660 12029 11870 13079 
4 12812 11427 12853 12813 
4 12364 12696 11177 11517 
4 11127 11862 12613 11667 
4 11170 12368 11995 12685 
4 11102 12181 12195 11721 
4 12197 11722 11101 12183 
4 12251 12909 11612 11613 
4 11762 11305 12493 12492 
4 11789 11077 12744 12475 
4 12256 11050 12863 11049 
4 13106 12174 10967 12175 
4 13135 11998 11912 11914 
4 13164 11078 11264 12462 
4 11938 12407 12686 12687 
4 11077 11263 13163 12460 
4 12753 11836 12528 12974 
4 12990 12545 11843 12769 
4 12094 12383 12385 11742 
4 12522 13013 12881 11974 
4 10960 13148 12737 12566 
4 12862 11051 12255 12257 
4 12565 10961 12736 13147 
4 12879 12473 13184 11565 
4 12471 12878 11564 13183 
4 12164 10978 12163 13095 
4 12258 11050 12863 12259 
4 10988 11573 12283 12727 
4 12281 11571 12726 10989 
4 12700 11513 11185 12356 
4 11328 11620 13025 11299 
4 11202 13143 11900 11898 
4 13083 13107 11866 12783 
4 11441 11399 12826 11442 
4 11185 13134 12356 11215 
4 11078 12745 11790 12476 
4 12521 11678 11628 11975 
4 12267 13053 11605 12916 
4 12226 11593 13037 12901 
4 12010 11112 12415 11222 
4 11964 12412 12066 12410 
4 12576 11485 12420 11162 
4 12437 11532 11081 12467 
4 11533 12469 11082 12439 
4 12308 11982 12963 13154 
4 12962 11981 13153 12307 
4 11995 13142 11168 12685 
4 11112 13010 12010 12415 
4 12806 11390 11433 11389 
4 11302 11759 13223 11688 
4 11791 12764 11823 12986 
4 11004 12273 12231 12868 
4 12490 11308 11764 11307 
4 11484 12575 11145 12419 
4 11036 12270 12719 12007 
4 13038 12496 12902 11302 
4 12566 13057 12306 11723 
4 11245 12734 13163 12188 
4 12364 11208 11177 13139 
4 11246 12735 13164 12190 
4 12503 12502 11326 13042 
4 11316 11702 11771 13224 
4 11959 11512 12386 12701 
4 12714 11538 12295 12831 
4 13056 12565 11724 12305 
4 12593 11377 12542 12766 
4 12577 11360 12525 12750 
4 11847 11123 12419 12297 
4 11124 11848 12298 12420 
4 12271 11679 11894 11072 
4 12494 12900 13036 11304 
4 12621 12622 11918 13131 
4 11329 11528 12573 11558 
4 11053 12254 11611 11056 
4 12574 11330 11529 11559 
4 11606 12915 11607 12263 
4 11453 11452 11063 12242 
4 12713 12669 11541 12296 
4 13131 11918 12000 12354 
4 11674 11537 11106 12436 
4 12293 11540 12668 12712 
4 11454 11068 11664 12237 
4 13006 11685 11675 11415 
4 12434 11673 11104 11536 
4 13092 11926 12499 11667 
4 12026 11425 12638 12643 
4 10978 10979 12163 11990 
4 12812 11730 11384 11383 
4 11188 12675 12676 11508 
4 11676 13007 11686 11416 
4 11867 11584 13021 11461 
4 13167 12816 11754 11409 
4 12855 11063 11065 12242 
4 12139 854 12284 12150 
4 12110 12282 12119 851 
4 11074 12275 12871 12237 
4 11306 12492 11763 12491 
4 12718 12008 11000 12234 
4 11671 13018 12003 12274 
4 11386 12810 11385 11429 
4 13225 13195 12944 11131 
4 11858 12423 11198 12424 
4 12406 12692 11941 13167 
4 11452 12856 11063 12242 
4 11392 11393 12803 11436 
4 11955 11514 12390 12699 
4 13130 11922 13146 11190 
4 11245 11269 12463 12188 
4 12465 11246 11270 12190 
4 11183 11514 12356 11215 
4 11857 12925 12518 12560 
4 11344 12927 12236 12610 
4 12763 12985 11831 12984 
4 13001 11838 12779 13000 
4 11716 11782 12500 12562 
4 13231 11744 12826 13172 
4 11861 11459 12571 11420 
4 11993 11859 12422 11219 
4 11329 12573 12567 11845 
4 11330 12574 12568 11846 
4 11158 11157 13218 12948 
4 11305 12899 12493 13035 
4 11716 11299 11782 12562 
4 11389 11432 12807 11388 
4 11141 12934 11140 13217 
4 11400 12825 11442 11443 
4 11119 12310 12707 12482 
4 12364 11208 11175 11518 
4 12517 12924 12559 11856 
4 12908 11613 12249 11614 
4 13183 764 13233 884 
4 13184 13234 907 787 
4 840 12449 12111 12113 
4 12142 865 12451 12144 
4 12398 12695 11947 11518 
4 12516 11927 11668 13093 
4 13198 11159 12947 12946 
4 11312 12486 12485 13028 
4 11178 11997 12362 11910 
4 11392 12804 11391 11435 
4 12623 11916 13133 11914 
4 12416 12009 13011 11111 
4 13038 12496 11302 12495 
4 11142 12932 12933 13197 
4 868 11276 805 869 
4 746 837 11275 836 
4 816 878 815 11272 
4 11271 736 827 735 
4 12490 11764 12491 11307 
4 12205 12840 11396 12800 
4 13143 11900 11898 12631 
4 11094 11670 12720 11555 
4 11478 11457 13064 11891 
4 11299 11328 11782 12500 
4 12368 11170 11995 11902 
4 11554 12721 11669 11093 
4 12066 11165 12689 11200 
4 11322 12506 11323 13046 
4 12623 11916 12357 13133 
4 12691 12690 11939 11523 
4 12080 11377 12593 11376 
4 11360 12079 11359 12577 
4 13171 11747 11957 12390 
4 11186 11999 12677 12354 
4 11437 11393 12802 11394 
4 11928 12157 10964 10963 
4 12805 11390 11391 11434 
4 12421 12422 11219 12379 
4 13051 12915 11317 12512 
4 11120 12481 12309 12706 
4 12817 12247 12858 11450 
4 11970 12828 12813 11729 
4 11602 11313 12891 13028 
4 12690 11937 11165 12410 
4 11452 12856 12242 12815 
4 12559 11568 12740 13088 
4 12741 12560 11569 13089 
4 12808 11431 11387 11388 
4 13137 12626 11910 11908 
4 12693 12692 11943 11521 
4 12156 10982 12160 12880 
4 11195 12416 13186 12310 
4 11405 11750 12820 13169 
4 11316 13052 12513 12512 
4 11329 12573 12962 13153 
4 12809 11386 11387 11430 
4 11330 12574 12963 13154 
4 11446 12862 12255 12821 
4 11091 746 836 745 
4 805 869 11092 806 
4 11965 12381 11962 12089 
4 11195 12310 11582 11119 
4 10998 10985 12181 11102 
4 12183 11101 10999 10984 
4 11959 11513 12701 12700 
4 12628 11906 13138 13140 
4 12454 860 11262 12448 
4 12446 11261 845 12453 
4 12251 11057 12859 12248 
4 11222 11583 12309 13185 
4 13142 12630 11902 11900 
4 11165 12066 12689 12410 
4 12690 12691 11167 11523 
4 13226 13196 12958 11148 
4 12230 13039 11591 12902 
4 12677 11999 11184 12357 
4 11001 12874 11827 11003 
4 11619 11604 12918 12272 
4 11438 12207 11439 12801 
4 12398 11949 11751 13169 
4 11142 11700 11699 12933 
4 11109 748 838 747 
4 804 803 11110 867 
4 11424 11541 12296 11333 
4 12497 11687 11783 11289 
4 12239 11068 11454 12237 
4 11316 13052 12916 12513 
4 11064 12245 11063 12242 
4 11181 11515 12363 12698 
4 12293 11334 11423 11540 
4 12841 12205 11439 12800 
4 760 850 12192 849 
4 791 855 12194 856 
4 11310 11309 11766 12488 
4 11784 12514 11701 11296 
4 11528 11249 12728 11558 
4 11519 12694 12369 11173 
4 12729 11529 11251 11559 
4 12796 13151 11413 12838 
4 12862 11051 11052 12255 
4 11308 11309 12489 11765 
4 11770 12561 12483 11715 
4 12478 12925 11857 12560 
4 13012 12085 11933 12161 
4 10979 13094 12163 12162 
4 12947 11159 11713 11714 
4 12506 13045 11323 12909 
4 12505 11778 11323 11324 
4 11057 11058 12859 12248 
4 11951 12697 12696 11517 
4 11627 12967 12739 11419 
4 11823 12034 12986 12064 
4 12065 13002 12049 11824 
4 12924 12477 12559 11856 
4 11053 11054 12254 12252 
4 13052 11316 11317 12512 
4 11994 12370 11166 11898 
4 11306 12898 12492 13034 
4 13231 11744 11745 11399 
4 12591 12764 12540 11345 
4 11362 12780 12607 12557 
4 10993 853 13228 12474 
4 852 13227 10991 12472 
4 12175 10967 11869 13084 
4 12406 12408 13232 11755 
4 12670 11192 11221 11526 
4 11181 13136 12363 11213 
4 11105 12191 11085 11089 
4 12193 11103 11090 11086 
4 11447 11053 12861 11054 
4 12596 12545 11374 12084 
4 12082 11357 12528 12580 
4 12331 11160 11161 11661 
4 12491 11307 12897 13033 
4 11143 11645 11144 12312 
4 11103 12193 11090 733 
4 11105 12191 11089 818 
4 12908 12505 11324 13044 
4 11916 11214 11184 12357 
4 12369 11173 13141 11205 
4 12501 11714 11298 11782 
4 11998 11180 12359 11912 
4 11393 11437 12803 11436 
4 11904 11172 11996 12365 
4 12893 11600 12211 11601 
4 11672 12004 12278 13019 
4 12670 11221 11126 11526 
4 12869 11040 12266 12277 
4 11548 11123 12433 13189 
4 11124 13190 12435 11549 
4 11756 12814 12799 13173 
4 13084 11869 13085 12641 
4 11309 12489 11766 12488 
4 12505 11778 12506 11323 
4 12991 12990 11843 12769 
4 12753 11836 12974 12975 
4 13107 13083 11866 11984 
4 12415 11222 12309 13185 
4 11784 12515 11295 11294 
4 11262 860 11268 12448 
4 11225 12379 13193 12926 
4 11308 12489 12490 11765 
4 11288 11783 12498 11287 
4 12256 11051 12862 12257 
4 11261 11267 12446 845 
4 11767 11310 12488 12487 
4 12388 11959 12386 12701 
4 11189 11511 12702 11218 
4 11930 13015 11725 12791 
4 12238 11680 11074 11069 
4 13142 11995 11168 11900 
4 12173 13082 11873 10968 
4 11573 10990 12473 11565 
4 12471 11571 10992 11564 
4 11180 11212 12359 11912 
4 11409 13232 11410 11755 
4 13107 10966 12176 12175 
4 12427 12281 12726 11250 
4 12428 11252 12283 12727 
4 11779 12505 12504 11324 
4 11364 12606 11363 12779 
4 11172 11904 11204 12365 
4 12590 12763 11346 11347 
4 12315 11642 11643 12082 
4 11658 12084 11659 12334 
4 11620 11855 12276 11068 
4 11074 12238 11069 12871 
4 12157 11928 11279 12179 
4 12189 11095 828 736 
4 11097 877 12187 815 
4 11997 13137 11908 11176 
4 11963 12703 12384 12702 
4 11404 11446 12821 11403 
4 11432 11433 11389 12807 
4 11438 11437 12802 11394 
4 13143 11168 12686 11202 
4 12889 11716 11232 11161 
4 11983 11932 12177 12789 
4 12755 11835 12976 12977 
4 12992 12993 12771 11842 
4 12359 11212 12362 13115 
4 11839 12777 12999 12998 
4 12982 12983 12761 11832 
4 11834 12978 12757 12979 
4 11841 12995 12994 12773 
4 11840 12775 12997 12996 
4 12981 12980 11833 12759 
4 11311 11310 11767 12487 
4 11444 12864 12258 12823 
4 12806 11390 11434 11433 
4 12874 11926 11827 11003 
4 12804 11392 11436 11435 
4 11417 12617 11379 11845 
4 11043 12825 11442 12866 
4 12622 11918 13131 12354 
4 12618 11380 11418 11846 
4 11725 11585 11425 12707 
4 12691 12406 11939 12408 
4 13025 11620 11895 11299 
4 13196 11147 12958 11148 
4 11325 11779 12504 11324 
4 13120 11204 12365 12368 
4 13082 11873 10968 11871 
4 11061 12246 12244 12857 
4 11954 12391 12393 11738 
4 11224 12927 11527 12414 
4 13195 11130 12944 11131 
4 13138 11906 11207 13140 
4 12691 12371 11167 11522 
4 11364 11808 11838 12779 
4 12763 11831 11792 11347 
4 11528 11578 11329 12573 
4 11500 12684 11204 11170 
4 12574 11330 11579 11529 
4 13138 11207 11176 12682 
4 13047 12507 11322 12910 
4 11927 11039 11828 12875 
4 12905 12245 12243 11616 
4 11746 12388 13171 11959 
4 11573 11535 12879 12727 
4 11571 11534 12878 12726 
4 12671 11527 11163 11196 
4 11997 12681 11178 12362 
4 12815 11452 11409 11410 
4 11431 12809 11387 11430 
4 11174 11501 12683 11996 
4 12027 11830 11978 12742 
4 11381 12834 12592 12541 
4 12608 12558 11382 12835 
4 11038 12278 11828 12875 
4 13095 11890 13060 13061 
4 12648 13061 12646 11477 
4 11483 13062 11893 12782 
4 11407 12817 11450 11408 
4 13129 11530 12431 11255 
4 12645 12027 12639 12742 
4 12711 11977 11422 11416 
4 11892 12163 11990 13060 
4 11981 11329 11845 12962 
4 11982 11330 11846 12963 
4 11242 12720 12732 11555 
4 12625 12624 13135 11912 
4 11327 13042 12905 11616 
4 12992 12771 12547 11842 
4 12530 12755 11835 12976 
4 13135 13133 11182 11914 
4 11997 12681 13137 11176 
4 13128 12430 11256 11531 
4 12184 11082 862 12439 
4 12915 13051 11607 12263 
4 12085 13012 12880 12161 
4 12910 13046 11612 12253 
4 12182 843 12437 11081 
4 12399 11734 12401 11946 
4 11976 12710 11415 11421 
4 11838 12555 12779 13000 
4 11831 12763 12984 12538 
4 11650 11651 12342 12074 
4 12520 11680 11895 12275 
4 11308 13032 12896 12490 
4 12073 11634 12323 11635 
4 12617 11727 11379 11845 
4 12811 11428 11384 11385 
4 11029 12205 12841 12206 
4 12618 11380 11846 11728 
4 12680 11178 11212 11504 
4 12484 11700 11290 11291 
4 12730 12721 11554 11241 
4 12671 11125 11527 11196 
4 11834 12978 12532 12757 
4 11841 12994 12549 12773 
4 12416 12310 11119 12482 
4 11583 11120 11222 12309 
4 12821 11446 12822 11403 
4 12787 11580 12785 11785 
4 11407 12817 12818 11450 
4 12786 11786 11581 12784 
4 11826 11846 12348 12963 
4 11840 12551 12775 12996 
4 12980 12534 11833 12759 
4 11825 11845 12329 12962 
4 11637 12321 11636 12075 
4 12201 11033 12870 11072 
4 12553 12777 11839 12998 
4 12982 12761 12536 11832 
4 11653 12340 11652 12076 
4 12024 13008 886 766 
4 12025 13009 905 785 
4 12261 12865 11045 12263 
4 13017 13025 11299 12562 
4 13031 12895 11309 12489 
4 12624 13135 11912 11914 
4 11231 11128 12304 12614 
4 13124 12370 11898 12632 
4 11127 12302 11229 12613 
4 12675 11509 12001 12674 
4 12692 12693 11943 12404 
4 12201 11440 11032 12203 
4 12539 12590 11346 12326 
4 12081 11640 12317 11641 
4 12083 12336 11657 11656 
4 12345 12606 12556 11363 
4 11931 11726 13014 10981 
4 11918 11920 13131 12000 
4 12637 11426 12790 11455 
4 11956 12389 12391 11739 
4 12442 11536 10986 12734 
4 11537 10987 12444 12735 
4 12497 11783 11288 11301 
4 11977 12829 11422 11743 
4 13045 12909 12251 11613 
4 12697 12396 11951 12696 
4 11325 12907 12504 13043 
4 11336 12717 12925 12478 
4 12924 12477 11335 12716 
4 12541 12540 11345 12327 
4 11362 12558 12557 12346 
4 12258 11048 11047 12260 
4 12894 11310 13030 12488 
4 12810 11386 11430 11429 
4 12891 11602 12208 12206 
4 12189 11095 736 11271 
4 12187 11097 815 11272 
4 12819 12860 11448 11055 
4 11432 11431 12808 11388 
4 12514 11784 11295 11315 
4 12797 11664 12871 12237 
4 13091 13160 12873 11864 
4 11244 12454 12448 12719 
4 12718 12446 12453 11243 
4 10969 12173 13080 11873 
4 11391 12805 11434 11435 
4 11617 11327 12905 11616 
4 13135 11998 12359 11912 
4 11027 12207 11438 12842 
4 12217 11598 13032 12896 
4 11230 11715 11144 12888 
4 11680 12238 12793 11069 
4 12319 12077 11638 11639 
4 12338 11655 12078 11654 
4 11120 12481 12415 12309 
4 11515 11955 12698 12699 
4 11604 12918 12204 13026 
4 11168 11498 12686 11202 
4 11260 12445 12151 12137 
4 12108 12447 11259 12122 
4 13092 11926 11667 12003 
4 10976 12165 11889 13066 
4 13135 11998 11182 12679 
4 11865 13090 12872 13159 
4 11029 11602 11603 12206 
4 12376 11165 12689 12410 
4 11497 11938 12686 12687 
4 11165 12376 12689 11200 
4 11519 12694 12695 11947 
4 11077 13163 12744 12475 
4 12406 11941 13232 13167 
4 12745 11078 13164 12476 
4 11174 11906 11996 13140 
4 12173 13082 13080 11873 
4 11163 11858 11198 12424 
4 11927 11668 13093 12004 
4 11070 11336 12717 12925 
4 11034 11679 12202 11072 
4 13015 12157 11725 12791 
4 12269 12278 11038 12875 
4 11961 13231 11745 12386 
4 12639 11931 12790 13014 
4 11187 11216 12355 12358 
4 11035 12924 11335 12716 
4 12409 12407 11938 12687 
4 11279 11928 10963 12179 
4 13050 12914 12260 11608 
4 11146 12961 12959 11701 
4 12251 11057 12250 12859 
4 11687 11129 12945 12960 
4 12789 11456 12739 12644 
4 10998 12195 11542 11721 
4 12379 11225 11526 12926 
4 11722 11543 12197 10999 
4 11311 12893 12487 13029 
4 11725 11425 12791 12707 
4 12438 12102 10984 740 
4 10985 12131 811 12440 
4 11611 12254 12910 12253 
4 11866 11829 11460 12783 
4 903 12971 12023 13162 
4 12022 888 12970 13161 
4 12503 11326 11325 13043 
4 11618 12919 12241 13040 
4 11292 13016 13024 12561 
4 11920 11922 13130 12001 
4 11311 12486 11312 13029 
4 13044 12908 12249 11614 
4 12259 11609 13049 12913 
4 11494 12480 12378 12306 
4 12465 10987 857 793 
4 11679 11034 12202 12792 
4 848 10986 758 12463 
4 11424 11333 13057 11576 
4 11577 13056 11334 11423 
4 13029 12893 12211 11601 
4 12447 11546 11101 11259 
4 11260 12445 11102 11547 
4 11984 13106 10967 12175 
4 12360 11915 13136 11211 
4 12350 11495 12479 12305 
4 11863 13150 12308 12616 
4 12244 11061 12857 11062 
4 12254 12911 12257 11610 
4 11663 12796 12201 12870 
4 12732 800 11555 11553 
4 12621 12648 12646 11477 
4 12913 13050 11319 12510 
4 11112 12481 12021 11114 
4 11677 10960 12737 12480 
4 12239 11454 12839 12237 
4 12730 11552 751 11554 
4 13132 11189 11218 11921 
4 12350 12571 11859 12421 
4 12731 11424 13057 11576 
4 12020 11111 12482 11113 
4 12205 11396 11439 12800 
4 13056 11577 12733 11423 
4 11207 11502 11176 12682 
4 12535 12587 12586 11350 
4 12093 11757 11966 12831 
4 11363 12556 11808 12779 
4 12539 12763 11792 11346 
4 12260 11608 12259 12913 
4 12399 11948 12397 11735 
4 13057 11333 12306 11723 
4 11001 12274 12874 12233 
4 11450 12817 11451 11408 
4 11741 11958 11740 12387 
4 12573 11329 11277 13153 
4 12633 12635 13145 11897 
4 12574 11330 11278 13154 
4 12602 12552 12603 11367 
4 12522 13091 11864 11974 
4 11096 12460 11550 12285 
4 12925 11626 11857 12518 
4 12287 11098 11551 12462 
4 10961 12479 12565 12736 
4 11404 11446 11447 12821 
4 10960 12737 12480 12566 
4 12517 11625 12924 11856 
4 12259 11609 12257 12912 
4 11228 12637 12619 12639 
4 12393 11952 11737 12395 
4 12423 12414 11198 12424 
4 11327 12502 11297 13041 
4 12026 11227 12636 12638 
4 11993 13126 11922 13146 
4 11197 12704 11496 12375 
4 11937 12066 11165 12410 
4 11318 13051 11317 12511 
4 12423 12066 12689 11200 
4 11082 11557 12725 12184 
4 11587 12611 12968 13187 
4 12612 13188 12969 11588 
4 742 12106 11083 833 
4 809 12135 11084 872 
4 11481 11483 11830 12782 
4 12787 11585 11580 11279 
4 10976 11889 11887 13066 
4 12797 11454 11664 12237 
4 12401 11733 12403 11944 
4 12985 11831 12035 11792 
4 13001 11808 11838 12050 
4 11724 13056 12305 11334 
4 12724 12182 11081 11556 
4 12128 788 853 13228 
4 13227 12097 852 763 
4 11053 12861 11054 12252 
4 12257 11610 13048 12912 
4 12923 11487 12570 12612 
4 12611 12922 12569 11486 
4 11511 11191 12702 11218 
4 12247 12249 12858 11060 
4 12274 11001 12874 11827 
4 12503 11325 11780 12504 
4 11444 12864 11048 11047 
4 12287 11551 11268 12448 
4 11311 12486 12487 11768 
4 12446 11267 11550 12285 
4 11908 13137 13138 11176 
4 12865 11046 12261 11045 
4 11727 11381 12592 11379 
4 12302 11825 12328 12329 
4 12608 11382 11380 11728 
4 12879 11535 12570 12727 
4 12878 11534 12569 12726 
4 12304 11826 12347 12348 
4 11301 12903 11853 11589 
4 12102 739 12279 10984 
4 10985 12131 12280 812 
4 12381 11962 12089 12383 
4 12503 12906 11326 13043 
4 13013 11627 12967 12739 
4 11169 13144 12371 11203 
4 11587 12611 13187 11486 
4 11487 13188 12612 11588 
4 12918 11619 12272 13024 
4 13143 13142 11168 11900 
4 11001 12232 11071 12233 
4 12856 11064 11063 12242 
4 12275 11074 11068 12237 
4 12502 11327 11326 13042 
4 11758 12830 11967 12092 
4 12870 11034 12202 11072 
4 12494 11761 11690 11304 
4 12459 11097 12288 12187 
4 12286 12189 12461 11095 
4 12818 12819 11449 12859 
4 11445 12863 12822 12823 
4 12811 11428 11385 11429 
4 11001 12233 11562 12886 
4 11590 11315 11854 12917 
4 12912 13049 11320 12509 
4 12243 11617 11616 11065 
4 11305 11762 12493 11691 
4 11943 12402 11520 11945 
4 11456 12739 12644 11860 
4 12911 13048 11321 12508 
4 11619 12272 13024 13155 
4 12822 11445 12823 11402 
4 12373 11899 11167 11203 
4 11399 12825 12826 11442 
4 11629 11345 12087 12327 
4 12086 11630 11362 12346 
4 12546 11373 12597 12596 
4 12529 11356 12581 12580 
4 12533 12584 11352 12585 
4 12302 12928 11229 12613 
4 12929 11231 12304 12614 
4 12350 11495 12305 11221 
4 12486 12892 11312 13029 
4 12601 12550 11369 12600 
4 12297 11683 12433 13108 
4 12435 13109 12298 11684 
4 11312 12485 11313 13028 
4 12269 11073 12268 11038 
4 11550 12718 11492 11243 
4 792 856 11106 12444 
4 11381 12746 11379 12069 
4 12070 12747 11382 11380 
4 11406 12818 12819 11449 
4 12442 11104 849 759 
4 12405 11731 12407 11940 
4 13227 12876 11566 10991 
4 10993 12877 13228 11567 
4 11760 12494 11690 11304 
4 11761 11305 12493 11691 
4 12060 12059 12991 11817 
4 11801 12044 12045 12975 
4 11551 11244 12719 11493 
4 11958 11740 12387 12389 
4 13109 12923 12298 11234 
4 12297 13108 12922 11233 
4 12989 12062 12061 11819 
4 12973 11803 12047 12046 
4 12207 12841 11439 12801 
4 11885 13070 10974 12167 
4 751 12730 11554 11241 
4 11023 12210 12844 12212 
4 11242 12732 800 11555 
4 12042 11799 12977 12043 
4 12057 12993 12058 11815 
4 12981 12039 12038 11795 
4 11811 12054 12997 12053 
4 12041 12040 12979 11797 
4 11813 12995 12055 12056 
4 11516 12394 11953 11951 
4 12841 11439 12801 12800 
4 11209 12366 13141 11907 
4 12591 12539 11346 12326 
4 12607 12345 12556 11363 
4 12360 11915 11183 11215 
4 12352 11925 12619 12620 
4 12876 11566 10991 11570 
4 10993 12877 11567 11572 
4 12983 12037 12036 11793 
4 12051 11809 12999 12052 
4 12485 11290 11313 13027 
4 11953 12394 11749 11951 
4 10961 11678 12479 12736 
4 11212 11178 12362 11910 
4 765 13183 885 884 
4 12165 13064 11889 13066 
4 11906 11908 13138 11207 
4 12887 11563 12269 11038 
4 12944 12945 13223 11688 
4 11950 12395 12397 11736 
4 11791 11823 12034 12986 
4 12049 13002 11807 11824 
4 12368 11204 11170 11902 
4 12921 11491 11543 12883 
4 12865 12262 11045 12263 
4 12498 12499 11287 11341 
4 11728 12608 11622 12348 
4 11727 12592 11621 12329 
4 12583 11354 12582 12531 
4 12516 12515 11342 11294 
4 12599 11371 12598 12548 
4 12959 11702 13224 12958 
4 11943 12402 11945 11753 
4 11791 12985 12034 12035 
4 13001 12049 11807 12050 
4 12226 11009 12851 12224 
4 13025 11328 11299 12500 
4 11217 12358 13134 11919 
4 11306 12492 11692 11763 
4 12018 11719 13174 12005 
4 13175 12006 12019 11720 
4 11025 12209 12843 12211 
4 12328 12302 12928 11229 
4 11231 12929 12304 12347 
4 11009 11008 11007 12227 
4 10972 13074 12169 11881 
4 11333 13057 11576 11723 
4 12501 12904 13040 11298 
4 11963 12703 11191 11510 
4 11245 10986 12734 12463 
4 11541 12669 11424 12296 
4 12914 13051 11318 12511 
4 11423 12293 11540 12668 
4 12465 10987 11246 12735 
4 12088 11756 12799 13173 
4 11490 12920 12882 11542 
4 12495 11303 11760 11689 
4 12497 11289 11301 13039 
4 11210 11911 12361 13139 
4 11193 11621 12301 12328 
4 11439 11395 12801 12800 
4 11622 11194 12347 12303 
4 11762 11306 12492 11692 
4 13131 11920 11188 12000 
4 11498 11497 12686 11166 
4 13146 12422 12674 12067 
4 11485 12560 12576 13089 
4 11998 13135 11182 11914 
4 11764 11693 12491 11307 
4 11892 11990 11890 13060 
4 13219 11130 11631 11129 
4 11647 11146 13220 11147 
4 12575 11484 12559 13088 
4 12519 12271 11679 11894 
4 11398 11441 11399 12826 
4 11899 12633 12373 13145 
4 12405 12403 11732 11942 
4 12169 10973 11881 13072 
4 12706 11426 11586 11726 
4 11128 11122 12418 12616 
4 12864 11444 12258 11047 
4 11121 12417 11127 12615 
4 11577 13056 11724 11334 
4 11858 12572 12424 12378 
4 11512 12355 12386 12701 
4 11727 11621 11825 12329 
4 11660 12332 12080 11661 
4 12313 11645 12079 11644 
4 11693 11763 12491 11307 
4 11728 11622 11826 12348 
4 12427 13108 11085 11281 
4 12428 13109 11086 11282 
4 11193 11621 12328 11229 
4 11622 11194 11231 12347 
4 13078 10970 11875 11877 
4 11296 12514 13053 11315 
4 12914 11607 12260 11608 
4 11512 11187 11216 12355 
4 13070 11885 10974 11883 
4 11861 12640 11458 11480 
4 13231 11961 13172 12386 
4 13064 11891 10977 11889 
4 10970 12172 13078 11875 
4 11899 12373 11167 11201 
4 13056 12733 12293 11423 
4 11627 12967 11419 11677 
4 11424 12296 12731 13057 
4 12253 11056 12252 12860 
4 10993 788 853 12134 
4 763 852 10991 12103 
4 11395 11438 12801 11394 
4 11602 12892 13028 12208 
4 12520 11680 12238 12793 
4 11453 11452 12242 12815 
4 11105 817 880 818 
4 825 11103 734 733 
4 12625 13135 12359 11912 
4 12411 11524 12413 12704 
4 11885 13068 12167 10975 
4 11731 11730 12407 11938 
4 11175 11208 12366 11907 
4 12166 10976 11887 13066 
4 12373 11899 13145 11201 
4 11678 12479 12966 11420 
4 11028 12207 12842 12208 
4 11428 11427 12812 11384 
4 11295 12515 11850 11294 
4 11849 11288 12498 11287 
4 12519 11679 12202 12792 
4 12506 11777 11322 11323 
4 12171 10970 13078 11877 
4 12829 12827 11971 11743 
4 10972 13074 11881 11879 
4 11108 11540 11238 12712 
4 837 747 746 11275 
4 11276 804 868 805 
4 11831 12985 12035 12984 
4 13001 11838 13000 12050 
4 11130 11687 12945 11688 
4 12249 12858 11060 12248 
4 12959 11701 11702 11147 
4 10969 12172 11875 13080 
4 12279 12447 12108 830 
4 875 12445 12280 12137 
4 12691 12406 12371 11522 
4 11960 12094 12385 11742 
4 12798 12089 13151 11397 
4 11237 12713 11107 11541 
4 12115 11265 829 11259 
4 876 11260 12146 11266 
4 12207 11029 12841 12206 
4 11397 12798 11030 11440 
4 11030 12840 11031 12204 
4 13114 11915 12360 11215 
4 11999 13111 11916 12357 
4 11920 12621 11918 13131 
4 11570 12876 12728 12472 
4 12877 12474 12729 11572 
4 11611 12910 11612 12253 
4 11770 11700 12484 11291 
4 13231 11744 11399 12826 
4 11887 12166 13068 10975 
4 12421 11859 11192 11219 
4 13143 11168 11202 11900 
4 12919 11328 13025 13040 
4 11048 12864 12258 11047 
4 11960 11958 11741 12387 
4 11931 13014 11978 10981 
4 11578 11417 11329 12567 
4 11330 12568 11579 11418 
4 12592 12834 11621 12328 
4 12608 11622 12347 12835 
4 11225 12379 12381 13193 
4 11618 12919 11855 12241 
4 11427 12812 11384 11383 
4 10960 11117 13148 12566 
4 13076 10971 12171 11877 
4 12846 11019 12215 12217 
4 12855 12814 11453 12815 
4 12290 11094 11545 11531 
4 12376 12635 13127 11897 
4 12906 12245 13042 11616 
4 12521 11678 12479 12966 
4 12297 12922 12794 11233 
4 12923 12795 12298 11234 
4 11542 12195 12199 11721 
4 12845 11022 12213 12214 
4 12446 12718 12460 11550 
4 11118 10961 12565 13147 
4 12847 12216 12218 11017 
4 10988 823 12109 12283 
4 12140 882 12281 10989 
4 11122 11863 12308 12616 
4 12462 11551 12448 12719 
4 13163 11263 12188 12185 
4 12235 11722 11543 12197 
4 11530 11093 12291 11544 
4 11777 12507 12506 11322 
4 12190 13164 11264 12186 
4 11695 11309 12489 11766 
4 11778 11709 12506 11323 
4 11310 11696 11767 12488 
4 12636 12026 12638 12643 
4 11424 11257 11083 12731 
4 11084 12733 11423 11258 
4 11759 11303 12495 11689 
4 877 814 12288 12148 
4 12117 12286 737 828 
4 11023 12210 11024 12844 
4 12563 12021 11114 11581 
4 11308 12490 11694 11765 
4 11963 11961 12384 11744 
4 12861 12255 11054 12254 
4 11875 10969 13080 11873 
4 11581 12786 11586 11280 
4 12407 11731 11938 11940 
4 11779 11710 12505 11324 
4 12157 10964 13015 11725 
4 12642 11867 11461 11462 
4 12020 11113 12564 11580 
4 12282 11249 12728 12472 
4 12474 12284 12729 11251 
4 12522 12967 11677 12480 
4 11709 11777 12506 11323 
4 11309 11695 12489 11765 
4 12484 12890 13026 11291 
4 11696 11310 11766 12488 
4 12814 11453 12815 11410 
4 12725 11082 12184 12439 
4 12667 11533 12725 12439 
4 13093 11668 11790 12004 
4 12724 12182 12437 11081 
4 12790 11726 12156 13014 
4 12361 11911 11179 11213 
4 12724 11532 12437 12666 
4 12925 11336 12478 11857 
4 12490 11308 11694 11764 
4 12507 11322 12910 13046 
4 814 12288 12148 11266 
4 12286 11265 12117 737 
4 11216 13132 13112 11921 
4 10988 11252 11573 12727 
4 12726 11571 11250 10989 
4 11710 11778 12505 11324 
4 11783 12497 11289 11301 
4 11298 12501 11782 12500 
4 11220 12352 12705 11510 
4 12606 12556 11363 12779 
4 12590 12763 12539 11346 
4 12390 11514 12356 12699 
4 11703 11772 11317 12512 
4 10965 12743 11930 11829 
4 11879 13076 10971 12170 
4 11483 12647 11457 13062 
4 12240 12814 12854 11411 
4 12366 11208 13119 11907 
4 11918 12622 13111 12354 
4 12695 12398 12364 11518 
4 11025 12209 11026 12843 
4 12739 12967 12572 11419 
4 11784 12514 11296 11315 
4 12415 11222 13185 12351 
4 11965 11225 12381 13193 
4 12540 12591 11345 12327 
4 11163 12671 11196 12306 
4 12607 11362 12557 12346 
4 13092 11667 11789 12003 
4 11999 11916 11184 12357 
4 11938 11498 11497 12686 
4 12477 12924 11335 11856 
4 11030 12798 12840 12203 
4 12247 12858 11059 11060 
4 11908 13138 11207 11176 
4 11343 11490 12609 12200 
4 11853 12230 11005 12231 
4 11325 11711 11780 12504 
4 12617 11417 12567 11845 
4 12568 12618 11418 11846 
4 11887 13068 11885 10975 
4 12222 12849 12221 11013 
4 13076 11879 10971 11877 
4 11915 12360 13136 13116 
4 11311 12487 11697 11768 
4 11027 12207 11028 12208 
4 13117 11911 12361 11213 
4 12517 12519 11625 11293 
4 10973 11881 13072 11883 
4 12801 11438 12802 11394 
4 11479 12651 13113 13178 
4 11009 11010 12851 12224 
4 12787 11580 11785 11279 
4 12795 12923 11332 11234 
4 12794 12922 11331 11233 
4 12946 11716 12931 11160 
4 12201 12838 11440 12203 
4 11044 12262 12866 12265 
4 11773 12510 11318 12511 
4 11314 11292 13024 12483 
4 11195 12416 12377 13186 
4 11568 12477 12559 12740 
4 12560 12478 12741 11569 
4 12520 11626 12518 11300 
4 12223 12225 12850 11012 
4 11321 13047 12507 11322 
4 11161 12331 11661 11662 
4 11645 11144 12312 11646 
4 11935 12837 12019 11720 
4 12836 12018 11934 11719 
4 12244 12245 11064 12856 
4 12661 11467 13182 13123 
4 12367 11903 13144 11206 
4 12705 11525 12382 12380 
4 11417 12836 12617 12567 
4 12618 12837 12568 11418 
4 11447 11404 12821 12820 
4 11645 12313 12079 12577 
4 12332 12080 11661 12593 
4 12367 11903 11171 11205 
4 12278 11037 11038 11828 
4 10972 13074 11879 12170 
4 11249 11570 12728 12472 
4 12474 12729 11572 11251 
4 11084 12135 12733 872 
4 11830 12645 12782 12742 
4 11083 12106 12731 833 
4 11216 11189 13132 11921 
4 12442 10986 848 12463 
4 10987 12465 857 12444 
4 13170 12394 11953 12698 
4 10982 11929 12160 11280 
4 12126 11088 811 12440 
4 11087 12095 12438 740 
4 11805 12972 12750 12526 
4 12543 11821 12766 12988 
4 11779 11711 11325 12504 
4 12191 12427 11085 11089 
4 12428 12193 11090 11086 
4 11915 12360 11183 11211 
4 11941 12406 13232 11755 
4 11932 11983 11584 12789 
4 11767 11311 12487 11697 
4 12402 12694 11945 13168 
4 11830 11978 12742 13094 
4 11786 12786 11581 11280 
4 12245 12906 11615 11616 
4 11348 12537 12588 12589 
4 12817 12816 11451 11408 
4 12168 10973 13072 11883 
4 11786 11980 12784 10983 
4 11365 12604 12605 12554 
4 11999 11186 12677 11507 
4 12522 13013 11627 12967 
4 11535 11573 12879 11565 
4 11534 11571 12878 11564 
4 12271 12519 11679 12202 
4 11663 12796 12870 12200 
4 13017 12520 11895 12275 
4 11511 12355 11189 12702 
4 13220 11146 12959 11147 
4 861 12184 12454 11254 
4 11253 844 12453 12182 
4 11581 12786 11286 11586 
4 13219 11130 11129 12945 
4 11319 12509 12510 11774 
4 11602 12892 12208 11601 
4 12798 11030 12840 11396 
4 13122 11903 12367 11205 
4 13141 11905 13122 11205 
4 11425 12310 12638 12707 
4 13070 10974 12168 11883 
4 12112 12450 11247 743 
4 11979 10962 12785 11785 
4 12097 18 16 10995 
4 17 19 10997 12128 
4 11248 12141 12452 808 
4 11421 12828 11970 11729 
4 11893 11830 12782 13094 
4 11002 11001 12274 11827 
4 11772 11318 11317 12511 
4 12796 11663 12201 11440 
4 11680 12520 12238 12275 
4 12713 12669 11107 11541 
4 11540 11108 12668 12712 
4 13121 13181 11470 12659 
4 12930 12932 11715 11143 
4 13125 11899 12373 11203 
4 11433 12806 11389 12807 
4 12264 12867 11041 12267 
4 11680 12793 11626 11069 
4 11908 11906 13138 12627 
4 11703 11317 11771 12512 
4 12516 11927 11342 11668 
4 12855 11065 11067 12240 
4 11016 12220 12219 12848 
4 13049 12913 11319 12510 
4 12804 11392 12803 11436 
4 12877 11567 11572 11579 
4 12876 11566 11570 11578 
4 12433 11105 12191 11085 
4 12435 11103 12193 11086 
4 12422 11993 11219 12067 
4 12522 13013 11974 11627 
4 12974 11836 12045 12975 
4 12060 12991 12990 11843 
4 11782 11299 12500 12562 
4 11491 11344 12236 12610 
4 11928 12157 10963 12179 
4 11679 11034 12792 11625 
4 11020 12846 11019 12215 
4 11208 11909 13139 13119 
4 11603 11313 13027 12891 
4 11286 12786 12706 11586 
4 12847 11018 12216 11017 
4 13050 12914 11318 12511 
4 11969 11343 11490 12609 
4 12499 11926 11341 11667 
4 10967 11869 13084 11871 
4 12278 11672 13019 11037 
4 12358 13134 11919 13113 
4 884 764 10997 13228 
4 10995 907 787 13227 
4 12457 11109 838 747 
4 12456 804 11110 867 
4 13134 11917 13114 11215 
4 12366 13121 13141 11907 
4 12810 12811 11385 11429 
4 12864 12261 11048 12260 
4 11862 11121 11127 12615 
4 814 11097 12288 11266 
4 12286 11265 737 11095 
4 11863 11122 11128 12616 
4 11321 12508 11776 12507 
4 11320 12508 12509 11775 
4 13130 11922 11190 12001 
4 12793 11070 11626 11069 
4 11067 12240 12854 11411 
4 11998 11182 12679 11505 
4 13118 12655 13180 11471 
4 11393 11437 12802 12803 
4 12205 11396 11031 11439 
4 12026 12636 12665 12643 
4 13048 12912 11320 12509 
4 12371 12373 11167 11203 
4 11034 11035 12792 11625 
4 11217 11187 12358 11919 
4 11744 13231 11745 13172 
4 12653 11472 13179 13116 
4 11209 11175 12366 11907 
4 12634 11924 12636 12665 
4 11326 12503 11325 11780 
4 11483 11893 11830 12782 
4 13198 11159 12946 11160 
4 11516 12394 12697 12363 
4 11426 12706 12790 11726 
4 12486 11311 11312 11768 
4 11570 11528 11249 12728 
4 11572 12729 11529 11251 
4 12790 11931 11726 13014 
4 12932 11142 11143 13197 
4 12331 13222 11661 11662 
4 13050 11319 12510 11318 
4 13221 11645 12312 11646 
4 12185 11096 846 12285 
4 11536 11245 10986 12734 
4 11292 11770 12561 12483 
4 12993 12992 12058 11842 
4 11835 12976 12977 12043 
4 11167 12371 11203 11522 
4 10987 11537 11246 12735 
4 11098 12287 859 12186 
4 12402 12369 12693 11520 
4 11839 12999 12052 12998 
4 12037 12983 12982 11832 
4 12978 11834 12041 12979 
4 12995 11841 12994 12056 
4 12039 12981 12980 11833 
4 12054 11840 12997 12996 
4 12352 11220 12002 11510 
4 13074 12169 11881 13072 
4 11885 13068 13070 12167 
4 11252 11535 11573 12727 
4 11571 11534 12726 11250 
4 11301 13054 12903 11589 
4 11590 13055 11315 12917 
4 12906 12503 11326 13042 
4 12689 12376 13127 11200 
4 11329 12573 11845 12962 
4 11330 12574 11846 12963 
4 12807 11432 12808 11388 
4 11006 11427 11005 12853 
4 12804 12805 11391 11435 
4 12361 11911 13118 13139 
4 861 797 12132 12184 
4 754 844 12182 12101 
4 12451 12290 11094 11545 
4 11913 13117 13136 11213 
4 13047 12911 11321 12508 
4 11093 12449 12291 11544 
4 12787 11585 11285 11580 
4 11911 11210 12361 11179 
4 11431 12809 12808 11387 
4 12560 11485 11569 13089 
4 12890 11604 12204 13026 
4 12840 12798 11396 12800 
4 13049 11319 11320 12509 
4 12156 11726 11929 10981 
4 11961 11511 12702 12386 
4 13122 11905 11903 11205 
4 12157 11928 10964 11725 
4 11484 11568 12559 13088 
4 11622 12608 12347 12348 
4 11621 12592 12328 12329 
4 12814 12855 11453 11411 
4 11235 12093 11966 12831 
4 12849 11014 12221 11013 
4 11302 11759 11303 12495 
4 11208 11909 13119 11907 
4 13048 11320 11321 12508 
4 12806 11390 12805 11434 
4 12786 11786 12784 13086 
4 12830 11967 12092 11236 
4 12236 12797 11664 12871 
4 12282 12425 12728 11558 
4 12729 12284 12426 11559 
4 12247 12246 11061 12857 
4 11491 11968 11344 12610 
4 11033 12201 11032 12272 
4 11823 12987 12005 12064 
4 12006 13003 12065 11824 
4 12785 12787 11785 13087 
4 12266 11041 12267 11854 
4 12729 12877 11572 11579 
4 11570 12876 11578 12728 
4 11911 13117 11913 11213 
4 12230 12229 11005 12853 
4 13062 11893 12782 13094 
4 12594 11376 12543 12767 
4 11359 12578 12751 12526 
4 11428 12852 11006 11007 
4 11485 12576 11682 11162 
4 11484 12575 11681 11145 
4 11966 12009 12416 11195 
4 11939 12408 11756 13173 
4 11190 13146 12674 12067 
4 11386 12809 12810 11430 
4 12189 12461 11239 12741 
4 12459 12187 12740 11240 
4 11022 12845 12213 11021 
4 11164 12372 12687 11994 
4 13114 11917 11915 11215 
4 11260 813 12146 11266 
4 12115 11265 11259 738 
4 12362 11212 11910 13115 
4 13076 12171 13078 11877 
4 11187 11216 12358 11919 
4 13052 11606 12265 12915 
4 12153 11561 801 865 
4 12124 840 11560 750 
4 13017 13025 11895 11299 
4 11999 12677 11184 11507 
4 13120 11204 12368 11902 
4 11687 11717 11129 12960 
4 12672 11283 12714 11538 
4 11718 12961 11146 11701 
4 11974 12522 11627 11677 
4 12892 12486 11312 13028 
4 11903 12367 11171 11206 
4 11108 11238 12722 12712 
4 13151 12798 11397 12838 
4 11441 12867 11041 11042 
4 12713 12723 11237 11107 
4 13142 12630 11900 12631 
4 11047 12258 11050 12863 
4 12415 12010 11222 11967 
4 11617 12905 13041 12243 
4 12624 12623 13133 11914 
4 12066 12423 11198 11200 
4 11603 11602 12891 12206 
4 12671 11163 12378 12306 
4 12181 10998 11102 12195 
4 11101 12197 12183 10999 
4 12518 11857 11682 11300 
4 12213 11023 12844 12212 
4 13109 12298 11684 11234 
4 12297 11683 13108 11233 
4 11033 12201 11440 11032 
4 13016 11292 13024 11894 
4 12595 12544 11375 12594 
4 11358 12579 12527 12578 
4 11025 12843 12210 12211 
4 11590 13023 13055 12277 
4 11009 12226 12851 12227 
4 11066 11067 12854 11411 
4 12718 13018 12475 11492 
4 12719 11036 12007 11493 
4 12476 12719 13019 11493 
4 13054 13022 12273 11589 
4 11726 12156 13014 10981 
4 12517 11856 11681 11293 
4 12840 12205 11396 11031 
4 11428 11008 12852 11007 
4 12664 12028 11460 12783 
4 11617 12905 12243 11616 
4 11757 11966 12831 12377 
4 13027 11603 12891 12206 
4 12407 11730 12409 11938 
4 12271 12519 13016 11894 
4 11785 12787 11279 13087 
4 11263 11096 757 12185 
4 12718 12008 11492 11000 
4 12796 13151 13193 11413 
4 11098 794 11264 12186 
4 11936 12411 12409 12688 
4 11119 12020 12482 11285 
4 11238 11969 12609 12712 
4 12230 11005 12231 12853 
4 11011 12223 12850 11012 
4 12484 11770 11291 12483 
4 11786 12786 11280 13086 
4 12633 13125 11899 12373 
4 11244 12454 11262 12448 
4 13125 11901 11899 11203 
4 12926 11343 11969 12609 
4 11585 12707 12787 11285 
4 11199 11197 11496 12375 
4 12235 11070 12793 11069 
4 12446 11261 12453 11243 
4 12209 11028 12842 12208 
4 12811 11428 12812 11384 
4 11054 11053 12254 11611 
4 11498 12686 11202 11166 
4 12830 12351 11758 11967 
4 11317 11316 11771 12512 
4 12793 12235 11069 13166 
4 11044 11442 11042 12866 
4 11608 11609 12259 12913 
4 13087 12158 12179 11337 
4 12966 12521 11628 13012 
4 12840 12205 11031 12204 
4 11095 12189 11239 11271 
4 11097 12187 11240 11272 
4 13062 11891 11893 10978 
4 13003 13002 12065 11824 
4 11823 12986 12987 12064 
4 12724 12714 11556 11538 
4 11208 11909 11177 13139 
4 12610 11968 12713 11237 
4 12027 11481 11830 12645 
4 11539 11557 12715 12725 
4 13141 11173 11905 11205 
4 11065 12243 11067 12240 
4 12199 11034 11035 12792 
4 12355 11216 11189 13132 
4 12425 12573 11277 13153 
4 12574 11278 12426 13154 
4 11777 11708 12507 11322 
4 11331 12611 11587 11486 
4 11332 11487 12612 11588 
4 13134 11185 11917 11215 
4 11088 10985 811 12440 
4 11087 12438 10984 740 
4 12155 11338 12160 13086 
4 11781 12502 11713 11297 
4 12690 13173 11937 12410 
4 11830 12027 12645 12742 
4 12990 12768 11819 11843 
4 11836 11803 12752 12974 
4 12257 11609 11610 12912 
4 12868 11004 12091 11970 
4 12923 13109 11282 11234 
4 13108 12922 11233 11281 
4 12250 11057 11055 12859 
4 11537 11246 12735 11116 
4 12199 13165 11034 12792 
4 11216 12358 11919 13112 
4 11708 11776 12507 11322 
4 11536 11245 12734 11115 
4 11699 11769 12485 11290 
4 11804 11837 11359 12751 
4 11376 11820 11844 12767 
4 12307 12417 11121 12615 
4 11122 12308 12418 12616 
4 12089 13151 11397 11413 
4 11070 12235 12717 11722 
4 11015 11016 12219 12848 
4 11383 11970 12813 11729 
4 12846 12216 11019 12217 
4 11923 11925 12620 11481 
4 11548 11105 12433 11085 
4 11103 12435 11549 11086 
4 12302 11825 12329 12417 
4 12304 11826 12348 12418 
4 11721 12199 11035 12716 
4 12798 11397 11030 11396 
4 11549 12435 11684 11086 
4 11683 11548 12433 11085 
4 13038 11592 12228 12901 
4 11078 13164 12476 12462 
4 13163 11077 12460 12475 
4 12965 12518 11682 11300 
4 12964 12517 11681 11293 
4 11626 11857 12518 11300 
4 12308 11674 13154 12436 
4 13153 11673 12434 12307 
4 12847 12218 12219 11017 
4 11422 12829 11971 11743 
4 12090 12869 11040 11971 
4 12275 12238 11074 12871 
4 11804 12973 12047 11837 
4 12989 12062 11820 11844 
4 12002 12353 11191 11218 
4 11034 13165 12870 12202 
4 12845 12215 11022 12214 
4 13137 12626 11908 12627 
4 12102 12279 12438 10984 
4 10985 12131 12440 12280 
4 12983 12037 11794 11832 
4 11810 11839 12999 12052 
4 11915 11913 13136 11211 
4 11963 12703 12382 12384 
4 12256 11051 11049 12862 
4 12517 11625 11856 11293 
4 731 10988 823 12109 
4 12140 882 10989 820 
4 12385 11960 11741 12387 
4 11041 12264 11044 11042 
4 11029 11027 12841 11439 
4 11913 13136 11181 11213 
4 11537 10987 11106 12444 
4 12481 11120 12021 11286 
4 11104 12442 11536 10986 
4 12613 12499 11341 11667 
4 11252 10988 12283 12727 
4 12281 12726 11250 10989 
4 11759 12944 13223 11688 
4 12205 11031 11029 12841 
4 12039 12981 11833 11796 
4 11840 11812 12054 12997 
4 11961 11744 11745 13172 
4 11834 11798 12041 12979 
4 12995 11841 12056 11814 
4 11800 11835 12977 12043 
4 12058 12993 11842 11816 
4 11776 11321 12507 11322 
4 12908 13045 12251 11613 
4 12614 12516 11342 11668 
4 12238 11069 12871 13166 
4 12575 11145 12419 12299 
4 12576 12420 12300 11162 
4 11031 11029 12841 11439 
4 11440 11030 11032 12203 
4 11210 11909 11911 13139 
4 11209 13141 11905 11907 
4 11041 12867 12266 12267 
4 12445 11260 876 11266 
4 11265 12447 829 11259 
4 11704 11773 11318 12511 
4 11863 12614 11668 12616 
4 11836 11802 12045 12975 
4 12060 12991 11843 11818 
4 11702 11771 13224 12958 
4 12153 11561 865 12451 
4 11319 12510 11705 11774 
4 840 12124 11560 12449 
4 11862 12613 11667 12615 
4 12777 11366 11839 11810 
4 11794 12761 11832 11349 
4 11267 12116 845 755 
4 11108 10985 11088 12722 
4 12723 11087 10984 11107 
4 860 796 11268 12145 
4 12850 12225 12224 11012 
4 11929 12156 10982 12160 
4 11785 10962 13087 11337 
4 11773 11319 12510 11705 
4 11344 11968 12927 12610 
4 11772 11704 11318 12511 
4 11903 13123 12367 13144 
4 12222 12223 12849 11013 
4 13134 11217 11919 11917 
4 12609 11238 12712 12920 
4 11378 11332 12524 11588 
4 11331 11587 12523 11361 
4 12304 11128 12418 12614 
4 12417 12302 11127 12613 
4 11357 12753 11802 11836 
4 11843 11818 12769 11374 
4 11368 11812 11840 12775 
4 11833 11796 12759 11351 
4 12771 11842 11816 11372 
4 11355 12755 11800 11835 
4 12773 11841 11814 11370 
4 11353 11798 11834 12757 
4 12921 12610 12713 11237 
4 11457 13062 11891 11893 
4 12059 12992 12991 11817 
4 11801 12976 12044 12975 
4 13002 13003 12781 11824 
4 12765 11823 12986 12987 
4 12611 11331 11587 12523 
4 11332 12612 12524 11588 
4 13046 12909 11612 12253 
4 12520 11680 12793 11626 
4 12508 11321 11776 11707 
4 12509 11320 11775 11706 
4 12461 11336 11095 11239 
4 12459 11335 11097 11240 
4 11453 12855 11063 11065 
4 11260 12445 11547 11266 
4 11546 12447 11265 11259 
4 11338 11786 13086 10983 
4 12220 11016 12221 12848 
4 12264 11044 12866 12265 
4 12478 11239 12741 11569 
4 11568 12477 12740 11240 
4 11922 13126 13130 13146 
4 11321 12508 11775 11707 
4 11587 12611 12523 12968 
4 12524 12612 12969 11588 
4 11799 12978 12042 12977 
4 12994 12993 12057 11815 
4 11320 12509 11774 11706 
4 12982 12981 12038 11795 
4 12997 11811 12053 12998 
4 12979 12040 12980 11797 
4 12996 11813 12995 12055 
4 10982 12085 11975 12880 
4 12431 13129 11255 11979 
4 12852 12228 11007 12227 
4 11578 11329 12573 12567 
4 12574 11330 12568 11579 
4 13128 12430 11980 11256 
4 12519 11679 12792 11625 
4 11609 11050 11608 12259 
4 11249 12282 12728 11558 
4 12284 12729 11251 11559 
4 11602 11027 11028 12208 
4 12907 13044 12249 11614 
4 11801 12754 11835 12976 
4 11817 12992 12770 11842 
4 12990 12989 12061 11819 
4 11803 12973 12974 12046 
4 11053 11447 12861 12252 
4 11044 11043 11442 12866 
4 12189 11239 11271 12741 
4 12187 12740 11240 11272 
4 11319 11773 12510 11318 
4 12906 12246 11615 13043 
4 12254 11054 11611 11610 
4 12984 12983 12036 11793 
4 11809 12051 12999 13000 
4 12009 13011 11111 11669 
4 11453 12855 11065 11067 
4 11834 12978 11799 12756 
4 11617 13041 12904 12243 
4 11795 12982 12760 11832 
4 11811 12776 11839 12998 
4 12928 11193 11229 11665 
4 11670 11112 13010 12010 
4 13012 12521 11975 12880 
4 12985 11791 12034 12986 
4 13002 13001 12049 11807 
4 11194 11666 11231 12929 
4 11327 11617 12905 13041 
4 12461 12478 11239 12741 
4 12477 12459 12740 11240 
4 11901 13125 13144 11203 
4 11088 10985 12440 12722 
4 11453 12855 12240 11411 
4 12723 11087 12438 10984 
4 11260 813 876 12146 
4 829 12115 11259 738 
4 11048 11047 12260 11608 
4 12904 11618 12241 13040 
4 12899 12225 11594 13036 
4 12468 11087 11257 741 
4 12470 11258 810 11088 
4 12985 12764 11791 12986 
4 13001 13002 12780 11807 
4 11319 11320 12509 11774 
4 11595 12898 12222 13035 
4 12897 13034 12220 11596 
4 11663 12201 11033 12870 
4 11320 11321 12508 11775 
4 12827 11441 11398 12826 
4 13150 11537 12735 11116 
4 13149 11536 12734 11115 
4 13231 11961 11745 13172 
4 792 10987 857 12444 
4 12442 10986 759 848 
4 11540 12832 11126 11969 
4 11770 11314 11291 12483 
4 12425 11329 12573 11558 
4 11330 12574 12426 11559 
4 11901 13144 11169 11203 
4 11244 11036 12719 11493 
4 12359 12625 11912 13115 
4 11673 12434 12307 13149 
4 12308 13150 11674 12436 
4 11903 11901 13144 11206 
4 12764 12985 11791 11792 
4 12780 13001 11807 11808 
4 11031 12205 11029 12206 
4 12271 12870 12202 11072 
4 11492 12718 11000 11243 
4 11125 11968 11541 12833 
4 12093 11235 12295 12831 
4 10963 12881 12068 11974 
4 861 797 11254 12138 
4 13194 11414 12797 13152 
4 11660 13198 12333 12332 
4 12313 13197 11644 12314 
4 11459 12640 12738 11458 
4 12629 13120 11904 12365 
4 13051 12914 11607 12263 
4 11253 12107 844 754 
4 12294 12830 12092 11236 
4 11791 12985 12035 11792 
4 13001 11807 11808 12050 
4 13161 12970 11805 12750 
4 12766 11821 12971 13162 
4 12896 11597 13033 12218 
4 12262 11043 12865 11045 
4 11027 12207 11029 12841 
4 11326 12503 11780 11712 
4 11627 12522 12967 11677 
4 12921 11491 12610 11237 
4 12855 11453 12242 12815 
4 11312 12486 11768 11698 
4 11585 11425 12707 11285 
4 12239 12276 11068 12237 
4 12172 13078 11875 13080 
4 12229 11006 11007 11005 
4 11108 11088 12668 12722 
4 12669 11087 12723 11107 
4 11329 12425 11277 11558 
4 11278 11330 12426 11559 
4 12245 11616 11064 11063 
4 11609 11051 12257 11610 
4 12683 11501 11172 11996 
4 11533 11082 11557 12725 
4 11532 12724 11081 11556 
4 11030 12840 11396 11031 
4 12852 12228 12229 11007 
4 12640 12738 11458 12788 
4 11067 11453 12240 11411 
4 11672 12007 13019 11037 
4 11490 11238 12609 12920 
4 11599 12894 12214 13031 
4 12022 12048 13161 11805 
4 11821 12063 12023 13162 
4 11598 12217 13032 12895 
4 11593 12226 13037 12900 
4 12784 13086 10983 13157 
4 877 814 11097 12288 
4 737 12286 11095 828 
4 10962 13158 12785 13087 
4 11056 11053 12252 12860 
4 12470 11258 11088 12668 
4 11087 12468 11257 12669 
4 11456 12644 11461 11860 
4 795 11268 12145 12147 
4 13030 12893 11600 12212 
4 11770 11292 11314 12483 
4 12116 11267 12118 756 
4 11348 12537 12589 12762 
4 12605 11365 12554 12778 
4 11817 12991 12546 12770 
4 12754 11801 12529 12975 
4 11091 746 11275 836 
4 11276 805 869 11092 
4 11438 11439 11395 12801 
4 12563 12290 13128 11531 
4 12626 12362 11910 13115 
4 12260 13050 11608 12913 
4 11533 11082 12725 12439 
4 11532 12724 12437 11081 
4 12892 13029 12211 11601 
4 11941 13232 13167 11755 
4 12630 13120 12368 11902 
4 11853 11005 11004 12231 
4 13129 11530 12564 12291 
4 10962 13158 13087 11337 
4 11611 12254 13047 12910 
4 11271 827 12464 735 
4 12466 878 816 11272 
4 11427 12812 11383 12813 
4 12259 11609 12912 13049 
4 11887 12166 13066 13068 
4 11590 11073 12268 12277 
4 12232 12273 11589 11071 
4 12468 832 741 12100 
4 873 12470 12129 810 
4 13149 12744 12615 11115 
4 12719 12007 13019 11493 
4 13150 12616 11116 12745 
4 12732 864 800 12130 
4 12730 841 751 12099 
4 11040 11041 12266 11854 
4 11825 11621 12328 12329 
4 11826 11622 12347 12348 
4 12911 12257 11610 13048 
4 12350 12421 11192 12670 
4 862 798 12125 12439 
4 843 12096 12437 753 
4 11781 12503 11326 11712 
4 12735 13150 11116 12745 
4 13149 12734 12744 11115 
4 11312 12486 11698 11769 
4 12890 11603 13027 12206 
4 13018 12718 12008 11492 
4 12671 11163 12424 12378 
4 12979 12758 12533 11797 
4 12774 11813 12550 12995 
4 11799 12531 12756 12977 
4 12548 12993 12772 11815 
4 11041 12867 11040 12266 
4 12709 12873 11972 13148 
4 11973 12872 13147 12708 
4 13042 12245 12905 11616 
4 12207 11027 11028 12842 
4 12720 12732 11555 11553 
4 12554 12778 11809 12999 
4 12537 12983 12762 11793 
4 13086 11338 10983 13157 
4 12195 12920 11542 12199 
4 860 796 12152 11262 
4 12423 12689 13127 11200 
4 12121 11261 845 755 
4 11552 12730 12721 11554 
4 12921 12235 11543 12197 
4 11781 12503 12502 11326 
4 12776 11811 12552 12997 
4 12981 11795 12760 12535 
4 11312 12486 11769 12485 
4 11915 13114 12360 13116 
4 12832 12670 11126 11526 
4 12734 11245 12463 12188 
4 11246 12465 12735 12190 
4 12738 12966 11628 13012 
4 13111 12623 11916 12357 
4 12462 11551 12719 11493 
4 12201 11663 11033 11440 
4 12718 12460 11550 11492 
4 11879 13074 13076 12170 
4 12296 11424 11333 13057 
4 11334 13056 12293 11423 
4 11459 12966 11420 11628 
4 11376 12543 12767 12988 
4 11238 10998 12195 12920 
4 12469 12130 799 863 
4 752 842 12467 12099 
4 11125 12671 11527 12833 
4 12921 12197 10999 11237 
4 12827 11398 11971 11743 
4 11128 12418 12614 12616 
4 11584 11456 12644 11461 
4 11127 12417 12613 12615 
4 12790 11931 11455 11726 
4 11931 12639 12790 11455 
4 10987 792 11106 12444 
4 11104 12442 10986 759 
4 12552 12776 12603 11367 
4 12535 12760 12587 11350 
4 12637 11426 12706 12790 
4 12205 11031 12841 11439 
4 12544 12989 11820 12767 
4 11804 12527 12973 12751 
4 11844 11376 12767 12988 
4 12460 12446 11550 12285 
4 11551 12287 12462 12448 
4 13121 12366 13119 11907 
4 12959 11146 11701 11147 
4 11130 11687 11129 12945 
4 13070 12168 13072 11883 
4 11064 12244 12856 11062 
4 12989 12062 11844 12988 
4 12047 12973 12972 11837 
4 12624 13133 13135 11914 
4 11457 11483 13062 11893 
4 12758 12533 11352 12585 
4 12358 11919 13112 13113 
4 12774 12601 12550 11369 
4 12891 11602 13028 12208 
4 12126 811 874 12440 
4 12095 831 12438 740 
4 12437 12096 842 12467 
4 12469 863 12125 12439 
4 11913 11915 13136 13116 
4 12837 13175 12019 11720 
4 12836 12018 11719 13174 
4 12475 13018 11671 11492 
4 12989 12990 12768 11819 
4 12752 11803 12973 12974 
4 12858 11058 11060 12248 
4 13143 13142 11900 12631 
4 12583 11354 12531 12756 
4 12599 11371 12548 12772 
4 11801 12754 12976 12975 
4 12992 12991 11817 12770 
4 11672 12476 13019 11493 
4 11052 12861 12255 11054 
4 12978 11799 12756 12977 
4 12993 12994 12772 11815 
4 12979 12980 12758 11797 
4 11813 12774 12996 12995 
4 12982 12981 11795 12760 
4 12776 11811 12997 12998 
4 12678 11214 11184 11506 
4 12262 11043 11044 12866 
4 11781 12502 11327 11326 
4 11911 11909 13118 13139 
4 11769 11312 12485 11313 
4 13141 13121 11905 11907 
4 12545 12769 12596 11374 
4 11357 12753 12528 12580 
4 12546 11373 12770 12597 
4 11356 12754 12529 12581 
4 11911 13117 12361 13118 
4 11180 11998 12679 11505 
4 11502 11207 11174 12682 
4 11701 12959 11702 13224 
4 12983 12984 12762 11793 
4 12778 11809 12999 13000 
4 12945 11687 13223 11688 
4 11186 12000 12676 11508 
4 11453 12855 11067 12240 
4 12855 11453 11063 12242 
4 11059 12247 11061 12857 
4 11931 12027 12639 11455 
4 12394 12396 11749 11951 
4 11943 12402 11753 12404 
4 12966 11459 12738 11628 
4 797 12132 12184 11254 
4 11253 754 12182 12101 
4 12374 13186 12310 11582 
4 11583 12309 13185 12349 
4 11919 13134 11917 13113 
4 11185 11217 13134 11917 
4 11173 11209 13141 11905 
4 11425 12638 12791 12707 
4 11909 11210 11177 13139 
4 12584 11353 12532 12757 
4 12600 12549 12773 11370 
4 12402 12693 11943 11520 
4 12520 13017 11895 11300 
4 13014 11931 11978 12742 
4 12189 11271 827 12464 
4 12187 878 12466 11272 
4 11377 13222 12593 12542 
4 11360 13221 12577 12525 
4 12095 12468 832 741 
4 12126 12470 873 810 
4 13187 12611 12569 11486 
4 11487 13188 12570 12612 
4 13123 13122 11903 12367 
4 12606 11364 12555 12779 
4 12763 12590 12538 11347 
4 11096 756 846 12285 
4 11590 13055 12917 12277 
4 864 12136 12732 800 
4 12105 12730 841 751 
4 795 11098 12287 859 
4 12450 12112 834 743 
4 12141 12452 808 871 
4 13137 11908 13138 12627 
4 12394 11516 12697 11951 
4 12903 13054 12273 11589 
4 12519 13016 11894 11293 
4 11091 11275 12458 836 
4 12455 11276 869 11092 
4 12238 11680 12275 11074 
4 739 12279 12108 830 
4 12280 875 12137 812 
4 12582 11355 12530 12755 
4 12771 12598 12547 11372 
4 11913 13136 11211 11181 
4 12445 11260 12151 876 
4 12447 829 11259 12122 
4 12519 11679 11625 11293 
4 12520 11680 11626 11300 
4 12369 11173 11205 11520 
4 11516 11181 12363 11213 
4 11358 12579 12752 12527 
4 12544 12768 12595 11375 
4 11853 12903 12273 11589 
4 11005 11004 12231 12853 
4 12921 11491 12883 12610 
4 11329 12425 12573 11277 
4 11330 12574 11278 12426 
4 799 12469 863 12125 
4 12096 752 842 12467 
4 12889 12300 11232 11162 
4 11230 11145 12888 12299 
4 11023 12213 12844 11021 
4 11145 11847 12419 12299 
4 12420 11848 12300 11162 
4 11257 12468 741 12100 
4 12129 12470 11258 810 
4 12447 12279 11101 12183 
4 11046 12864 12261 11048 
4 12445 12181 12280 11102 
4 11208 12364 11177 11518 
4 11530 11113 12564 12291 
4 12290 12563 11114 11531 
4 11514 11185 12356 11215 
4 12843 11025 12210 11024 
4 12521 11678 12966 11628 
4 11679 12271 12202 11072 
4 12609 11490 12920 12882 
4 11854 11590 12917 12277 
4 12534 12759 12586 11351 
4 11453 11452 12815 11410 
4 11901 13144 11206 11169 
4 12551 11368 12775 12602 
4 12966 11678 11420 11628 
4 11008 11009 12851 12227 
4 11543 12921 12197 10999 
4 12782 11830 12742 13094 
4 11901 13123 11903 13144 
4 12616 11863 11116 12745 
4 12744 11862 12615 11115 
4 11008 12852 11007 12227 
4 12146 814 12148 11266 
4 12117 11265 12115 737 
4 10998 12195 12920 11542 
4 12371 11169 11203 11522 
4 813 11260 12151 12137 
4 12108 11259 738 12122 
4 11366 12553 12604 12777 
4 12761 12588 12536 11349 
4 12481 12563 12021 11114 
4 11018 12846 12216 11019 
4 11680 12520 11895 11300 
4 11786 12784 13086 10983 
4 11015 12847 12219 11017 
4 11426 11286 12706 11586 
4 10962 12785 11785 13087 
4 11820 11844 12767 12988 
4 11804 12972 11837 12751 
4 12482 12020 11113 12564 
4 12105 12124 11241 750 
4 11093 11560 12449 11544 
4 11561 12451 11094 11545 
4 11802 12753 12529 12975 
4 12991 11818 12546 12769 
4 12153 801 11242 12136 
4 11027 12207 12841 11439 
4 11028 12209 12842 11026 
4 11769 12485 11290 11313 
4 12669 12723 12713 11107 
4 12668 11108 12722 12712 
4 13227 10995 763 10991 
4 788 10997 10993 13228 
4 11259 829 738 12122 
4 11260 813 12151 876 
4 12991 11818 11817 12546 
4 11801 11802 12529 12975 
4 12502 11781 11327 11297 
4 12973 11804 12972 11837 
4 11820 12989 11844 12988 
4 11499 11170 11995 12685 
4 13161 12048 11837 11805 
4 11821 11844 12063 13162 
4 12223 11011 12849 11013 
4 12757 11798 12979 12533 
4 12995 12550 12773 11814 
4 11679 12519 11894 11293 
4 12755 12531 11800 12977 
4 12771 12993 12548 11816 
4 12189 12461 11095 11239 
4 12459 11097 12187 11240 
4 11796 12981 12759 12535 
4 12552 11812 12775 12997 
4 12867 12264 11041 11042 
4 12229 11006 11005 12853 
4 11798 12979 12533 11797 
4 11813 12550 12995 11814 
4 12983 12537 12761 11794 
4 12777 12554 11810 12999 
4 11800 12531 11799 12977 
4 12548 12993 11815 11816 
4 798 11082 12125 12439 
4 12437 12096 11081 753 
4 11811 11812 12552 12997 
4 12981 11796 11795 12535 
4 12554 11809 11810 12999 
4 12983 12537 11794 11793 
4 11070 12793 11626 12925 
4 11228 11426 12637 11455 
4 11214 12678 11182 11506 
4 11010 12850 12224 11012 
4 11035 12792 11625 12924 
4 11020 12845 12215 11022 
4 12920 12882 11542 12199 
4 12609 11490 12882 12200 
4 12235 12921 11543 12883 
4 11491 12236 12883 12610 
4 12667 11533 12469 11553 
4 11552 11532 12666 12467 
4 11216 11512 12355 11189 
4 12287 795 859 12147 
4 756 12118 846 12285 
4 11277 12425 11574 11558 
4 11278 12426 11575 11559 
4 11163 11858 12424 12378 
4 12681 11997 11178 11503 
4 12970 12022 13161 11805 
4 12971 11821 12023 13162 
4 12037 12983 11794 11793 
4 11809 11810 12999 12052 
4 13087 13158 12158 11337 
4 11803 11804 12973 12047 
4 12062 12989 11820 11819 
4 12039 12981 11796 11795 
4 11812 11811 12054 12997 
4 11798 12041 12979 11797 
4 11813 12995 12056 11814 
4 11799 11800 12977 12043 
4 12993 12058 11815 11816 
4 12060 12991 11818 11817 
4 11802 11801 12045 12975 
4 12980 12040 11833 11797 
4 11840 11813 12996 12055 
4 12978 11834 11799 12042 
4 11841 12994 12057 11815 
4 12059 12992 11817 11842 
4 11835 11801 12976 12044 
4 12038 12982 11795 11832 
4 11811 11839 12053 12998 
4 11016 11014 12221 12848 
4 12061 12990 11819 11843 
4 11836 11803 12974 12046 
4 11497 11164 12687 11994 
4 12155 11338 13086 13157 
4 11188 12675 11509 12001 
4 13018 12008 11671 11492 
4 12451 11561 11094 11242 
4 11560 11241 11093 12449 
4 12989 11820 12767 12988 
4 11804 12973 12972 12751 
4 11831 12984 12036 11793 
4 12051 11809 11838 13000 
4 12007 11672 13019 11493 
4 11862 11127 12613 12615 
4 11863 11128 12614 12616 
4 11499 11995 11168 12685 
4 12738 11459 11458 11628 
4 11336 12461 12478 11239 
4 12477 11335 12459 11240 
4 12264 11044 11042 12866 
4 12647 13177 11483 11457 
4 11862 13149 12615 11115 
4 831 12102 12438 740 
4 811 12131 874 12440 
4 11863 13150 12616 11116 
4 860 796 11262 11268 
4 11261 11267 845 755 
4 788 10993 853 13228 
4 852 13227 763 10991 
4 11533 12667 12469 12439 
4 11532 12437 12666 12467 
4 11859 12350 12421 11192 
4 11034 13165 12202 12792 
4 861 797 12184 11254 
4 12238 12793 11069 13166 
4 844 11253 754 12182 
4 11111 11119 12020 12482 
4 12048 12972 13161 11837 
4 12063 11844 12988 13162 
4 12394 12697 12396 11951 
4 12681 11997 11503 11176 
4 12693 12402 11943 12404 
4 11105 880 12191 818 
4 11103 825 12193 733 
4 11006 12852 12229 11007 
4 11983 11867 11584 13021 
4 12402 11945 11753 13168 
4 12394 13170 11953 11749 
4 12481 11120 11112 12021 
4 736 12189 11271 827 
4 878 12187 815 11272 
4 12114 12450 12112 834 
4 12141 12143 12452 871 
4 12972 13161 11805 12750 
4 11821 12766 12988 13162 
4 11561 12142 865 12451 
4 11560 840 12449 12111 
4 11082 798 862 12439 
4 843 12437 11081 753 
4 12972 13161 11837 11805 
4 11844 11821 12988 13162 
4 840 11560 750 12111 
4 801 11561 12142 865 
4 739 12102 12279 830 
4 12131 875 12280 812 
4 12741 12443 11080 12464 
4 11080 12443 12741 13190 
4 12740 12441 11079 12466 
4 11079 12441 12740 13189 
4 866 12451 11545 12430 
4 866 11545 12451 12144 
4 11545 866 802 12144 
4 11545 802 866 11256 
4 11255 12113 12431 839 
4 11255 12431 12113 11544 
4 12449 12431 12113 839 
4 12449 12113 12431 11544 
4 12913 11609 11319 11608 
4 12913 11319 11609 13049 
4 12589 11633 11348 12071 
4 11348 11633 12589 12324 
4 11662 12542 12330 13222 
4 12330 12542 11662 11378 
4 11646 12525 12311 13221 
4 12311 12525 11646 11361 
4 12912 11610 11320 11609 
4 12912 11320 11610 13048 
4 13047 11610 12254 11611 
4 13047 12254 11610 12911 
4 16 13234 12098 10994 
4 16 12098 13234 18 
4 17 13233 12127 10996 
4 17 12127 13233 19 
4 11736 12807 11735 11389 
4 11736 11735 12807 12397 
4 11740 12803 11739 11393 
4 11739 12803 11740 12389 
4 12544 11819 12989 12768 
4 12989 11819 12544 11820 
4 11803 12527 12973 11804 
4 12973 12527 11803 12752 
4 11391 12393 12804 11738 
4 11391 12804 12393 12805 
4 11387 12401 12808 11734 
4 11387 12808 12401 12809 
4 12395 11390 12805 12806 
4 12395 12805 11390 11737 
4 12573 12876 11578 12567 
4 12573 11578 12876 12728 
4 12574 12877 11579 12568 
4 12574 11579 12877 12729 
4 11385 12405 12810 11732 
4 11385 12810 12405 12811 
4 11386 12403 12809 11733 
4 12809 12403 11386 12810 
4 11499 12686 11168 11498 
4 11168 12686 11499 12685 
4 12883 11069 12235 13166 
4 12883 12235 11069 11543 
4 12155 11865 10982 11338 
4 10982 11865 12155 13090 
4 10982 12160 12155 11338 
4 12155 12160 10982 13090 
4 12114 11099 835 744 
4 12158 11864 10963 11337 
4 10963 11864 12158 13091 
4 11099 12114 11247 744 
4 11247 12114 11099 12450 
4 11384 12407 12811 11731 
4 11384 12811 12407 12812 
4 11034 12882 12199 11542 
4 11034 12199 12882 13165 
4 12679 11506 11182 12678 
4 11182 11506 12679 11505 
4 12794 11361 12311 11623 
4 12311 11361 12794 12523 
4 11624 12524 11332 12795 
4 11332 12524 11624 11378 
4 11090 12120 10988 732 
4 10988 12120 11090 12283 
4 819 12281 881 11089 
4 881 12281 819 12149 
4 11506 12677 11184 12678 
4 11506 11184 12677 11507 
4 11121 13149 12615 11862 
4 11121 12615 13149 12307 
4 11863 12308 11674 11122 
4 11674 12308 11863 13150 
4 12960 11783 11687 11717 
4 11687 11783 12960 12497 
4 12514 11718 12515 11784 
4 12514 12515 11718 12961 
4 11463 13081 12660 11870 
4 12660 13081 11463 12663 
4 13167 11409 11755 13232 
4 11755 11409 13167 11754 
4 11006 12853 12812 11427 
4 12812 12853 11006 12229 
4 886 12837 12019 13005 
4 12019 12837 886 13175 
4 905 12836 12018 13004 
4 905 12018 12836 13174 
4 11807 12557 13002 12780 
4 13002 12557 11807 11824 
4 11823 12764 11345 12540 
4 11823 11345 12764 11791 
4 11865 12880 12521 13090 
4 12521 12880 11865 11975 
4 12378 11419 11858 12572 
4 12378 11858 11419 11494 
4 12754 11835 11355 11801 
4 11355 11835 12754 12530 
4 12770 11842 11372 11817 
4 11372 11842 12770 12547 
4 11951 13169 12696 12396 
4 12696 13169 11951 11949 
4 13160 11864 12158 11488 
4 12158 11864 13160 13091 
4 12756 11834 11353 11799 
4 12756 11353 11834 12532 
4 11815 12549 12994 12772 
4 11815 12994 12549 11841 
4 11072 13155 12272 11619 
4 11072 12272 13155 12271 
4 11797 12534 12980 12758 
4 11797 12980 12534 11833 
4 12551 11813 12996 11840 
4 12551 12996 11813 12774 
4 12738 12161 11933 12788 
4 11933 12161 12738 13012 
4 11865 13159 12155 13090 
4 12155 13159 11865 11489 
4 12760 11832 11349 11795 
4 11349 11832 12760 12536 
4 11839 12776 11366 12553 
4 11839 11366 12776 11811 
4 13164 11116 12735 11246 
4 13164 12735 11116 12745 
4 11897 12642 12633 12635 
4 11897 12633 12642 11462 
4 13163 11115 12734 11245 
4 12734 11115 13163 12744 
4 11120 12637 12706 12309 
4 12706 12637 11120 11426 
4 13001 12556 11808 12780 
4 11808 12556 13001 12779 
4 12539 12985 11792 12763 
4 12539 11792 12985 12764 
4 11416 12673 11758 11284 
4 11416 11758 12673 12711 
4 11415 12672 11757 11283 
4 11415 11757 12672 12710 
4 12514 12917 11315 13055 
4 11315 12917 12514 13053 
4 12497 12903 11301 13054 
4 11301 12903 12497 13039 
4 11613 12909 11323 13045 
4 11613 11323 12909 11612 
4 11793 12538 12984 12762 
4 11793 12984 12538 11831 
4 11809 12555 13000 12778 
4 13000 12555 11809 11838 
4 11614 12908 11324 13044 
4 11614 11324 12908 11613 
4 12452 807 12141 11248 
4 12452 12141 807 12143 
4 13025 12276 11620 12919 
4 13025 11620 12276 13156 
4 11599 13030 12212 12894 
4 11599 12212 13030 11600 
4 11614 13043 12246 12907 
4 12246 13043 11614 11615 
4 11504 12679 11180 12680 
4 11504 11180 12679 11505 
4 13031 11598 12214 11599 
4 13031 12214 11598 12895 
4 12391 11506 12679 12678 
4 12391 12679 11506 11954 
4 13004 785 12018 905 
4 13004 12018 785 11934 
4 13005 766 12019 886 
4 13005 12019 766 11935 
4 11526 12379 11192 11225 
4 11526 11192 12379 12670 
4 12893 11601 11311 11600 
4 11311 11601 12893 13029 
4 12685 11940 11942 12405 
4 12685 11942 11940 11499 
4 11420 12479 12350 11495 
4 11420 12350 12479 12966 
4 12450 835 11099 12432 
4 12450 11099 835 12114 
4 870 12452 807 12143 
4 887 12019 12006 767 
4 12006 12019 887 13175 
4 12018 904 12005 13174 
4 12005 904 12018 784 
4 11596 13033 12218 12897 
4 11596 12218 13033 11597 
4 11948 12681 11950 11503 
4 11948 11950 12681 12397 
4 11595 13034 12220 12898 
4 11595 12220 13034 11596 
4 12896 11598 11308 11597 
4 12896 11308 11598 13032 
4 13131 12001 12675 11188 
4 12675 12001 13131 13130 
4 12884 11283 12714 12672 
4 12884 12714 11283 11851 
4 12962 12567 11845 12617 
4 12962 11845 12567 12573 
4 12963 12568 11846 12618 
4 12963 11846 12568 12574 
4 11594 13035 12222 12899 
4 12222 13035 11594 11595 
4 11284 12885 12715 11852 
4 12715 12885 11284 12673 
4 11201 12373 12690 13145 
4 11201 12690 12373 11167 
4 11976 12377 11223 11757 
4 11223 12377 11976 12413 
4 13036 11593 12225 11594 
4 13036 12225 11593 12900 
4 12365 11996 12683 11172 
4 12365 12683 11996 13140 
4 13234 11565 787 13184 
4 13234 787 11565 10994 
4 11564 13233 764 10996 
4 764 13233 11564 13183 
4 12182 11075 12453 11253 
4 12182 12453 11075 12196 
4 12184 11076 12454 11254 
4 12454 11076 12184 12198 
4 11066 12839 11412 12854 
4 11412 12839 11066 11454 
4 11998 12359 12679 13135 
4 12679 12359 11998 11180 
4 11977 12351 11226 11758 
4 11977 11226 12351 12380 
4 11553 12294 11533 11236 
4 11553 11533 12294 12667 
4 12395 11504 12681 12680 
4 12395 12681 11504 11950 
4 11037 13019 12270 12007 
4 11037 12270 13019 12278 
4 11552 12295 11532 11235 
4 11532 12295 11552 12666 
4 12274 12008 11671 13018 
4 12274 11671 12008 11002 
4 12684 11942 11944 12403 
4 12684 11944 11942 11500 
4 11317 13052 11606 11316 
4 11317 11606 13052 12915 
4 12292 11723 13057 12566 
4 13057 11723 12292 11576 
4 12831 11538 12672 12714 
4 12831 12672 11538 12093 
4 12715 12092 12294 12830 
4 12715 12294 12092 11539 
4 12289 11724 13056 12565 
4 13056 11724 12289 11577 
4 11725 12707 12157 11585 
4 12157 12707 11725 12791 
4 12706 11726 12156 12790 
4 12156 11726 12706 11586 
4 13038 11303 11592 12901 
4 11592 11303 13038 11302 
4 11963 12702 11961 11511 
4 11961 12702 11963 12384 
4 11166 13143 11898 12370 
4 11166 11898 13143 11202 
4 12354 12000 12676 11186 
4 12354 12676 12000 13131 
4 13022 11926 11003 11849 
4 13022 11003 11926 12874 
4 13023 11927 11039 11850 
4 13023 11039 11927 12875 
4 11725 12643 11425 12026 
4 11425 12643 11725 12791 
4 13156 11074 11895 11620 
4 11895 11074 13156 12275 
4 12500 11716 12946 11782 
4 12500 12946 11716 12931 
4 11822 12524 12542 12749 
4 11822 12542 12524 11378 
4 12748 11361 11587 11806 
4 12748 11587 11361 12523 
4 12414 11964 13194 12412 
4 12414 13194 11964 11224 
4 11715 12483 12932 12930 
4 11715 12932 12483 11770 
4 11724 12479 10961 11495 
4 11724 10961 12479 12565 
4 11558 12573 12728 11528 
4 11558 12728 12573 12425 
4 11559 12574 12729 11529 
4 11559 12729 12574 12426 
4 11166 12687 11994 11497 
4 11166 11994 12687 12370 
4 11072 12201 12272 12271 
4 11072 12272 12201 11033 
4 12915 11607 11317 11606 
4 11317 11607 12915 13051 
4 11207 13140 12682 13138 
4 12682 13140 11207 11174 
4 13055 11850 11590 11295 
4 13055 11590 11850 13023 
4 12180 11337 11488 12158 
4 12180 11488 11337 11273 
4 12901 11593 11303 11592 
4 12901 11303 11593 13037 
4 12159 11338 11489 12155 
4 12159 11489 11338 11274 
4 11084 872 12129 809 
4 12129 872 11084 12733 
4 11083 833 12100 742 
4 12100 833 11083 12731 
4 11100 870 12452 807 
4 12452 870 11100 12429 
4 11829 13107 12783 11866 
4 11829 12783 13107 12743 
4 13054 11849 11589 11288 
4 13054 11589 11849 13022 
4 12613 11229 11341 12928 
4 12613 11341 11229 11127 
4 11231 12614 11342 11128 
4 11342 12614 11231 12929 
4 11723 12480 10960 11494 
4 11723 10960 12480 12566 
4 12480 11419 12378 12967 
4 12480 12378 11419 11494 
4 11284 12715 12092 11539 
4 12092 12715 11284 12673 
4 12854 11067 12241 12240 
4 12854 12241 11067 11066 
4 12350 11221 12670 11192 
4 12670 11221 12350 12305 
4 11163 12306 11494 12378 
4 11494 12306 11163 11196 
4 12988 11376 11821 11844 
4 12988 11821 11376 12543 
4 11837 12526 12751 12972 
4 12751 12526 11837 11359 
4 11530 12564 11979 13129 
4 11979 12564 11530 11113 
4 12563 11531 11980 11114 
4 11980 11531 12563 13128 
4 12381 11225 11219 12379 
4 12381 11219 11225 11965 

CELL_TYPES 39320
10
10
10
10
10
10
10
10
10
10
10
10
10
10
10
10
10
10
10
10
10
10
10
10
10
10
10
10
10
10
10
10
10
10
10
10
10
10
10
10
10
10
10
10
10
10
10
10
10
10
10
10
10
10
10
10
10
10
10
10
10
10
10
10
10
10
10
10
10
10
10
10
10
10
10
10
10
10
10
10
10
10
10
10
10
10
10
10
10
10
10
10
10
10
10
10
10
10
10
10
10
10
10
10
10
10
10
10
10
10
10
10
10
10
10
10
10
10
10
10
10
10
10
10
10
10
10
10
10
10
10
10
10
10
10
10
10
10
10
10
10
10
10
10
10
10
10
10
10
10
10
10
10
10
10
10
10
10
10
10
10
10
10
10
10
10
10
10
10
10
10
10
10
10
10
10
10
10
10
10
10
10
10
10
10
10
10
10
10
10
10
10
10
10
10
10
10
10
10
10
10
10
10
10
10
10
10
10
10
10
10
10
10
10
10
10
10
10
10
10
10
10
10
10
10
10
10
10
10
10
10
10
10
10
10
10
10
10
10
10
10
10
10
10
10
10
10
10
10
10
10
10
10
10
10
10
10
10
10
10
10
10
10
10
10
10
10
10
10
10
10
10
10
10
10
10
10
10
10
10
10
10
10
10
10
10
10
10
10
10
10
10
10
10
10
10
10
10
10
10
10
10
10
10
10
10
10
10
10
10
10
10
10
10
10
10
10
10
10
10
10
10
10
10
10
10
10
10
10
10
10
10
10
10
10
10
10
10
10
10
10
10
10
10
10
10
10
10
10
10
10
10
10
10
10
10
10
10
10
10
10
10
10
10
10
10
10
10
10
10
10
10
10
10
10
10
10
10
10
10
10
10
10
10
10
10
10
10
10
10
10
10
10
10
10
10
10
10
10
10
10
10
10
10
10
10
10
10
10
10
10
10
10
10
10
10
10
10
10
10
10
10
10
10
10
10
10
10
10
10
10
10
10
10
10
10
10
10
10
10
10
10
10
10
10
10
10
10
10
10
10
10
10
10
10
10
10
10
10
10
10
10
10
10
10
10
10
10
10
10
10
10
10
10
10
10
10
10
10
10
10
10
10
10
10
10
10
10
10
10
10
10
10
10
10
10
10
10
10
10
10
10
10
10
10
10
10
10
10
10
10
10
10
10
10
10
10
10
10
10
10
10
10
10
10
10
10
10
10
10
10
10
10
10
10
10
10
10
10
10
10
10
10
10
10
10
10
10
10
10
10
10
10
10
10
10
10
10
10
10
10
10
10
10
10
10
10
10
10
10
10
10
10
10
10
10
10
10
10
10
10
10
10
10
10
10
10
10
10
10
10
10
10
10
10
10
10
10
10
10
10
10
10
10
10
10
10
10
10
10
10
10
10
10
10
10
10
10
10
10
10
10
10
10
10
10
10
10
10
10
10
10
10
10
10
10
10
10
10
10
10
10
10
10
10
10
10
10
10
10
10
10
10
10
10
10
10
10
10
10
10
10
10
10
10
10
10
10
10
10
10
10
10
10
10
10
10
10
10
10
10
10
10
10
10
10
10
10
10
10
10
10
10
10
10
10
10
10
10
10
10
10
10
10
10
10
10
10
10
10
10
10
10
10
10
10
10
10
10
10
10
10
10
10
10
10
10
10
10
10
10
10
10
10
10
10
10
10
10
10
10
10
10
10
10
10
10
10
10
10
10
10
10
10
10
10
10
10
10
10
10
10
10
10
10
10
10
10
10
10
10
10
10
10
10
10
10
10
10
10
10
10
10
10
10
10
10
10
10
10
10
10
10
10
10
10
10
10
10
10
10
10
10
10
10
10
10
10
10
10
10
10
10
10
10
10
10
10
10
10
10
10
10
10
10
10
10
10
10
10
10
10
10
10
10
10
10
10
10
10
10
10
10
10
10
10
10
10
10
10
10
10
10
10
10
10
10
10
10
10
10
10
10
10
10
10
10
10
10
10
10
10
10
10
10
10
10
10
10
10
10
10
10
10
10
10
10
10
10
10
10
10
10
10
10
10
10
10
10
10
10
10
10
10
10
10
10
10
10
10
10
10
10
10
10
10
10
10
10
10
10
10
10
10
10
10
10
10
10
10
10
10
10
10
10
10
10
10
10
10
10
10
10
10
10
10
10
10
10
10
10
10
10
10
10
10
10
10
10
10
10
10
10
10
10
10
10
10
10
10
10
10
10
10
10
10
10
10
10
10
10
10
10
10
10
10
10
10
10
10
10
10
10
10
10
10
10
10
10
10
10
10
10
10
10
10
10
10
10
10
10
10
10
10
10
10
10
10
10
10
10
10
10
10
10
10
10
10
10
10
10
10
10
10
10
10
10
10
10
10
10
10
10
10
10
10
10
10
10
10
10
10
10
10
10
10
10
10
10
10
10
10
10
10
10
10
10
10
10
10
10
10
10
10
10
10
10
10
10
10
10
10
10
10
10
10
10
10
10
10
10
10
10
10
10
10
10
10
10
10
10
10
10
10
10
10
10
10
10
10
10
10
10
10
10
10
10
10
10
10
10
10
10
10
10
10
10
10
10
10
10
10
10
10
10
10
10
10
10
10
10
10
10
10
10
10
10
10
10
10
10
10
10
10
10
10
10
10
10
10
10
10
10
10
10
10
10
10
10
10
10
10
10
10
10
10
10
10
10
10
10
10
10
10
10
10
10
10
10
10
10
10
10
10
10
10
10
10
10
10
10
10
10
10
10
10
10
10
10
10
10
10
10
10
10
10
10
10
10
10
10
10
10
10
10
10
10
10
10
10
10
10
10
10
10
10
10
10
10
10
10
10
10
10
10
10
10
10
10
10
10
10
10
10
10
10
10
10
10
10
10
10
10
10
10
10
10
10
10
10
10
10
10
10
10
10
10
10
10
10
10
10
10
10
10
10
10
10
10
10
10
10
10
10
10
10
10
10
10
10
10
10
10
10
10
10
10
10
10
10
10
10
10
10
10
10
10
10
10
10
10
10
10
10
10
10
10
10
10
10
10
10
10
10
10
10
10
10
10
10
10
10
10
10
10
10
10
10
10
10
10
10
10
10
10
10
10
10
10
10
10
10
10
10
10
10
10
10
10
10
10
10
10
10
10
10
10
10
10
10
10
10
10
10
10
10
10
10
10
10
10
10
10
10
10
10
10
10
10
10
10
10
10
10
10
10
10
10
10
10
10
10
10
10
10
10
10
10
10
10
10
10
10
10
10
10
10
10
10
10
10
10
10
10
10
10
10
10
10
10
10
10
10
10
10
10
10
10
10
10
10
10
10
10
10
10
10
10
10
10
10
10
10
10
10
10
10
10
10
10
10
10
10
10
10
10
10
10
10
10
10
10
10
10
10
10
10
10
10
10
10
10
10
10
10
10
10
10
10
10
10
10
10
10
10
10
10
10
10
10
10
10
10
10
10
10
10
10
10
10
10
10
10
10
10
10
10
10
10
10
10
10
10
10
10
10
10
10
10
10
10
10
10
10
10
10
10
10
10
10
10
10
10
10
10
10
10
10
10
10
10
10
10
10
10
10
10
10
10
10
10
10
10
10
10
10
10
10
10
10
10
10
10
10
10
10
10
10
10
10
10
10
10
10
10
10
10
10
10
10
10
10
10
10
10
10
10
10
10
10
10
10
10
10
10
10
10
10
10
10
10
10
10
10
10
10
10
10
10
10
10
10
10
10
10
10
10
10
10
10
10
10
10
10
10
10
10
10
10
10
10
10
10
10
10
10
10
10
10
10
10
10
10
10
10
10
10
10
10
10
10
10
10
10
10
10
10
10
10
10
10
10
10
10
10
10
10
10
10
10
10
10
10
10
10
10
10
10
10
10
10
10
10
10
10
10
10
10
10
10
10
10
10
10
10
10
10
10
10
10
10
10
10
10
10
10
10
10
10
10
10
10
10
10
10
10
10
10
10
10
10
10
10
10
10
10
10
10
10
10
10
10
10
10
10
10
10
10
10
10
10
10
10
10
10
10
10
10
10
10
10
10
10
10
10
10
10
10
10
10
10
10
10
10
10
10
10
10
10
10
10
10
10
10
10
10
10
10
10
10
10
10
10
10
10
10
10
10
10
10
10
10
10
10
10
10
10
10
10
10
10
10
10
10
10
10
10
10
10
10
10
10
10
10
10
10
10
10
10
10
10
10
10
10
10
10
10
10
10
10
10
10
10
10
10
10
10
10
10
10
10
10
10
10
10
10
10
10
10
10
10
10
10
10
10
10
10
10
10
10
10
10
10
10
10
10
10
10
10
10
10
10
10
10
10
10
10
10
10
10
10
10
10
10
10
10
10
10
10
10
10
10
10
10
10
10
10
10
10
10
10
10
10
10
10
10
10
10
10
10
10
10
10
10
10
10
10
10
10
10
10
10
10
10
10
10
10
10
10
10
10
10
10
10
10
10
10
10
10
10
10
10
10
10
10
10
10
10
10
10
10
10
10
10
10
10
10
10
10
10
10
10
10
10
10
10
10
10
10
10
10
10
10
10
10
10
10
10
10
10
10
10
10
10
10
10
10
10
10
10
10
10
10
10
10
10
10
10
10
10
10
10
10
10
10
10
10
10
10
10
10
10
10
10
10
10
10
10
10
10
10
10
10
10
10
10
10
10
10
10
10
10
10
10
10
10
10
10
10
10
10
10
10
10
10
10
10
10
10
10
10
10
10
10
10
10
10
10
10
10
10
10
10
10
10
10
10
10
10
10
10
10
10
10
10
10
10
10
10
10
10
10
10
10
10
10
10
10
10
10
10
10
10
10
10
10
10
10
10
10
10
10
10
10
10
10
10
10
10
10
10
10
10
10
10
10
10
10
10
10
10
10
10
10
10
10
10
10
10
10
10
10
10
10
10
10
10
10
10
10
10
10
10
10
10
10
10
10
10
10
10
10
10
10
10
10
10
10
10
10
10
10
10
10
10
10
10
10
10
10
10
10
10
10
10
10
10
10
10
10
10
10
10
10
10
10
10
10
10
10
10
10
10
10
10
10
10
10
10
10
10
10
10
10
10
10
10
10
10
10
10
10
10
10
10
10
10
10
10
10
10
10
10
10
10
10
10
10
10
10
10
10
10
10
10
10
10
10
10
10
10
10
10
10
10
10
10
10
10
10
10
10
10
10
10
10
10
10
10
10
10
10
10
10
10
10
10
10
10
10
10
10
10
10
10
10
10
10
10
10
10
10
10
10
10
10
10
10
10
10
10
10
10
10
10
10
10
10
10
10
10
10
10
10
10
10
10
10
10
10
10
10
10
10
10
10
10
10
10
10
10
10
10
10
10
10
10
10
10
10
10
10
10
10
10
10
10
10
10
10
10
10
10
10
10
10
10
10
10
10
10
10
10
10
10
10
10
10
10
10
10
10
10
10
10
10
10
10
10
10
10
10
10
10
10
10
10
10
10
10
10
10
10
10
10
10
10
10
10
10
10
10
10
10
10
10
10
10
10
10
10
10
10
10
10
10
10
10
10
10
10
10
10
10
10
10
10
10
10
10
10
10
10
10
10
10
10
10
10
10
10
10
10
10
10
10
10
10
10
10
10
10
10
10
10
10
10
10
10
10
10
10
10
10
10
10
10
10
10
10
10
10
10
10
10
10
10
10
10
10
10
10
10
10
10
10
10
10
10
10
10
10
10
10
10
10
10
10
10
10
10
10
10
10
10
10
10
10
10
10
10
10
10
10
10
10
10
10
10
10
10
10
10
10
10
10
10
10
10
10
10
10
10
10
10
10
10
10
10
10
10
10
10
10
10
10
10
10
10
10
10
10
10
10
10
10
10
10
10
10
10
10
10
10
10
10
10
10
10
10
10
10
10
10
10
10
10
10
10
10
10
10
10
10
10
10
10
10
10
10
10
10
10
10
10
10
10
10
10
10
10
10
10
10
10
10
10
10
10
10
10
10
10
10
10
10
10
10
10
10
10
10
10
10
10
10
10
10
10
10
10
10
10
10
10
10
10
10
10
10
10
10
10
10
10
10
10
10
10
10
10
10
10
10
10
10
10
10
10
10
10
10
10
10
10
10
10
10
10
10
10
10
10
10
10
10
10
10
10
10
10
10
10
10
10
10
10
10
10
10
10
10
10
10
10
10
10
10
10
10
10
10
10
10
10
10
10
10
10
10
10
10
10
10
10
10
10
10
10
10
10
10
10
10
10
10
10
10
10
10
10
10
10
10
10
10
10
10
10
10
10
10
10
10
10
10
10
10
10
10
10
10
10
10
10
10
10
10
10
10
10
10
10
10
10
10
10
10
10
10
10
10
10
10
10
10
10
10
10
10
10
10
10
10
10
10
10
10
10
10
10
10
10
10
10
10
10
10
10
10
10
10
10
10
10
10
10
10
10
10
10
10
10
10
10
10
10
10
10
10
10
10
10
10
10
10
10
10
10
10
10
10
10
10
10
10
10
10
10
10
10
10
10
10
10
10
10
10
10
10
10
10
10
10
10
10
10
10
10
10
10
10
10
10
10
10
10
10
10
10
10
10
10
10
10
10
10
10
10
10
10
10
10
10
10
10
10
10
10
10
10
10
10
10
10
10
10
10
10
10
10
10
10
10
10
10
10
10
10
10
10
10
10
10
10
10
10
10
10
10
10
10
10
10
10
10
10
10
10
10
10
10
10
10
10
10
10
10
10
10
10
10
10
10
10
10
10
10
10
10
10
10
10
10
10
10
10
10
10
10
10
10
10
10
10
10
10
10
10
10
10
10
10
10
10
10
10
10
10
10
10
10
10
10
10
10
10
10
10
10
10
10
10
10
10
10
10
10
10
10
10
10
10
10
10
10
10
10
10
10
10
10
10
10
10
10
10
10
10
10
10
10
10
10
10
10
10
10
10
10
10
10
10
10
10
10
10
10
10
10
10
10
10
10
10
10
10
10
10
10
10
10
10
10
10
10
10
10
10
10
10
10
10
10
10
10
10
10
10
10
10
10
10
10
10
10
10
10
10
10
10
10
10
10
10
10
10
10
10
10
10
10
10
10
10
10
10
10
10
10
10
10
10
10
10
10
10
10
10
10
10
10
10
10
10
10
10
10
10
10
10
10
10
10
10
10
10
10
10
10
10
10
10
10
10
10
10
10
10
10
10
10
10
10
10
10
10
10
10
10
10
10
10
10
10
10
10
10
10
10
10
10
10
10
10
10
10
10
10
10
10
10
10
10
10
10
10
10
10
10
10
10
10
10
10
10
10
10
10
10
10
10
10
10
10
10
10
10
10
10
10
10
10
10
10
10
10
10
10
10
10
10
10
10
10
10
10
10
10
10
10
10
10
10
10
10
10
10
10
10
10
10
10
10
10
10
10
10
10
10
10
10
10
10
10
10
10
10
10
10
10
10
10
10
10
10
10
10
10
10
10
10
10
10
10
10
10
10
10
10
10
10
10
10
10
10
10
10
10
10
10
10
10
10
10
10
10
10
10
10
10
10
10
10
10
10
10
10
10
10
10
10
10
10
10
10
10
10
10
10
10
10
10
10
10
10
10
10
10
10
10
10
10
10
10
10
10
10
10
10
10
10
10
10
10
10
10
10
10
10
10
10
10
10
10
10
10
10
10
10
10
10
10
10
10
10
10
10
10
10
10
10
10
10
10
10
10
10
10
10
10
10
10
10
10
10
10
10
10
10
10
10
10
10
10
10
10
10
10
10
10
10
10
10
10
10
10
10
10
10
10
10
10
10
10
10
10
10
10
10
10
10
10
10
10
10
10
10
10
10
10
10
10
10
10
10
10
10
10
10
10
10
10
10
10
10
10
10
10
10
10
10
10
10
10
10
10
10
10
10
10
10
10
10
10
10
10
10
10
10
10
10
10
10
10
10
10
10
10
10
10
10
10
10
10
10
10
10
10
10
10
10
10
10
10
10
10
10
10
10
10
10
10
10
10
10
10
10
10
10
10
10
10
10
10
10
10
10
10
10
10
10
10
10
10
10
10
10
10
10
10
10
10
10
10
10
10
10
10
10
10
10
10
10
10
10
10
10
10
10
10
10
10
10
10
10
10
10
10
10
10
10
10
10
10
10
10
10
10
10
10
10
10
10
10
10
10
10
10
10
10
10
10
10
10
10
10
10
10
10
10
10
10
10
10
10
10
10
10
10
10
10
10
10
10
10
10
10
10
10
10
10
10
10
10
10
10
10
10
10
10
10
10
10
10
10
10
10
10
10
10
10
10
10
10
10
10
10
10
10
10
10
10
10
10
10
10
10
10
10
10
10
10
10
10
10
10
10
10
10
10
10
10
10
10
10
10
10
10
10
10
10
10
10
10
10
10
10
10
10
10
10
10
10
10
10
10
10
10
10
10
10
10
10
10
10
10
10
10
10
10
10
10
10
10
10
10
10
10
10
10
10
10
10
10
10
10
10
10
10
10
10
10
10
10
10
10
10
10
10
10
10
10
10
10
10
10
10
10
10
10
10
10
10
10
10
10
10
10
10
10
10
10
10
10
10
10
10
10
10
10
10
10
10
10
10
10
10
10
10
10
10
10
10
10
10
10
10
10
10
10
10
10
10
10
10
10
10
10
10
10
10
10
10
10
10
10
10
10
10
10
10
10
10
10
10
10
10
10
10
10
10
10
10
10
10
10
10
10
10
10
10
10
10
10
10
10
10
10
10
10
10
10
10
10
10
10
10
10
10
10
10
10
10
10
10
10
10
10
10
10
10
10
10
10
10
10
10
10
10
10
10
10
10
10
10
10
10
10
10
10
10
10
10
10
10
10
10
10
10
10
10
10
10
10
10
10
10
10
10
10
10
10
10
10
10
10
10
10
10
10
10
10
10
10
10
10
10
10
10
10
10
10
10
10
10
10
10
10
10
10
10
10
10
10
10
10
10
10
10
10
10
10
10
10
10
10
10
10
10
10
10
10
10
10
10
10
10
10
10
10
10
10
10
10
10
10
10
10
10
10
10
10
10
10
10
10
10
10
10
10
10
10
10
10
10
10
10
10
10
10
10
10
10
10
10
10
10
10
10
10
10
10
10
10
10
10
10
10
10
10
10
10
10
10
10
10
10
10
10
10
10
10
10
10
10
10
10
10
10
10
10
10
10
10
10
10
10
10
10
10
10
10
10
10
10
10
10
10
10
10
10
10
10
10
10
10
10
10
10
10
10
10
10
10
10
10
10
10
10
10
10
10
10
10
10
10
10
10
10
10
10
10
10
10
10
10
10
10
10
10
10
10
10
10
10
10
10
10
10
10
10
10
10
10
10
10
10
10
10
10
10
10
10
10
10
10
10
10
10
10
10
10
10
10
10
10
10
10
10
10
10
10
10
10
10
10
10
10
10
10
10
10
10
10
10
10
10
10
10
10
10
10
10
10
10
10
10
10
10
10
10
10
10
10
10
10
10
10
10
10
10
10
10
10
10
10
10
10
10
10
10
10
10
10
10
10
10
10
10
10
10
10
10
10
10
10
10
10
10
10
10
10
10
10
10
10
10
10
10
10
10
10
10
10
10
10
10
10
10
10
10
10
10
10
10
10
10
10
10
10
10
10
10
10
10
10
10
10
10
10
10
10
10
10
10
10
10
10
10
10
10
10
10
10
10
10
10
10
10
10
10
10
10
10
10
10
10
10
10
10
10
10
10
10
10
10
10
10
10
10
10
10
10
10
10
10
10
10
10
10
10
10
10
10
10
10
10
10
10
10
10
10
10
10
10
10
10
10
10
10
10
10
10
10
10
10
10
10
10
10
10
10
10
10
10
10
10
10
10
10
10
10
10
10
10
10
10
10
10
10
10
10
10
10
10
10
10
10
10
10
10
10
10
10
10
10
10
10
10
10
10
10
10
10
10
10
10
10
10
10
10
10
10
10
10
10
10
10
10
10
10
10
10
10
10
10
10
10
10
10
10
10
10
10
10
10
10
10
10
10
10
10
10
10
10
10
10
10
10
10
10
10
10
10
10
10
10
10
10
10
10
10
10
10
10
10
10
10
10
10
10
10
10
10
10
10
10
10
10
10
10
10
10
10
10
10
10
10
10
10
10
10
10
10
10
10
10
10
10
10
10
10
10
10
10
10
10
10
10
10
10
10
10
10
10
10
10
10
10
10
10
10
10
10
10
10
10
10
10
10
10
10
10
10
10
10
10
10
10
10
10
10
10
10
10
10
10
10
10
10
10
10
10
10
10
10
10
10
10
10
10
10
10
10
10
10
10
10
10
10
10
10
10
10
10
10
10
10
10
10
10
10
10
10
10
10
10
10
10
10
10
10
10
10
10
10
10
10
10
10
10
10
10
10
10
10
10
10
10
10
10
10
10
10
10
10
10
10
10
10
10
10
10
10
10
10
10
10
10
10
10
10
10
10
10
10
10
10
10
10
10
10
10
10
10
10
10
10
10
10
10
10
10
10
10
10
10
10
10
10
10
10
10
10
10
10
10
10
10
10
10
10
10
10
10
10
10
10
10
10
10
10
10
10
10
10
10
10
10
10
10
10
10
10
10
10
10
10
10
10
10
10
10
10
10
10
10
10
10
10
10
10
10
10
10
10
10
10
10
10
10
10
10
10
10
10
10
10
10
10
10
10
10
10
10
10
10
10
10
10
10
10
10
10
10
10
10
10
10
10
10
10
10
10
10
10
10
10
10
10
10
10
10
10
10
10
10
10
10
10
10
10
10
10
10
10
10
10
10
10
10
10
10
10
10
10
10
10
10
10
10
10
10
10
10
10
10
10
10
10
10
10
10
10
10
10
10
10
10
10
10
10
10
10
10
10
10
10
10
10
10
10
10
10
10
10
10
10
10
10
10
10
10
10
10
10
10
10
10
10
10
10
10
10
10
10
10
10
10
10
10
10
10
10
10
10
10
10
10
10
10
10
10
10
10
10
10
10
10
10
10
10
10
10
10
10
10
10
10
10
10
10
10
10
10
10
10
10
10
10
10
10
10
10
10
10
10
10
10
10
10
10
10
10
10
10
10
10
10
10
10
10
10
10
10
10
10
10
10
10
10
10
10
10
10
10
10
10
10
10
10
10
10
10
10
10
10
10
10
10
10
10
10
10
10
10
10
10
10
10
10
10
10
10
10
10
10
10
10
10
10
10
10
10
10
10
10
10
10
10
10
10
10
10
10
10
10
10
10
10
10
10
10
10
10
10
10
10
10
10
10
10
10
10
10
10
10
10
10
10
10
10
10
10
10
10
10
10
10
10
10
10
10
10
10
10
10
10
10
10
10
10
10
10
10
10
10
10
10
10
10
10
10
10
10
10
10
10
10
10
10
10
10
10
10
10
10
10
10
10
10
10
10
10
10
10
10
10
10
10
10
10
10
10
10
10
10
10
10
10
10
10
10
10
10
10
10
10
10
10
10
10
10
10
10
10
10
10
10
10
10
10
10
10
10
10
10
10
10
10
10
10
10
10
10
10
10
10
10
10
10
10
10
10
10
10
10
10
10
10
10
10
10
10
10
10
10
10
10
10
10
10
10
10
10
10
10
10
10
10
10
10
10
10
10
10
10
10
10
10
10
10
10
10
10
10
10
10
10
10
10
10
10
10
10
10
10
10
10
10
10
10
10
10
10
10
10
10
10
10
10
10
10
10
10
10
10
10
10
10
10
10
10
10
10
10
10
10
10
10
10
10
10
10
10
10
10
10
10
10
10
10
10
10
10
10
10
10
10
10
10
10
10
10
10
10
10
10
10
10
10
10
10
10
10
10
10
10
10
10
10
10
10
10
10
10
10
10
10
10
10
10
10
10
10
10
10
10
10
10
10
10
10
10
10
10
10
10
10
10
10
10
10
10
10
10
10
10
10
10
10
10
10
10
10
10
10
10
10
10
10
10
10
10
10
10
10
10
10
10
10
10
10
10
10
10
10
10
10
10
10
10
10
10
10
10
10
10
10
10
10
10
10
10
10
10
10
10
10
10
10
10
10
10
10
10
10
10
10
10
10
10
10
10
10
10
10
10
10
10
10
10
10
10
10
10
10
10
10
10
10
10
10
10
10
10
10
10
10
10
10
10
10
10
10
10
10
10
10
10
10
10
10
10
10
10
10
10
10
10
10
10
10
10
10
10
10
10
10
10
10
10
10
10
10
10
10
10
10
10
10
10
10
10
10
10
10
10
10
10
10
10
10
10
10
10
10
10
10
10
10
10
10
10
10
10
10
10
10
10
10
10
10
10
10
10
10
10
10
10
10
10
10
10
10
10
10
10
10
10
10
10
10
10
10
10
10
10
10
10
10
10
10
10
10
10
10
10
10
10
10
10
10
10
10
10
10
10
10
10
10
10
10
10
10
10
10
10
10
10
10
10
10
10
10
10
10
10
10
10
10
10
10
10
10
10
10
10
10
10
10
10
10
10
10
10
10
10
10
10
10
10
10
10
10
10
10
10
10
10
10
10
10
10
10
10
10
10
10
10
10
10
10
10
10
10
10
10
10
10
10
10
10
10
10
10
10
10
10
10
10
10
10
10
10
10
10
10
10
10
10
10
10
10
10
10
10
10
10
10
10
10
10
10
10
10
10
10
10
10
10
10
10
10
10
10
10
10
10
10
10
10
10
10
10
10
10
10
10
10
10
10
10
10
10
10
10
10
10
10
10
10
10
10
10
10
10
10
10
10
10
10
10
10
10
10
10
10
10
10
10
10
10
10
10
10
10
10
10
10
10
10
10
10
10
10
10
10
10
10
10
10
10
10
10
10
10
10
10
10
10
10
10
10
10
10
10
10
10
10
10
10
10
10
10
10
10
10
10
10
10
10
10
10
10
10
10
10
10
10
10
10
10
10
10
10
10
10
10
10
10
10
10
10
10
10
10
10
10
10
10
10
10
10
10
10
10
10
10
10
10
10
10
10
10
10
10
10
10
10
10
10
10
10
10
10
10
10
10
10
10
10
10
10
10
10
10
10
10
10
10
10
10
10
10
10
10
10
10
10
10
10
10
10
10
10
10
10
10
10
10
10
10
10
10
10
10
10
10
10
10
10
10
10
10
10
10
10
10
10
10
10
10
10
10
10
10
10
10
10
10
10
10
10
10
10
10
10
10
10
10
10
10
10
10
10
10
10
10
10
10
10
10
10
10
10
10
10
10
10
10
10
10
10
10
10
10
10
10
10
10
10
10
10
10
10
10
10
10
10
10
10
10
10
10
10
10
10
10
10
10
10
10
10
10
10
10
10
10
10
10
10
10
10
10
10
10
10
10
10
10
10
10
10
10
10
10
10
10
10
10
10
10
10
10
10
10
10
10
10
10
10
10
10
10
10
10
10
10
10
10
10
10
10
10
10
10
10
10
10
10
10
10
10
10
10
10
10
10
10
10
10
10
10
10
10
10
10
10
10
10
10
10
10
10
10
10
10
10
10
10
10
10
10
10
10
10
10
10
10
10
10
10
10
10
10
10
10
10
10
10
10
10
10
10
10
10
10
10
10
10
10
10
10
10
10
10
10
10
10
10
10
10
10
10
10
10
10
10
10
10
10
10
10
10
10
10
10
10
10
10
10
10
10
10
10
10
10
10
10
10
10
10
10
10
10
10
10
10
10
10
10
10
10
10
10
10
10
10
10
10
10
10
10
10
10
10
10
10
10
10
10
10
10
10
10
10
10
10
10
10
10
10
10
10
10
10
10
10
10
10
10
10
10
10
10
10
10
10
10
10
10
10
10
10
10
10
10
10
10
10
10
10
10
10
10
10
10
10
10
10
10
10
10
10
10
10
10
10
10
10
10
10
10
10
10
10
10
10
10
10
10
10
10
10
10
10
10
10
10
10
10
10
10
10
10
10
10
10
10
10
10
10
10
10
10
10
10
10
10
10
10
10
10
10
10
10
10
10
10
10
10
10
10
10
10
10
10
10
10
10
10
10
10
10
10
10
10
10
10
10
10
10
10
10
10
10
10
10
10
10
10
10
10
10
10
10
10
10
10
10
10
10
10
10
10
10
10
10
10
10
10
10
10
10
10
10
10
10
10
10
10
10
10
10
10
10
10
10
10
10
10
10
10
10
10
10
10
10
10
10
10
10
10
10
10
10
10
10
10
10
10
10
10
10
10
10
10
10
10
10
10
10
10
10
10
10
10
10
10
10
10
10
10
10
10
10
10
10
10
10
10
10
10
10
10
10
10
10
10
10
10
10
10
10
10
10
10
10
10
10
10
10
10
10
10
10
10
10
10
10
10
10
10
10
10
10
10
10
10
10
10
10
10
10
10
10
10
10
10
10
10
10
10
10
10
10
10
10
10
10
10
10
10
10
10
10
10
10
10
10
10
10
10
10
10
10
10
10
10
10
10
10
10
10
10
10
10
10
10
10
10
10
10
10
10
10
10
10
10
10
10
10
10
10
10
10
10
10
10
10
10
10
10
10
10
10
10
10
10
10
10
10
10
10
10
10
10
10
10
10
10
10
10
10
10
10
10
10
10
10
10
10
10
10
10
10
10
10
10
10
10
10
10
10
10
10
10
10
10
10
10
10
10
10
10
10
10
10
10
10
10
10
10
10
10
10
10
10
10
10
10
10
10
10
10
10
10
10
10
10
10
10
10
10
10
10
10
10
10
10
10
10
10
10
10
10
10
10
10
10
10
10
10
10
10
10
10
10
10
10
10
10
10
10
10
10
10
10
10
10
10
10
10
10
10
10
10
10
10
10
10
10
10
10
10
10
10
10
10
10
10
10
10
10
10
10
10
10
10
10
10
10
10
10
10
10
10
10
10
10
10
10
10
10
10
10
10
10
10
10
10
10
10
10
10
10
10
10
10
10
10
10
10
10
10
10
10
10
10
10
10
10
10
10
10
10
10
10
10
10
10
10
10
10
10
10
10
10
10
10
10
10
10
10
10
10
10
10
10
10
10
10
10
10
10
10
10
10
10
10
10
10
10
10
10
10
10
10
10
10
10
10
10
10
10
10
10
10
10
10
10
10
10
10
10
10
10
10
10
10
10
10
10
10
10
10
10
10
10
10
10
10
10
10
10
10
10
10
10
10
10
10
10
10
10
10
10
10
10
10
10
10
10
10
10
10
10
10
10
10
10
10
10
10
10
10
10
10
10
10
10
10
10
10
10
10
10
10
10
10
10
10
10
10
10
10
10
10
10
10
10
10
10
10
10
10
10
10
10
10
10
10
10
10
10
10
10
10
10
10
10
10
10
10
10
10
10
10
10
10
10
10
10
10
10
10
10
10
10
10
10
10
10
10
10
10
10
10
10
10
10
10
10
10
10
10
10
10
10
10
10
10
10
10
10
10
10
10
10
10
10
10
10
10
10
10
10
10
10
10
10
10
10
10
10
10
10
10
10
10
10
10
10
10
10
10
10
10
10
10
10
10
10
10
10
10
10
10
10
10
10
10
10
10
10
10
10
10
10
10
10
10
10
10
10
10
10
10
10
10
10
10
10
10
10
10
10
10
10
10
10
10
10
10
10
10
10
10
10
10
10
10
10
10
10
10
10
10
10
10
10
10
10
10
10
10
10
10
10
10
10
10
10
10
10
10
10
10
10
10
10
10
10
10
10
10
10
10
10
10
10
10
10
10
10
10
10
10
10
10
10
10
10
10
10
10
10
10
10
10
10
10
10
10
10
10
10
10
10
10
10
10
10
10
10
10
10
10
10
10
10
10
10
10
10
10
10
10
10
10
10
10
10
10
10
10
10
10
10
10
10
10
10
10
10
10
10
10
10
10
10
10
10
10
10
10
10
10
10
10
10
10
10
10
10
10
10
10
10
10
10
10
10
10
10
10
10
10
10
10
10
10
10
10
10
10
10
10
10
10
10
10
10
10
10
10
10
10
10
10
10
10
10
10
10
10
10
10
10
10
10
10
10
10
10
10
10
10
10
10
10
10
10
10
10
10
10
10
10
10
10
10
10
10
10
10
10
10
10
10
10
10
10
10
10
10
10
10
10
10
10
10
10
10
10
10
10
10
10
10
10
10
10
10
10
10
10
10
10
10
10
10
10
10
10
10
10
10
10
10
10
10
10
10
10
10
10
10
10
10
10
10
10
10
10
10
10
10
10
10
10
10
10
10
10
10
10
10
10
10
10
10
10
10
10
10
10
10
10
10
10
10
10
10
10
10
10
10
10
10
10
10
10
10
10
10
10
10
10
10
10
10
10
10
10
10
10
10
10
10
10
10
10
10
10
10
10
10
10
10
10
10
10
10
10
10
10
10
10
10
10
10
10
10
10
10
10
10
10
10
10
10
10
10
10
10
10
10
10
10
10
10
10
10
10
10
10
10
10
10
10
10
10
10
10
10
10
10
10
10
10
10
10
10
10
10
10
10
10
10
10
10
10
10
10
10
10
10
10
10
10
10
10
10
10
10
10
10
10
10
10
10
10
10
10
10
10
10
10
10
10
10
10
10
10
10
10
10
10
10
10
10
10
10
10
10
10
10
10
10
10
10
10
10
10
10
10
10
10
10
10
10
10
10
10
10
10
10
10
10
10
10
10
10
10
10
10
10
10
10
10
10
10
10
10
10
10
10
10
10
10
10
10
10
10
10
10
10
10
10
10
10
10
10
10
10
10
10
10
10
10
10
10
10
10
10
10
10
10
10
10
10
10
10
10
10
10
10
10
10
10
10
10
10
10
10
10
10
10
10
10
10
10
10
10
10
10
10
10
10
10
10
10
10
10
10
10
10
10
10
10
10
10
10
10
10
10
10
10
10
10
10
10
10
10
10
10
10
10
10
10
10
10
10
10
10
10
10
10
10
10
10
10
10
10
10
10
10
10
10
10
10
10
10
10
10
10
10
10
10
10
10
10
10
10
10
10
10
10
10
10
10
10
10
10
10
10
10
10
10
10
10
10
10
10
10
10
10
10
10
10
10
10
10
10
10
10
10
10
10
10
10
10
10
10
10
10
10
10
10
10
10
10
10
10
10
10
10
10
10
10
10
10
10
10
10
10
10
10
10
10
10
10
10
10
10
10
10
10
10
10
10
10
10
10
10
10
10
10
10
10
10
10
10
10
10
10
10
10
10
10
10
10
10
10
10
10
10
10
10
10
10
10
10
10
10
10
10
10
10
10
10
10
10
10
10
10
10
10
10
10
10
10
10
10
10
10
10
10
10
10
10
10
10
10
10
10
10
10
10
10
10
10
10
10
10
10
10
10
10
10
10
10
10
10
10
10
10
10
10
10
10
10
10
10
10
10
10
10
10
10
10
10
10
10
10
10
10
10
10
10
10
10
10
10
10
10
10
10
10
10
10
10
10
10
10
10
10
10
10
10
10
10
10
10
10
10
10
10
10
10
10
10
10
10
10
10
10
10
10
10
10
10
10
10
10
10
10
10
10
10
10
10
10
10
10
10
10
10
10
10
10
10
10
10
10
10
10
10
10
10
10
10
10
10
10
10
10
10
10
10
10
10
10
10
10
10
10
10
10
10
10
10
10
10
10
10
10
10
10
10
10
10
10
10
10
10
10
10
10
10
10
10
10
10
10
10
10
10
10
10
10
10
10
10
10
10
10
10
10
10
10
10
10
10
10
10
10
10
10
10
10
10
10
10
10
10
10
10
10
10
10
10
10
10
10
10
10
10
10
10
10
10
10
10
10
10
10
10
10
10
10
10
10
10
10
10
10
10
10
10
10
10
10
10
10
10
10
10
10
10
10
10
10
10
10
10
10
10
10
10
10
10
10
10
10
10
10
10
10
10
10
10
10
10
10
10
10
10
10
10
10
10
10
10
10
10
10
10
10
10
10
10
10
10
10
10
10
10
10
10
10
10
10
10
10
10
10
10
10
10
10
10
10
10
10
10
10
10
10
10
10
10
10
10
10
10
10
10
10
10
10
10
10
10
10
10
10
10
10
10
10
10
10
10
10
10
10
10
10
10
10
10
10
10
10
10
10
10
10
10
10
10
10
10
10
10
10
10
10
10
10
10
10
10
10
10
10
10
10
10
10
10
10
10
10
10
10
10
10
10
10
10
10
10
10
10
10
10
10
10
10
10
10
10
10
10
10
10
10
10
10
10
10
10
10
10
10
10
10
10
10
10
10
10
10
10
10
10
10
10
10
10
10
10
10
10
10
10
10
10
10
10
10
10
10
10
10
10
10
10
10
10
10
10
10
10
10
10
10
10
10
10
10
10
10
10
10
10
10
10
10
10
10
10
10
10
10
10
10
10
10
10
10
10
10
10
10
10
10
10
10
10
10
10
10
10
10
10
10
10
10
10
10
10
10
10
10
10
10
10
10
10
10
10
10
10
10
10
10
10
10
10
10
10
10
10
10
10
10
10
10
10
10
10
10
10
10
10
10
10
10
10
10
10
10
10
10
10
10
10
10
10
10
10
10
10
10
10
10
10
10
10
10
10
10
10
10
10
10
10
10
10
10
10
10
10
10
10
10
10
10
10
10
10
10
10
10
10
10
10
10
10
10
10
10
10
10
10
10
10
10
10
10
10
10
10
10
10
10
10
10
10
10
10
10
10
10
10
10
10
10
10
10
10
10
10
10
10
10
10
10
10
10
10
10
10
10
10
10
10
10
10
10
10
10
10
10
10
10
10
10
10
10
10
10
10
10
10
10
10
10
10
10
10
10
10
10
10
10
10
10
10
10
10
10
10
10
10
10
10
10
10
10
10
10
10
10
10
10
10
10
10
10
10
10
10
10
10
10
10
10
10
10
10
10
10
10
10
10
10
10
10
10
10
10
10
10
10
10
10
10
10
10
10
10
10
10
10
10
10
10
10
10
10
10
10
10
10
10
10
10
10
10
10
10
10
10
10
10
10
10
10
10
10
10
10
10
10
10
10
10
10
10
10
10
10
10
10
10
10
10
10
10
10
10
10
10
10
10
10
10
10
10
10
10
10
10
10
10
10
10
10
10
10
10
10
10
10
10
10
10
10
10
10
10
10
10
10
10
10
10
10
10
10
10
10
10
10
10
10
10
10
10
10
10
10
10
10
10
10
10
10
10
10
10
10
10
10
10
10
10
10
10
10
10
10
10
10
10
10
10
10
10
10
10
10
10
10
10
10
10
10
10
10
10
10
10
10
10
10
10
10
10
10
10
10
10
10
10
10
10
10
10
10
10
10
10
10
10
10
10
10
10
10
10
10
10
10
10
10
10
10
10
10
10
10
10
10
10
10
10
10
10
10
10
10
10
10
10
10
10
10
10
10
10
10
10
10
10
10
10
10
10
10
10
10
10
10
10
10
10
10
10
10
10
10
10
10
10
10
10
10
10
10
10
10
10
10
10
10
10
10
10
10
10
10
10
10
10
10
10
10
10
10
10
10
10
10
10
10
10
10
10
10
10
10
10
10
10
10
10
10
10
10
10
10
10
10
10
10
10
10
10
10
10
10
10
10
10
10
10
10
10
10
10
10
10
10
10
10
10
10
10
10
10
10
10
10
10
10
10
10
10
10
10
10
10
10
10
10
10
10
10
10
10
10
10
10
10
10
10
10
10
10
10
10
10
10
10
10
10
10
10
10
10
10
10
10
10
10
10
10
10
10
10
10
10
10
10
10
10
10
10
10
10
10
10
10
10
10
10
10
10
10
10
10
10
10
10
10
10
10
10
10
10
10
10
10
10
10
10
10
10
10
10
10
10
10
10
10
10
10
10
10
10
10
10
10
10
10
10
10
10
10
10
10
10
10
10
10
10
10
10
10
10
10
10
10
10
10
10
10
10
10
10
10
10
10
10
10
10
10
10
10
10
10
10
10
10
10
10
10
10
10
10
10
10
10
10
10
10
10
10
10
10
10
10
10
10
10
10
10
10
10
10
10
10
10
10
10
10
10
10
10
10
10
10
10
10
10
10
10
10
10
10
10
10
10
10
10
10
10
10
10
10
10
10
10
10
10
10
10
10
10
10
10
10
10
10
10
10
10
10
10
10
10
10
10
10
10
10
10
10
10
10
10
10
10
10
10
10
10
10
10
10
10
10
10
10
10
10
10
10
10
10
10
10
10
10
10
10
10
10
10
10
10
10
10
10
10
10
10
10
10
10
10
10
10
10
10
10
10
10
10
10
10
10
10
10
10
10
10
10
10
10
10
10
10
10
10
10
10
10
10
10
10
10
10
10
10
10
10
10
10
10
10
10
10
10
10
10
10
10
10
10
10
10
10
10
10
10
10
10
10
10
10
10
10
10
10
10
10
10
10
10
10
10
10
10
10
10
10
10
10
10
10
10
10
10
10
10
10
10
10
10
10
10
10
10
10
10
10
10
10
10
10
10
10
10
10
10
10
10
10
10
10
10
10
10
10
10
10
10
10
10
10
10
10
10
10
10
10
10
10
10
10
10
10
10
10
10
10
10
10
10
10
10
10
10
10
10
10
10
10
10
10
10
10
10
10
10
10
10
10
10
10
10
10
10
10
10
10
10
10
10
10
10
10
10
10
10
10
10
10
10
10
10
10
10
10
10
10
10
10
10
10
10
10
10
10
10
10
10
10
10
10
10
10
10
10
10
10
10
10
10
10
10
10
10
10
10
10
10
10
10
10
10
10
10
10
10
10
10
10
10
10
10
10
10
10
10
10
10
10
10
10
10
10
10
10
10
10
10
10
10
10
10
10
10
10
10
10
10
10
10
10
10
10
10
10
10
10
10
10
10
10
10
10
10
10
10
10
10
10
10
10
10
10
10
10
10
10
10
10
10
10
10
10
10
10
10
10
10
10
10
10
10
10
10
10
10
10
10
10
10
10
10
10
10
10
10
10
10
10
10
10
10
10
10
10
10
10
10
10
10
10
10
10
10
10
10
10
10
10
10
10
10
10
10
10
10
10
10
10
10
10
10
10
10
10
10
10
10
10
10
10
10
10
10
10
10
10
10
10
10
10
10
10
10
10
10
10
10
10
10
10
10
10
10
10
10
10
10
10
10
10
10
10
10
10
10
10
10
10
10
10
10
10
10
10
10
10
10
10
10
10
10
10
10
10
10
10
10
10
10
10
10
10
10
10
10
10
10
10
10
10
10
10
10
10
10
10
10
10
10
10
10
10
10
10
10
10
10
10
10
10
10
10
10
10
10
10
10
10
10
10
10
10
10
10
10
10
10
10
10
10
10
10
10
10
10
10
10
10
10
10
10
10
10
10
10
10
10
10
10
10
10
10
10
10
10
10
10
10
10
10
10
10
10
10
10
10
10
10
10
10
10
10
10
10
10
10
10
10
10
10
10
10
10
10
10
10
10
10
10
10
10
10
10
10
10
10
10
10
10
10
10
10
10
10
10
10
10
10
10
10
10
10
10
10
10
10
10
10
10
10
10
10
10
10
10
10
10
10
10
10
10
10
10
10
10
10
10
10
10
10
10
10
10
10
10
10
10
10
10
10
10
10
10
10
10
10
10
10
10
10
10
10
10
10
10
10
10
10
10
10
10
10
10
10
10
10
10
10
10
10
10
10
10
10
10
10
10
10
10
10
10
10
10
10
10
10
10
10
10
10
10
10
10
10
10
10
10
10
10
10
10
10
10
10
10
10
10
10
10
10
10
10
10
10
10
10
10
10
10
10
10
10
10
10
10
10
10
10
10
10
10
10
10
10
10
10
10
10
10
10
10
10
10
10
10
10
10
10
10
10
10
10
10
10
10
10
10
10
10
10
10
10
10
10
10
10
10
10
10
10
10
10
10
10
10
10
10
10
10
10
10
10
10
10
10
10
10
10
10
10
10
10
10
10
10
10
10
10
10
10
10
10
10
10
10
10
10
10
10
10
10
10
10
10
10
10
10
10
10
10
10
10
10
10
10
10
10
10
10
10
10
10
10
10
10
10
10
10
10
10
10
10
10
10
10
10
10
10
10
10
10
10
10
10
10
10
10
10
10
10
10
10
10
10
10
10
10
10
10
10
10
10
10
10
10
10
10
10
10
10
10
10
10
10
10
10
10
10
10
10
10
10
10
10
10
10
10
10
10
10
10
10
10
10
10
10
10
10
10
10
10
10
10
10
10
10
10
10
10
10
10
10
10
10
10
10
10
10
10
10
10
10
10
10
10
10
10
10
10
10
10
10
10
10
10
10
10
10
10
10
10
10
10
10
10
10
10
10
10
10
10
10
10
10
10
10
10
10
10
10
10
10
10
10
10
10
10
10
10
10
10
10
10
10
10
10
10
10
10
10
10
10
10
10
10
10
10
10
10
10
10
10
10
10
10
10
10
10
10
10
10
10
10
10
10
10
10
10
10
10
10
10
10
10
10
10
10
10
10
10
10
10
10
10
10
10
10
10
10
10
10
10
10
10
10
10
10
10
10
10
10
10
10
10
10
10
10
10
10
10
10
10
10
10
10
10
10
10
10
10
10
10
10
10
10
10
10
10
10
10
10
10
10
10
10
10
10
10
10
10
10
10
10
10
10
10
10
10
10
10
10
10
10
10
10
10
10
10
10
10
10
10
10
10
10
10
10
10
10
10
10
10
10
10
10
10
10
10
10
10
10
10
10
10
10
10
10
10
10
10
10
10
10
10
10
10
10
10
10
10
10
10
10
10
10
10
10
10
10
10
10
10
10
10
10
10
10
10
10
10
10
10
10
10
10
10
10
10
10
10
10
10
10
10
10
10
10
10
10
10
10
10
10
10
10
10
10
10
10
10
10
10
10
10
10
10
10
10
10
10
10
10
10
10
10
10
10
10
10
10
10
10
10
10
10
10
10
10
10
10
10
10
10
10
10
10
10
10
10
10
10
10
10
10
10
10
10
10
10
10
10
10
10
10
10
10
10
10
10
10
10
10
10
10
10
10
10
10
10
10
10
10
10
10
10
10
10
10
10
10
10
10
10
10
10
10
10
10
10
10
10
10
10
10
10
10
10
10
10
10
10
10
10
10
10
10
10
10
10
10
10
10
10
10
10
10
10
10
10
10
10
10
10
10
10
10
10
10
10
10
10
10
10
10
10
10
10
10
10
10
10
10
10
10
10
10
10
10
10
10
10
10
10
10
10
10
10
10
10
10
10
10
10
10
10
10
10
10
10
10
10
10
10
10
10
10
10
10
10
10
10
10
10
10
10
10
10
10
10
10
10
10
10
10
10
10
10
10
10
10
10
10
10
10
10
10
10
10
10
10
10
10
10
10
10
10
10
10
10
10
10
10
10
10
10
10
10
10
10
10
10
10
10
10
10
10
10
10
10
10
10
10
10
10
10
10
10
10
10
10
10
10
10
10
10
10
10
10
10
10
10
10
10
10
10
10
10
10
10
10
10
10
10
10
10
10
10
10
10
10
10
10
10
10
10
10
10
10
10
10
10
10
10
10
10
10
10
10
10
10
10
10
10
10
10
10
10
10
10
10
10
10
10
10
10
10
10
10
10
10
10
10
10
10
10
10
10
10
10
10
10
10
10
10
10
10
10
10
10
10
10
10
10
10
10
10
10
10
10
10
10
10
10
10
10
10
10
10
10
10
10
10
10
10
10
10
10
10
10
10
10
10
10
10
10
10
10
10
10
10
10
10
10
10
10
10
10
10
10
10
10
10
10
10
10
10
10
10
10
10
10
10
10
10
10
10
10
10
10
10
10
10
10
10
10
10
10
10
10
10
10
10
10
10
10
10
10
10
10
10
10
10
10
10
10
10
10
10
10
10
10
10
10
10
10
10
10
10
10
10
10
10
10
10
10
10
10
10
10
10
10
10
10
10
10
10
10
10
10
10
10
10
10
10
10
10
10
10
10
10
10
10
10
10
10
10
10
10
10
10
10
10
10
10
10
10
10
10
10
10
10
10
10
10
10
10
10
10
10
10
10
10
10
10
10
10
10
10
10
10
10
10
10
10
10
10
10
10
10
10
10
10
10
10
10
10
10
10
10
10
10
10
10
10
10
10
10
10
10
10
10
10
10
10
10
10
10
10
10
10
10
10
10
10
10
10
10
10
10
10
10
10
10
10
10
10
10
10
10
10
10
10
10
10
10
10
10
10
10
10
10
10
10
10
10
10
10
10
10
10
10
10
10
10
10
10
10
10
10
10
10
10
10
10
10
10
10
10
10
10
10
10
10
10
10
10
10
10
10
10
10
10
10
10
10
10
10
10
10
10
10
10
10
10
10
10
10
10
10
10
10
10
10
10
10
10
10
10
10
10
10
10
10
10
10
10
10
10
10
10
10
10
10
10
10
10
10
10
10
10
10
10
10
10
10
10
10
10
10
10
10
10
10
10
10
10
10
10
10
10
10
10
10
10
10
10
10
10
10
10
10
10
10
10
10
10
10
10
10
10
10
10
10
10
10
10
10
10
10
10
10
10
10
10
10
10
10
10
10
10
10
10
10
10
10
10
10
10
10
10
10
10
10
10
10
10
10
10
10
10
10
10
10
10
10
10
10
10
10
10
10
10
10
10
10
10
10
10
10
10
10
10
10
10
10
10
10
10
10
10
10
10
10
10
10
10
10
10
10
10
10
10
10
10
10
10
10
10
10
10
10
10
10
10
10
10
10
10
10
10
10
10
10
10
10
10
10
10
10
10
10
10
10
10
10
10
10
10
10
10
10
10
10
10
10
10
10
10
10
10
10
10
10
10
10
10
10
10
10
10
10
10
10
10
10
10
10
10
10
10
10
10
10
10
10
10
10
10
10
10
10
10
10
10
10
10
10
10
10
10
10
10
10
10
10
10
10
10
10
10
10
10
10
10
10
10
10
10
10
10
10
10
10
10
10
10
10
10
10
10
10
10
10
10
10
10
10
10
10
10
10
10
10
10
10
10
10
10
10
10
10
10
10
10
10
10
10
10
10
10
10
10
10
10
10
10
10
10
10
10
10
10
10
10
10
10
10
10
10
10
10
10
10
10
10
10
10
10
10
10
10
10
10
10
10
10
10
10
10
10
10
10
10
10
10
10
10
10
10
10
10
10
10
10
10
10
10
10
10
10
10
10
10
10
10
10
10
10
10
10
10
10
10
10
10
10
10
10
10
10
10
10
10
10
10
10
10
10
10
10
10
10
10
10
10
10
10
10
10
10
10
10
10
10
10
10
10
10
10
10
10
10
10
10
10
10
10
10
10
10
10
10
10
10
10
10
10
10
10
10
10
10
10
10
10
10
10
10
10
10
10
10
10
10
10
10
10
10
10
10
10
10
10
10
10
10
10
10
10
10
10
10
10
10
10
10
10
10
10
10
10
10
10
10
10
10
10
10
10
10
10
10
10
10
10
10
10
10
10
10
10
10
10
10
10
10
10
10
10
10
10
10
10
10
10
10
10
10
10
10
10
10
10
10
10
10
10
10
10
10
10
10
10
10
10
10
10
10
10
10
10
10
10
10
10
10
10
10
10
10
10
10
10
10
10
10
10
10
10
10
10
10
10
10
10
10
10
10
10
10
10
10
10
10
10
10
10
10
10
10
10
10
10
10
10
10
10
10
10
10
10
10
10
10
10
10
10
10
10
10
10
10
10
10
10
10
10
10
10
10
10
10
10
10
10
10
10
10
10
10
10
10
10
10
10
10
10
10
10
10
10
10
10
10
10
10
10
10
10
10
10
10
10
10
10
10
10
10
10
10
10
10
10
10
10
10
10
10
10
10
10
10
10
10
10
10
10
10
10
10
10
10
10
10
10
10
10
10
10
10
10
10
10
10
10
10
10
10
10
10
10
10
10
10
10
10
10
10
10
10
10
10
10
10
10
10
10
10
10
10
10
10
10
10
10
10
10
10
10
10
10
10
10
10
10
10
10
10
10
10
10
10
10
10
10
10
10
10
10
10
10
10
10
10
10
10
10
10
10
10
10
10
10
10
10
10
10
10
10
10
10
10
10
10
10
10
10
10
10
10
10
10
10
10
10
10
10
10
10
10
10
10
10
10
10
10
10
10
10
10
10
10
10
10
10
10
10
10
10
10
10
10
10
10
10
10
10
10
10
10
10
10
10
10
10
10
10
10
10
10
10
10
10
10
10
10
10
10
10
10
10
10
10
10
10
10
10
10
10
10
10
10
10
10
10
10
10
10
10
10
10
10
10
10
10
10
10
10
10
10
10
10
10
10
10
10
10
10
10
10
10
10
10
10
10
10
10
10
10
10
10
10
10
10
10
10
10
10
10
10
10
10
10
10
10
10
10
10
10
10
10
10
10
10
10
10
10
10
10
10
10
10
10
10
10
10
10
10
10
10
10
10
10
10
10
10
10
10
10
10
10
10
10
10
10
10
10
10
10
10
10
10
10
10
10
10
10
10
10
10
10
10
10
10
10
10
10
10
10
10
10
10
10
10
10
10
10
10
10
10
10
10
10
10
10
10
10
10
10
10
10
10
10
10
10
10
10
10
10
10
10
10
10
10
10
10
10
10
10
10
10
10
10
10
10
10
10
10
10
10
10
10
10
10
10
10
10
10
10
10
10
10
10
10
10
10
10
10
10
10
10
10
10
10
10
10
10
10
10
10
10
10
10
10
10
10
10
10
10
10
10
10
10
10
10
10
10
10
10
10
10
10
10
10
10
10
10
10
10
10
10
10
10
10
10
10
10
10
10
10
10
10
10
10
10
10
10
10
10
10
10
10
10
10
10
10
10
10
10
10
10
10
10
10
10
10
10
10
10
10
10
10
10
10
10
10
10
10
10
10
10
10
10
10
10
10
10
10
10
10
10
10
10
10
10
10
10
10
10
10
10
10
10
10
10
10
10
10
10
10
10
10
10
10
10
10
10
10
10
10
10
10
10
10
10
10
10
10
10
10
10
10
10
10
10
10
10
10
10
10
10
10
10
10
10
10
10
10
10
10
10
10
10
10
10
10
10
10
10
10
10
10
10
10
10
10
10
10
10
10
10
10
10
10
10
10
10
10
10
10
10
10
10
10
10
10
10
10
10
10
10
10
10
10
10
10
10
10
10
10
10
10
10
10
10
10
10
10
10
10
10
10
10
10
10
10
10
10
10
10
10
10
10
10
10
10
10
10
10
10
10
10
10
10
10
10
10
10
10
10
10
10
10
10
10
10
10
10
10
10
10
10
10
10
10
10
10
10
10
10
10
10
10
10
10
10
10
10
10
10
10
10
10
10
10
10
10
10
10
10
10
10
10
10
10
10
10
10
10
10
10
10
10
10
10
10
10
10
10
10
10
10
10
10
10
10
10
10
10
10
10
10
10
10
10
10
10
10
10
10
10
10
10
10
10
10
10
10
10
10
10
10
10
10
10
10
10
10
10
10
10
10
10
10
10
10
10
10
10
10
10
10
10
10
10
10
10
10
10
10
10
10
10
10
10
10
10
10
10
10
10
10
10
10
10
10
10
10
10
10
10
10
10
10
10
10
10
10
10
10
10
10
10
10
10
10
10
10
10
10
10
10
10
10
10
10
10
10
10
10
10
10
10
10
10
10
10
10
10
10
10
10
10
10
10
10
10
10
10
10
10
10
10
10
10
10
10
10
10
10
10
10
10
10
10
10
10
10
10
10
10
10
10
10
10
10
10
10
10
10
10
10
10
10
10
10
10
10
10
10
10
10
10
10
10
10
10
10
10
10
10
10
10
10
10
10
10
10
10
10
10
10
10
10
10
10
10
10
10
10
10
10
10
10
10
10
10
10
10
10
10
10
10
10
10
10
10
10
10
10
10
10
10
10
10
10
10
10
10
10
10
10
10
10
10
10
10
10
10
10
10
10
10
10
10
10
10
10
10
10
10
10
10
10
10
10
10
10
10
10
10
10
10
10
10
10
10
10
10
10
10
10
10
10
10
10
10
10
10
10
10
10
10
10
10
10
10
10
10
10
10
10
10
10
10
10
10
10
10
10
10
10
10
10
10
10
10
10
10
10
10
10
10
10
10
10
10
10
10
10
10
10
10
10
10
10
10
10
10
10
10
10
10
10
10
10
10
10
10
10
10
10
10
10
10
10
10
10
10
10
10
10
10
10
10
10
10
10
10
10
10
10
10
10
10
10
10
10
10
10
10
10
10
10
10
10
10
10
10
10
10
10
10
10
10
10
10
10
10
10
10
10
10
10
10
10
10
10
10
10
10
10
10
10
10
10
10
10
10
10
10
10
10
10
10
10
10
10
10
10
10
10
10
10
10
10
10
10
10
10
10
10
10
10
10
10
10
10
10
10
10
10
10
10
10
10
10
10
10
10
10
10
10
10
10
10
10
10
10
10
10
10
10
10
10
10
10
10
10
10
10
10
10
10
10
10
10
10
10
10
10
10
10
10
10
10
10
10
10
10
10
10
10
10
10
10
10
10
10
10
10
10
10
10
10
10
10
10
10
10
10
10
10
10
10
10
10
10
10
10
10
10
10
10
10
10
10
10
10
10
10
10
10
10
10
10
10
10
10
10
10
10
10
10
10
10
10
10
10
10
10
10
10
10
10
10
10
10
10
10
10
10
10
10
10
10
10
10
10
10
10
10
10
10
10
10
10
10
10
10
10
10
10
10
10
10
10
10
10
10
10
10
10
10
10
10
10
10
10
10
10
10
10
10
10
10
10
10
10
10
10
10
10
10
10
10
10
10
10
10
10
10
10
10
10
10
10
10
10
10
10
10
10
10
10
10
10
10
10
10
10
10
10
10
10
10
10
10
10
10
10
10
10
10
10
10
10
10
10
10
10
10
10
10
10
10
10
10
10
10
10
10
10
10
10
10
10
10
10
10
10
10
10
10
10
10
10
10
10
10
10
10
10
10
10
10
10
10
10
10
10
10
10
10
10
10
10
10
10
10
10
10
10
10
10
10
10
10
10
10
10
10
10
10
10
10
10
10
10
10
10
10
10
10
10
10
10
10
10
10
10
10
10
10
10
10
10
10
10
10
10
10
10
10
10
10
10
10
10
10
10
10
10
10
10
10
10
10
10
10
10
10
10
10
10
10
10
10
10
10
10
10
10
10
10
10
10
10
10
10
10
10
10
10
10
10
10
10
10
10
10
10
10
10
10
10
10
10
10
10
10
10
10
10
10
10
10
10
10
10
10
10
10
10
10
10
10
10
10
10
10
10
10
10
10
10
10
10
10
10
10
10
10
10
10
10
10
10
10
10
10
10
10
10
10
10
10
10
10
10
10
10
10
10
10
10
10
10
10
10
10
10
10
10
10
10
10
10
10
10
10
10
10
10
10
10
10
10
10
10
10
10
10
10
10
10
10
10
10
10
10
10
10
10
10
10
10
10
10
10
10
10
10
10
10
10
10
10
10
10
10
10
10
10
10
10
10
10
10
10
10
10
10
10
10
10
10
10
10
10
10
10
10
10
10
10
10
10
10
10
10
10
10
10
10
10
10
10
10
10
10
10
10
10
10
10
10
10
10
10
10
10
10
10
10
10
10
10
10
10
10
10
10
10
10
10
10
10
10
10
10
10
10
10
10
10
10
10
10
10
10
10
10
10
10
10
10
10
10
10
10
10
10
10
10
10
10
10
10
10
10
10
10
10
10
10
10
10
10
10
10
10
10
10
10
10
10
10
10
10
10
10
10
10
10
10
10
10
10
10
10
10
10
10
10
10
10
10
10
10
10
10
10
10
10
10
10
10
10
10
10
10
10
10
10
10
10
10
10
10
10
10
10
10
10
10
10
10
10
10
10
10
10
10
10
10
10
10
10
10
10
10
10
10
10
10
10
10
10
10
10
10
10
10
10
10
10
10
10
10
10
10
10
10
10
10
10
10
10
10
10
10
10
10
10
10
10
10
10
10
10
10
10
10
10
10
10
10
10
10
10
10
10
10
10
10
10
10
10
10
10
10
10
10
10
10
10
10
10
10
10
10
10
10
10
10
10
10
10
10
10
10
10
10
10
10
10
10
10
10
10
10
10
10
10
10
10
10
10
10
10
10
10
10
10
10
10
10
10
10
10
10
10
10
10
10
10
10
10
10
10
10
10
10
10
10
10
10
10
10
10
10
10
10
10
10
10
10
10
10
10
10
10
10
10
10
10
10
10
10
10
10
10
10
10
10
10
10
10
10
10
10
10
10
10
10
10
10
10
10
10
10
10
10
10
10
10
10
10
10
10
10
10
10
10
10
10
10
10
10
10
10
10
10
10
10
10
10
10
10
10
10
10
10
10
10
10
10
10
10
10
10
10
10
10
10
10
10
10
10
10
10
10
10
10
10
10
10
10
10
10
10
10
10
10
10
10
10
10
10
10
10
10
10
10
10
10
10
10
10
10
10
10
10
10
10
10
10
10
10
10
10
10
10
10
10
10
10
10
10
10
10
10
10
10
10
10
10
10
10
10
10
10
10
10
10
10
10
10
10
10
10
10
10
10
10
10
10
10
10
10
10
10
10
10
10
10
10
10
10
10
10
10
10
10
10
10
10
10
10
10
10
10
10
10
10
10
10
10
10
10
10
10
10
10
10
10
10
10
10
10
10
10
10
10
10
10
10
10
10
10
10
10
10
10
10
10
10
10
10
10
10
10
10
10
10
10
10
10
10
10
10
10
10
10
10
10
10
10
10
10
10
10
10
10
10
10
10
10
10
10
10
10
10
10
10
10
10
10
10
10
10
10
10
10
10
10
10
10
10
10
10
10
10
10
10
10
10
10
10
10
10
10
10
10
10
10
10
10
10
10
10
10
10
10
10
10
10
10
10
10
10
10
10
10
10
10
10
10
10
10
10
10
10
10
10
10
10
10
10
10
10
10
10
10
10
10
10
10
10
10
10
10
10
10
10
10
10
10
10
10
10
10
10
10
10
10
10
10
10
10
10
10
10
10
10
10
10
10
10
10
10
10
10
10
10
10
10
10
10
10
10
10
10
10
10
10
10
10
10
10
10
10
10
10
10
10
10
10
10
10
10
10
10
10
10
10
10
10
10
10
10
10
10
10
10
10
10
10
10
10
10
10
10
10
10
10
10
10
10
10
10
10
10
10
10
10
10
10
10
10
10
10
10
10
10
10
10
10
10
10
10
10
10
10
10
10
10
10
10
10
10
10
10
10
10
10
10
10
10
10
10
10
10
10
10
10
10
10
10
10
10
10
10
10
10
10
10
10
10
10
10
10
10
10
10
10
10
10
10
10
10
10
10
10
10
10
10
10
10
10
10
10
10
10
10
10
10
10
10
10
10
10
10
10
10
10
10
10
10
10
10
10
10
10
10
10
10
10
10
10
10
10
10
10
10
10
10
10
10
10
10
10
10
10
10
10
10
10
10
10
10
10
10
10
10
10
10
10
10
10
10
10
10
10
10
10
10
10
10
10
10
10
10
10
10
10
10
10
10
10
10
10
10
10
10
10
10
10
10
10
10
10
10
10
10
10
10
10
10
10
10
10
10
10
10
10
10
10
10
10
10
10
10
10
10
10
10
10
10
10
10
10
10
10
10
10
10
10
10
10
10
10
10
10
10
10
10
10
10
10
10
10
10
10
10
10
10
10
10
10
10
10
10
10
10
10
10
10
10
10
10
10
10
10
10
10
10
10
10
10
10
10
10
10
10
10
10
10
10
10
10
10
10
10
10
10
10
10
10
10
10
10
10
10
10
10
10
10
10
10
10
10
10
10
10
10
10
10
10
10
10
10
10
10
10
10
10
10
10
10
10
10
10
10
10
10
10
10
10
10
10
10
10
10
10
10
10
10
10
10
10
10
10
10
10
10
10
10
10
10
10
10
10
10
10
10
10
10
10
10
10
10
10
10
10
10
10
10
10
10
10
10
10
10
10
10
10
10
10
10
10
10
10
10
10
10
10
10
10
10
10
10
10
10
10
10
10
10
10
10
10
10
10
10
10
10
10
10
10
10
10
10
10
10
10
10
10
10
10
10
10
10
10
10
10
10
10
10
10
10
10
10
10
10
10
10
10
10
10
10
10
10
10
10
10
10
10
10
10
10
10
10
10
10
10
10
10
10
10
10
10
10
10
10
10
10
10
10
10
10
10
10
10
10
10
10
10
10
10
10
10
10
10
10
10
10
10
10
10
10
10
10
10
10
10
10
10
10
10
10
10
10
10
10
10
10
10
10
10
10
10
10
10
10
10
10
10
10
10
10
10
10
10
10
10
10
10
10
10
10
10
10
10
10
10
10
10
10
10
10
10
10
10
10
10
10
10
10
10
10
10
10
10
10
10
10
10
10
10
10
10
10
10
10
10
10
10
10
10
10
10
10
10
10
10
10
10
10
10
10
10
10
10
10
10
10
10
10
10
10
10
10
10
10
10
10
10
10
10
10
10
10
10
10
10
10
10
10
10
10
10
10
10
10
10
10
10
10
10
10
10
10
10
10
10
10
10
10
10
10
10
10
10
10
10
10
10
10
10
10
10
10
10
10
10
10
10
10
10
10
10
10
10
10
10
10
10
10
10
10
10
10
10
10
10
10
10
10
10
10
10
10
10
10
10
10
10
10
10
10
10
10
10
10
10
10
10
10
10
10
10
10
10
10
10
10
10
10
10
10
10
10
10
10
10
10
10
10
10
10
10
10
10
10
10
10
10
10
10
10
10
10
10
10
10
10
10
10
10
10
10
10
10
10
10
10
10
10
10
10
10
10
10
10
10
10
10
10
10
10
10
10
10
10
10
10
10
10
10
10
10
10
10
10
10
10
10
10
10
10
10
10
10
10
10
10
10
10
10
10
10
10
10
10
10
10
10
10
10
10
10
10
10
10
10
10
10
10
10
10
10
10
10
10
10
10
10
10
10
10
10
10
10
10
10
10
10
10
10
10
10
10
10
10
10
10
10
10
10
10
10
10
10
10
10
10
10
10
10
10
10
10
10
10
10
10
10
10
10
10
10
10
10
10
10
10
10
10
10
10
10
10
10
10
10
10
10
10
10
10
10
10
10
10
10
10
10
10
10
10
10
10
10
10
10
10
10
10
10
10
10
10
10
10
10
10
10
10
10
10
10
10
10
10
10
10
10
10
10
10
10
10
10
10
10
10
10
10
10
10
10
10
10
10
10
10
10
10
10
10
10
10
10
10
10
10
10
10
10
10
10
10
10
10
10
10
10
10
10
10
10
10
10
10
10
10
10
10
10
10
10
10
10
10
10
10
10
10
10
10
10
10
10
10
10
10
10
10
10
10
10
10
10
10
10
10
10
10
10
10
10
10
10
10
10
10
10
10
10
10
10
10
10
10
10
10
10
10
10
10
10
10
10
10
10
10
10
10
10
10
10
10
10
10
10
10
10
10
10
10
10
10
10
10
10
10
10
10
10
10
10
10
10
10
10
10
10
10
10
10
10
10
10
10
10
10
10
10
10
10
10
10
10
10
10
10
10
10
10
10
10
10
10
10
10
10
10
10
10
10
10
10
10
10
10
10
10
10
10
10
10
10
10
10
10
10
10
10
10
10
10
10
10
10
10
10
10
10
10
10
10
10
10
10
10
10
10
10
10
10
10
10
10
10
10
10
10
10
10
10
10
10
10
10
10
10
10
10
10
10
10
10
10
10
10
10
10
10
10
10
10
10
10
10
10
10
10
10
10
10
10
10
10
10
10
10
10
10
10
10
10
10
10
10
10
10
10
10
10
10
10
10
10
10
10
10
10
10
10
10
10
10
10
10
10
10
10
10
10
10
10
10
10
10
10
10
10
10
10
10
10
10
10
10
10
10
10
10
10
10
10
10
10
10
10
10
10
10
10
10
10
10
10
10
10
10
10
10
10
10
10
10
10
10
10
10
10
10
10
10
10
10
10
10
10
10
10
10
10
10
10
10
10
10
10
10
10
10
10
10
10
10
10
10
10
10
10
10
10
10
10
10
10
10
10
10
10
10
10
10
10
10
10
10
10
10
10
10
10
10
10
10
10
10
10
10
10
10
10
10
10
10
10
10
10
10
10
10
10
10
10
10
10
10
10
10
10
10
10
10
10
10
10
10
10
10
10
10
10
10
10
10
10
10
10
10
10
10
10
10
10
10
10
10
10
10
10
10
10
10
10
10
10
10
10
10
10
10
10
10
10
10
10
10
10
10
10
10
10
10
10
10
10
10
10
10
10
10
10
10
10
10
10
10
10
10
10
10
10
10
10
10
10
10
10
10
10
10
10
10
10
10
10
10
10
10
10
10
10
10
10
10
10
10
10
10
10
10
10
10
10
10
10
10
10
10
10
10
10
10
10
10
10
10
10
10
10
10
10
10
10
10
10
10
10
10
10
10
10
10
10
10
10
10
10
10
10
10
10
10
10
10
10
10
10
10
10
10
10
10
10
10
10
10
10
10
10
10
10
10
10
10
10
10
10
10
10
10
10
10
10
10
10
10
10
10
10
10
10
10
10
10
10
10
10
10
10
10
10
10
10
10
10
10
10
10
10
10
10
10
10
10
10
10
10
10
10
10
10
10
10
10
10
10
10
10
10
10
10
10
10
10
10
10
10
10
10
10
10
10
10
10
10
10
10
10
10
10
10
10
10
10
10
10
10
10
10
10
10
10
10
10
10
10
10
10
10
10
10
10
10
10
10
10
10
10
10
10
10
10
10
10
10
10
10
10
10
10
10
10
10
10
10
10
10
10
10
10
10
10
10
10
10
10
10
10
10
10
10
10
10
10
10
10
10
10
10
10
10
10
10
10
10
10
10
10
10
10
10
10
10
10
10
10
10
10
10
10
10
10
10
10
10
10
10
10
10
10
10
10
10
10
10
10
10
10
10
10
10
10
10
10
10
10
10
10
10
10
10
10
10
10
10
10
10
10
10
10
10
10
10
10
10
10
10
10
10
10
10
10
10
10
10
10
10
10
10
10
10
10
10
10
10
10
10
10
10
10
10
10
10
10
10
10
10
10
10
10
10
10
10
10
10
10
10
10
10
10
10
10
10
10
10
10
10
10
10
10
10
10
10
10
10
10
10
10
10
10
10
10
10
10
10
10
10
10
10
10
10
10
10
10
10
10
10
10
10
10
10
10
10
10
10
10
10
10
10
10
10
10
10
10
10
10
10
10
10
10
10
10
10
10
10
10
10
10
10
10
10
10
10
10
10
10
10
10
10
10
10
10
10
10
10
10
10
10
10
10
10
10
10
10
10
10
10
10
10
10
10
10
10
10
10
10
10
10
10
10
10
10
10
10
10
10
10
10
10
10
10
10
10
10
10
10
10
10
10
10
10
10
10
10
10
10
10
10
10
10
10
10
10
10
10
10
10
10
10
10
10
10
10
10
10
10
10
10
10
10
10
10
10
10
10
10
10
10
10
10
10
10
10
10
10
10
10
10
10
10
10
10
10
10
10
10
10
10
10
10
10
10
10
10
10
10
10
10
10
10
10
10
10
10
10
10
10
10
10
10
10
10
10
10
10
10
10
10
10
10
10
10
10
10
10
10
10
10
10
10
10
10
10
10
10
10
10
10
10
10
10
10
10
10
10
10
10
10
10
10
10
10
10
10
10
10
10
10
10
10
10
10
10
10
10
10
10
10
10
10
10
10
10
10
10
10
10
10
10
10
10
10
10
10
10
10
10
10
10
10
10
10
10
10
10
10
10
10
10
10
10
10
10
10
10
10
10
10
10
10
10
10
10
10
10
10
10
10
10
10
10
10
10
10
10
10
10
10
10
10
10
10
10
10
10
10
10
10
10
10
10
10
10
10
10
10
10
10
10
10
10
10
10
10
10
10
10
10
10
10
10
10
10
10
10
10
10
10
10
10
10
10
10
10
10
10
10
10
10
10
10
10
10
10
10
10
10
10
10
10
10
10
10
10
10
10
10
10
10
10
10
10
10
10
10
10
10
10
10
10
10
10
10
10
10
10
10
10
10
10
10
10
10
10
10
10
10
10
10
10
10
10
10
10
10
10
10
10
10
10
10
10
10
10
10
10
10
10
10
10
10
10
10
10
10
10
10
10
10
10
10
10
10
10
10
10
10
10
10
10
10
10
10
10
10
10
10
10
10
10
10
10
10
10
10
10
10
10
10
10
10
10
10
10
10
10
10
10
10
10
10
10
10
10
10
10
10
10
10
10
10
10
10
10
10
10
10
10
10
10
10
10
10
10
10
10
10
10
10
10
10
10
10
10
10
10
10
10
10
10
10
10
10
10
10
10
10
10
10
10
10
10
10
10
10
10
10
10
10
10
10
10
10
10
10
10
10
10
10
10
10
10
10
10
10
10
10
10
10
10
10
10
10
10
10
10
10
10
10
10
10
10
10
10
10
10
10
10
10
10
10
10
10
10
10
10
10
10
10
10
10
10
10
10
10
10
10
10
10
10
10
10
10
10
10
10
10
10
10
10
10
10
10
10
10
10
10
10
10
10
10
10
10
10
10
10
10
10
10
10
10
10
10
10
10
10
10
10
10
10
10
10
10
10
10
10
10
10
10
10
10
10
10
10
10
10
10
10
10
10
10
10
10
10
10
10
10
10
10
10
10
10
10
10
10
10
10
10
10
10
10
10
10
10
10
10
10
10
10
10
10
10
10
10
10
10
10
10
10
10
10
10
10
10
10
10
10
10
10
10
10
10
10
10
10
10
10
10
10
10
10
10
10
10
10
10
10
10
10
10
10
10
10
10
10
10
10
10
10
10
10
10
10
10
10
10
10
10
10
10
10
10
10
10
10
10
10
10
10
10
10
10
10
10
10
10
10
10
10
10
10
10
10
10
10
10
10
10
10
10
10
10
10
10
10
10
10
10
10
10
10
10
10
10
10
10
10
10
10
10
10
10
10
10
10
10
10
10
10
10
10
10
10
10
10
10
10
10
10
10
10
10
10
10
10
10
10
10
10
10
10
10
10
10
10
10
10
10
10
10
10
10
10
10
10
10
10
10
10
10
10
10
10
10
10
10
10
10
10
10
10
10
10
10
10
10
10
10
10
10
10
10
10
10
10
10
10
10
10
10
10
10
10
10
10
10
10
10
10
10
10
10
10
10
10
10
10
10
10
10
10
10
10
10
10
10
10
10
10
10
10
10
10
10
10
10
10
10
10
10
10
10
10
10
10
10
10
10
10
10
10
10
10
10
10
10
10
10
10
10
10
10
10
10
10
10
10
10
10
10
10
10
10
10
10
10
10
10
10
10
10
10
10
10
10
10
10
10
10
10
10
10
10
10
10
10
10
10
10
10
10
10
10
10
10
10
10
10
10
10
10
10
10
10
10
10
10
10
10
10
10
10
10
10
10
10
10
10
10
10
10
10
10
10
10
10
10
10
10
10
10
10
10
10
10
10
10
10
10
10
10
10
10
10
10
10
10
10
10
10
10
10
10
10
10
10
10
10
10
10
10
10
10
10
10
10
10
10
10
10
10
10
10
10
10
10
10
10
10
10
10
10
10
10
10
10
10
10
10
10
10
10
10
10
10
10
10
10
10
10
10
10
10
10
10
10
10
10
10
10
10
10
10
10
10
10
10
10
10
10
10
10
10
10
10
10
10
10
10
10
10
10
10
10
10
10
10
10
10
10
10
10
10
10
10
10
10
10
10
10
10
10
10
10
10
10
10
10
10
10
10
10
10
10
10
10
10
10
10
10
10
10
10
10
10
10
10
10
10
10
10
10
10
10
10
10
10
10
10
10
10
10
10
10
10
10
10
10
10
10
10
10
10
10
10
10
10
10
10
10
10
10
10
10
10
10
10
10
10
10
10
10
10
10
10
10
10
10
10
10
10
10
10
10
10
10
10
10
10
10
10
10
10
10
10
10
10
10
10
10
10
10
10
10
10
10
10
10
10
10
10
10
10
10
10
10
10
10
10
10
10
10
10
10
10
10
10
10
10
10
10
10
10
10
10
10
10
10
10
10
10
10
10
10
10
10
10
10
10
10
10
10
10
10
10
10
10
10
10
10
10
10
10
10
10
10
10
10
10
10
10
10
10
10
10
10
10
10
10
10
10
10
10
10
10
10
10
10
10
10
10
10
10
10
10
10
10
10
10
10
10
10
10
10
10
10
10
10
10
10
10
10
10
10
10
10
10
10
10
10
10
10
10
10
10
10
10
10
10
10
10
10
10
10
10
10
10
10
10
10
10
10
10
10
10
10
10
10
10
10
10
10
10
10
10
10
10
10
10
10
10
10
10
10
10
10
10
10
10
10
10
10
10
10
10
10
10
10
10
10
10
10
10
10
10
10
10
10
10
10
10
10
10
10
10
10
10
10
10
10
10
10
10
10
10
10
10
10
10
10
10
10
10
10
10
10
10
10
10
10
10
10
10
10
10
10
10
10
10
10
10
10
10
10
10
10
10
10
10
10
10
10
10
10
10
10
10
10
10
10
10
10
10
10
10
10
10
10
10
10
10
10
10
10
10
10
10
10
10
10
10
10
10
10
10
10
10
10
10
10
10
10
10
10
10
10
10
10
10
10
10
10
10
10
10
10
10
10
10
10
10
10
10
10
10
10
10
10
10
10
10
10
10
10
10
10
10
10
10
10
10
10
10
10
10
10
10
10
10
10
10
10
10
10
10
10
10
10
10
10
10
10
10
10
10
10
10
10
10
10
10
10
10
10
10
10
10
10
10
10
10
10
10
10
10
10
10
10
10
10
10
10
10
10
10
10
10
10
10
10
10
10
10
10
10
10
10
10
10
10
10
10
10
10
10
10
10
10
10
10
10
10
10
10
10
10
10
10
10
10
10
10
10
10
10
10
10
10
10
10
10
10
10
10
10
10
10
10
10
10
10
10
10
10
10
10
10
10
10
10
10
10
10
10
10
10
10
10
10
10
10
10
10
10
10
10
10
10
10
10
10
10
10
10
10
10
10
10
10
10
10
10
10
10
10
10
10
10
10
10
10
10
10
10
10
10
10
10
10
10
10
10
10
10
10
10
10
10
10
10
10
10
10
10
10
10
10
10
10
10
10
10
10
10
10
10
10
10
10
10
10
10
10
10
10
10
10
10
10
10
10
10
10
10
10
10
10
10
10
10
10
10
10
10
10
10
10
10
10
10
10
10
10
10
10
10
10
10
10
10
10
10
10
10
10
10
10
10
10
10
10
10
10
10
10
10
10
10
10
10
10
10
10
10
10
10
10
10
10
10
10
10
10
10
10
10
10
10
10
10
10
10
10
10
10
10
10
10
10
10
10
10
10
10
10
10
10
10
10
10
10
10
10
10
10
10
10
10
10
10
10
10
10
10
10
10
10
10
10
10
10
10
10
10
10
10
10
10
10
10
10
10
10
10
10
10
10
10
10
10
10
10
10
10
10
10
10
10
10
10
10
10
10
10
10
10
10
10
10
10
10
10
10
10
10
10
10
10
10
10
10
10
10
10
10
10
10
10
10
10
10
10
10
10
10
10
10
10
10
10
10
10
10
10
10
10
10
10
10
10
10
10
10
10
10
10
10
10
10
10
10
10
10
10
10
10
10
10
10
10
10
10
10
10
10
10
10
10
10
10
10
10
10
10
10
10
10
10
10
10
10
10
10
10
10
10
10
10
10
10
10
10
10
10
10
10
10
10
10
10
10
10
10
10
10
10
10
10
10
10
10
10
10
10
10
10
10
10
10
10
10
10
10
10
10
10
10
10
10
10
10
10
10
10
10
10
10
10
10
10
10
10
10
10
10
10
10
10
10
10
10
10
10
10
10
10
10
10
10
10
10
10
10
10
10
10
10
10
10
10
10
10
10
10
10
10
10
10
10
10
10
10
10
10
10
10
10
10
10
10
10
10
10
10
10
10
10
10
10
10
10
10
10
10
10
10
10
10
10
10
10
10
10
10
10
10
10
10
10
10
10
10
10
10
10
10
10
10
10
10
10
10
10
10
10
10
10
10
10
10
10
10
10
10
10
10
10
10
10
10
10
10
10
10
10
10
10
10
10
10
10
10
10
10
10
10
10
10
10
10
10
10
10
10
10
10
10
10
10
10
10
10
10
10
10
10
10
10
10
10
10
10
10
10
10
10
10
10
10
10
10
10
10
10
10
10
10
10
10
10
10
10
10
10
10
10
10
10
10
10
10
10
10
10
10
10
10
10
10
10
10
10
10
10
10
10
10
10
10
10
10
10
10
10
10
10
10
10
10
10
10
10
10
10
10
10
10
10
10
10
10
10
10
10
10
10
10
10
10
10
10
10
10
10
10
10
10
10
10
10
10
10
10
10
10
10
10
10
10
10
10
10
10
10
10
10
10
10
10
10
10
10
10
10
10
10
10
10
10
10
10
10
10
10
10
10
10
10
10
10
10
10
10
10
10
10
10
10
10
10
10
10
10
10
10
10
10
10
10
10
10
10
10
10
10
10
10
10
10
10
10
10
10
10
10
10
10
10
10
10
10
10
10
10
10
10
10
10
10
10
10
10
10
10
10
10
10
10
10
10
10
10
10
10
10
10
10
10
10
10
10
10
10
10
10
10
10
10
10
10
10
10
10
10
10
10
10
10
10
10
10
10
10
10
10
10
10
10
10
10
10
10
10
10
10
10
10
10
10
10
10
10
10
10
10
10
10
10
10
10
10
10
10
10
10
10
10
10
10
10
10
10
10
10
10
10
10
10
10
10
10
10
10
10
10
10
10
10
10
10
10
10
10
10
10
10
10
10
10
10
10
10
10
10
10
10
10
10
10
10
10
10
10
10
10
10
10
10
10
10
10
10
10
10
10
10
10
10
10
10
10
10
10
10
10
10
10
10
10
10
10
10
10
10
10
10
10
10
10
10
10
10
10
10
10
10
10
10
10
10
10
10
10
10
10
10
10
10
10
10
10
10
10
10
10
10
10
10
10
10
10
10
10
10
10
10
10
10
10
10
10
10
10
10
10
10
10
10
10
10
10
10
10
10
10
10
10
10
10
10
10
10
10
10
10
10
10
10
10
10
10
10
10
10
10
10
10
10
10
10
10
10
10
10
10
10
10
10
10
10
10
10
10
10
10
10
10
10
10
10
10
10
10
10
10
10
10
10
10
10
10
10
10
10
10
10
10
10
10
10
10
10
10
10
10
10
10
10
10
10
10
10
10
10
10
10
10
10
10
10
10
10
10
10
10
10
10
10
10
10
10
10
10
10
10
10
10
10
10
10
10
10
10
10
10
10
10
10
10
10
10
10
10
10
10
10
10
10
10
10
10
10
10
10
10
10
10
10
10
10
10
10
10
10
10
10
10
10
10
10
10
10
10
10
10
10
10
10
10
10
10
10
10
10
10
10
10
10
10
10
10
10
10
10
10
10
10
10
10
10
10
10
10
10
10
10
10
10
10
10
10
10
10
10
10
10
10
10
10
10
10
10
10
10
10
10
10
10
10
10
10
10
10
10
10
10
10
10
10
10
10
10
10
10
10
10
10
10
10
10
10
10
10
10
10
10
10
10
10
10
10
10
10
10
10
10
10
10
10
10
10
10
10
10
10
10
10
10
10
10
10
10
10
10
10
10
10
10
10
10
10
10
10
10
10
10
10
10
10
10
10
10
10
10
10
10
10
10
10
10
10
10
10
10
10
10
10
10
10
10
10
10
10
10
10
10
10
10
10
10
10
10
10
10
10
10
10
10
10
10
10
10
10
10
10
10
10
10
10
10
10
10
10
10
10
10
10
10
10
10
10
10
10
10
10
10
10
10
10
10
10
10
10
10
10
10
10
10
10
10
10
10
10
10
10
10
10
10
10
10
10
10
10
10
10
10
10
10
10
10
10
10
10
10
10
10
10
10
10
10
10
10
10
10
10
10
10
10
10
10
10
10
10
10
10
10
10
10
10
10
10
10
10
10
10
10
10
10
10
10
10
10
10
10
10
10
10
10
10
10
10
10
10
10
10
10
10
10
10
10
10
10
10
10
10
10
10
10
10
10
10
10
10
10
10
10
10
10
10
10
10
10
10
10
10
10
10
10
10
10
10
10
10
10
10
10
10
10
10
10
10
10
10
10
10
10
10
10
10
10
10
10
10
10
10
10
10
10
10
10
10
10
10
10
10
10
10
10
10
10
10
10
10
10
10
10
10
10
10
10
10
10
10
10
10
10
10
10
10
10
10
10
10
10
10
10
10
10
10
10
10
10
10
10
10
10
10
10
10
10
10
10
10
10
10
10
10
10
10
10
10
10
10
10
10
10
10
10
10
10
10
10
10
10
10
10
10
10
10
10
10
10
10
10
10
10
10
10
10
10
10
10
10
10
10
10
10
10
10
10
10
10
10
10
10
10
10
10
10
10
10
10
10
10
10
10
10
10
10
10
10
10
10
10
10
10
10
10
10
10
10
10
10
10
10
10
10
10
10
10
10
10
10
10
10
10
10
10
10
10
10
10
10
10
10
10
10
10
10
10
10
10
10
10
10
10
10
10
10
10
10
10
10
10
10
10
10
10
10
10
10
10
10
10
10
10
10
10
10
10
10
10
10
10
10
10
10
10
10
10
10
10
10
10
10
10
10
10
10
10
10
10
10
10
10
10
10
10
10
10
10
10
10
10
10
10
10
10
10
10
10
10
10
10
10
10
10
10
10
10
10
10
10
10
10
10
10
10
10
10
10
10
10
10
10
10
10
10
10
10
10
10
10
10
10
10
10
10
10
10
10
10
10
10
10
10
10
10
10
10
10
10
10
10
10
10
10
10
10
10
10
10
10
10
10
10
10
10
10
10
10
10
10
10
10
10
10
10
10
10
10
10
10
10
10
10
10
10
10
10
10
10
10
10
10
10
10
10
10
10
10
10
10
10
10
10
10
10
10
10
10
10
10
10
10
10
10
10
10
10
10
10
10
10
10
10
10
10
10
10
10
10
10
10
10
10
10
10
10
10
10
10
10
10
10
10
10
10
10
10
10
10
10
10
10
10
10
10
10
10
10
10
10
10
10
10
10
10
10
10
10
10
10
10
10
10
10
10
10
10
10
10
10
10
10
10
10
10
10
10
10
10
10
10
10
10
10
10
10
10
10
10
10
10
10
10
10
10
10
10
10
10
10
10
10
10
10
10
10
10
10
10
10
10
10
10
10
10
10
10
10
10
10
10
10
10
10
10
10
10
10
10
10
10
10
10
10
10
10
10
10
10
10
10
10
10
10
10
10
10
10
10
10
10
10
10
10
10
10
10
10
10
10
10
10
10
10
10
10
10
10
10
10
10
10
10
10
10
10
10
10
10
10
10
10
10
10
10
10
10
10
10
10
10
10
10
10
10
10
10
10
10
10
10
10
10
10
10
10
10
10
10
10
10
10
10
10
10
10
10
10
10
10
10
10
10
10
10
10
10
10
10
10
10
10
10
10
10
10
10
10
10
10
10
10
10
10
10
10
10
10
10
10
10
10
10
10
10
10
10
10
10
10
10
10
10
10
10
10
10
10
10
10
10
10
10
10
10
10
10
10
10
10
10
10
10
10
10
10
10
10
10
10
10
10
10
10
10
10
10
10
10
10
10
10
10
10
10
10
10
10
10
10
10
10
10
10
10
10
10
10
10
10
10
10
10
10
10
10
10
10
10
10
10
10
10
10
10
10
10
10
10
10
10
10
10
10
10
10
10
10
10
10
10
10
10
10
10
10
10
10
10
10
10
10
10
10
10
10
10
10
10
10
10
10
10
10
10
10
10
10
10
10
10
10
10
10
10
10
10
10
10
10
10
10
10
10
10
10
10
10
10
10
10
10
10
10
10
10
10
10
10
10
10
10
10
10
10
10
10
10
10
10
10
10
10
10
10
10
10
10
10
10
10
10
10
10
10
10
10
10
10
10
10
10
10
10
10
10
10
10
10
10
10
10
10
10
10
10
10
10
10
10
10
10
10
10
10
10
10
10
10
10
10
10
10
10
10
10
10
10
10
10
10
10
10
10
10
10
10
10
10
10
10
10
10
10
10
10
10
10
10
10
10
10
10
10
10
10
10
10
10
10
10
10
10
10
10
10
10
10
10
10
10
10
10
10
10
10
10
10
10
10
10
10
10
10
10
10
10
10
10
10
10
10
10
10
10
10
10
10
10
10
10
10
10
10
10
10
10
10
10
10
10
10
10
10
10
10
10
10
10
10
10
10
10
10
10
10
10
10
10
10
10
10
10
10
10
10
10
10
10
10
10
10
10
10
10
10
10
10
10
10
10
10
10
10
10
10
10
10
10
10
10
10
10
10
10
10
10
10
10
10
10
10
10
10
10
10
10
10
10
10
10
10
10
10
10
10
10
10
10
10
10
10
10
10
10
10
10
10
10
10
10
10
10
10
10
10
10
10
10
10
10
10
10
10
10
10
10
10
10
10
10
10
10
10
10
10
10
10
10
10
10
10
10
10
10
10
10
10
10
10
10
10
10
10
10
10
10
10
10
10
10
10
10
10
10
10
10
10
10
10
10
10
10
10
10
10
10
10
10
10
10
10
10
10
10
10
10
10
10
10
10
10
10
10
10
10
10
10
10
10
10
10
10
10
10
10
10
10
10
10
10
10
10
10
10
10
10
10
10
10
10
10
10
10
10
10
10
10
10
10
10
10
10
10
10
10
10
10
10
10
10
10
10
10
10
10
10
10
10
10
10
10
10
10
10
10
10
10
10
10
10
10
10
10
10
10
10
10
10
10
10
10
10
10
10
10
10
10
10
10
10
10
10
10
10
10
10
10
10
10
10
10
10
10
10
10
10
10
10
10
10
10
10
10
10
10
10
10
10
10
10
10
10
10
10
10
10
10
10
10
10
10
10
10
10
10
10
10
10
10
10
10
10
10
10
10
10
10
10
10
10
10
10
10
10
10
10
10
10
10
10
10
10
10
10
10
10
10
10
10
10
10
10
10
10
10
10
10
10
10
10
10
10
10
10
10
10
10
10
10
10
10
10
10
10
10
10
10
10
10
10
10
10
10
10
10
10
10
10
10
10
10
10
10
10
10
10
10
10
10
10
10
10
10
10
10
10
10
10
10
10
10
10
10
10
10
10
10
10
10
10
10
10
10
10
10
10
10
10
10
10
10
10
10
10
10
10
10
10
10
10
10
10
10
10
10
10
10
10
10
10
10
10
10
10
10
10
10
10
10
10
10
10
10
10
10
10
10
10
10
10
10
10
10
10
10
10
10
10
10
10
10
10
10
10
10
10
10
10
10
10
10
10
10
10
10
10
10
10
10
10
10
10
10
10
10
10
10
10
10
10
10
10
10
10
10
10
10
10
10
10
10
10
10
10
10
10
10
10
10
10
10
10
10
10
10
10
10
10
10
10
10
10
10
10
10
10
10
10
10
10
10
10
10
10
10
10
10
10
10
10
10
10
10
10
10
10
10
10
10
10
10
10
10
10
10
10
10
10
10
10
10
10
10
10
10
10
10
10
10
10
10
10
10
10
10
10
10
10
10
10
10
10
10
10
10
10
10
10
10
10
10
10
10
10
10
10
10
10
10
10
10
10
10
10
10
10
10
10
10
10
10
10
10
10
10
10
10
10
10
10
10
10
10
10
10
10
10
10
10
10
10
10
10
10
10
10
10
10
10
10
10
10
10
10
10
10
10
10
10
10
10
10
10
10
10
10
10
10
10
10
10
10
10
10
10
10
10
10
10
10
10
10
10
10
10
10
10
10
10
10
10
10
10
10
10
10
10
10
10
10
10
10
10
10
10
10
10
10
10
10
10
10
10
10
10
10
10
10
10
10
10
10
10
10
10
10
10
10
10
10
10
10
10
10
10
10
10
10
10
10
10
10
10
10
10
10
10
10
10
10
10
10
10
10
10
10
10
10
10
10
10
10
10
10
10
10
10
10
10
10
10
10
10
10
10
10
10
10
10
10
10
10
10
10
10
10
10
10
10
10
10
10
10
10
10
10
10
10
10
10
10
10
10
10
10
10
10
10
10
10
10
10
10
10
10
10
10
10
10
10
10
10
10
10
10
10
10
10
10
10
10
10
10
10
10
10
10
10
10
10
10
10
10
10
10
10
10
10
10
10
10
10
10
10
10
10
10
10
10
10
10
10
10
10
10
10
10
10
10
10
10
10
10
10
10
10
10
10
10
10
10
10
10
10
10
10
10
10
10
10
10
10
10
10
10
10
10
10
10
10
10
10
10
10
10
10
10
10
10
10
10
10
10
10
10
10
10
10
10
10
10
10
10
10
10
10
10
10
10
10
10
10
10
10
10
10
10
10
10
10
10
10
10
10
10
10
10
10
10
10
10
10
10
10
10
10
10
10
10
10
10
10
10
10
10
10
10
10
10
10
10
10
10
10
10
10
10
10
10
10
10
10
10
10
10
10
10
10
10
10
10
10
10
10
10
10
10
10
10
10
10
10
10
10
10
10
10
10
10
10
10
10
10
10
10
10
10
10
10
10
10
10
10
10
10
10
10
10
10
10
10
10
10
10
10
10
10
10
10
10
10
10
10
10
10
10
10
10
10
10
10
10
10
10
10
10
10
10
10
10
10
10
10
10
10
10
10
10
10
10
10
10
10
10
10
10
10
10
10
10
10
10
10
10
10
10
10
10
10
10
10
10
10
10
10
10
10
10
10
10
10
10
10
10
10
10
10
10
10
10
10
10
10
10
10
10
10
10
10
10
10
10
10
10
10
10
10
10
10
10
10
10
10
10
10
10
10
10
10
10
10
10
10
10
10
10
10
10
10
10
10
10
10
10
10
10
10
10
10
10
10
10
10
10
10
10
10
10
10
10
10
10
10
10
10
10
10
10
10
10
10
10
10
10
10
10
10
10
10
10
10
10
10
10
10
10
10
10
10
10
10
10
10
10
10
10
10
10
10
10
10
10
10
10
10
10
10
10
10
10
10
10
10
10
10
10
10
10
10
10
10
10
10
10
10
10
10
10
10
10
10
10
10
10
10
10
10
10
10
10
10
10
10
10
10
10
10
10
10
10
10
10
10
10
10
10
10
10
10
10
10
10
10
10
10
10
10
10
10
10
10
10
10
10
10
10
10
10
10
10
10
10
10
10
10
10
10
10
10
10
10
10
10
10
10
10
10
10
10
10
10
10
10
10
10
10
10
10
10
10
10
10
10
10
10
10
10
10
10
10
10
10
10
10
10
10
10
10
10
10
10
10
10
10
10
10
10
10
10
10
10
10
10
10
10
10
10
10
10
10
10
10
10
10
10
10
10
10
10
10
10
10
10
10
10
10
10
10
10
10
10
10
10
10
10
10
10
10
10
10
10
10
10
10
10
10
10
10
10
10
10
10
10
10
10
10
10
10
10
10
10
10
10
10
10
10
10
10
10
10
10
10
10
10
10
10
10
10
10
10
10
10
10
10
10
10
10
10
10
10
10
10
10
10
10
10
10
10
10
10
10
10
10
10
10
10
10
10
10
10
10
10
10
10
10
10
10
10
10
10
10
10
10
10
10
10
10
10
10
10
10
10
10
10
10
10
10
10
10
10
10
10
10
10
10
10
10
10
10
10
10
10
10
10
10
10
10
10
10
10
10
10
10
10
10
10
10
10
10
10
10
10
10
10
10
10
10
10
10
10
10
10
10
10
10
10
10
10
10
10
10
10
10
10
10
10
10
10
10
10
10
10
10
10
10
10
10
10
10
10
10
10
10
10
10
10
10
10
10
10
10
10
10
10
10
10
10
10
10
10
10
10
10
10
10
10
10
10
10
10
10
10
10
10
10
10
10
10
10
10
10
10
10
10
10
10
10
10
10
10
10
10
10
10
10
10
10
10
10
10
10
10
10
10
10
10
10
10
10
10
10
10
10
10
10
10
10
10
10
10
10
10
10
10
10
10
10
10
10
10
10
10
10
10
10
10
10
10
10
10
10
10
10
10
10
10
10
10
10
10
10
10
10
10
10
10
10
10
10
10
10
10
10
10
10
10
10
10
10
10
10
10
10
10
10
10
10
10
10
10
10
10
10
10
10
10
10
10
10
10
10
10
10
10
10
10
10
10
10
10
10
10
10
10
10
10
10
10
10
10
10
10
10
10
10
10
10
10
10
10
10
10
10
10
10
10
10
10
10
10
10
10
10
10
10
10
10
10
10
10
10
10
10
10
10
10
10
10
10
10
10
10
10
10
10
10
10
10
10
10
10
10
10
10
10
10
10
10
10
10
10
10
10
10
10
10
10
10
10
10
10
10
10
10
10
10
10
10
10
10
10
10
10
10
10
10
10
10
10
10
10
10
10
10
10
10
10
10
10
10
10
10
10
10
10
10
10
10
10
10
10
10
10
10
10
10
10
10
10
10
10
10
10
10
10
10
10
10
10
10
10
10
10
10
10
10
10
10
10
10
10
10
10
10
10
10
10
10
10
10
10
10
10
10
10
10
10
10
10
10
10
10
10
10
10
10
10
10
10
10
10
10
10
10
10
10
10
10
10
10
10
10
10
10
10
10
10
10
10
10
10
10
10
10
10
10
10
10
10
10
10
10
10
10
10
10
10
10
10
10
10
10
10
10
10
10
10
10
10
10
10
10
10
10
10
10
10
10
10
10
10
10
10
10
10
10
10
10
10
10
10
10
10
10
10
10
10
10
10
10
10
10
10
10
10
10
10
10
10
10
10
10
10
10
10
10
10
10
10
10
10
10
10
10
10
10
10
10
10
10
10
10
10
10
10
10
10
10
10
10
10
10
10
10
10
10
10
10
10
10
10
10
10
10
10
10
10
10
10
10
10
10
10
10
10
10
10
10
10
10
10
10
10
10
10
10
10
10
10
10
10
10
10
10
10
10
10
10
10
10
10
10
10
10
10
10
10
10
10
10
10
10
10
10
10
10
10
10
10
10
10
10
10
10
10
10
10
10
10
10
10
10
10
10
10
10
10
10
10
10
10
10
10
10
10
10
10
10
10
10
10
10
10
10
10
10
10
10
10
10
10
10
10
10
10
10
10
10
10
10
10
10
10
10
10
10
10
10
10
10
10
10
10
10
10
10
10
10
10
10
10
10
10
10
10
10
10
10
10
10
10
10
10
10
10
10
10
10
10
10
10
10
10
10
10
10
10
10
10
10
10
10
10
10
10
10
10
10
10
10
10
10
10
10
10
10
10
10
10
10
10
10
10
10
10
10
10
10
10
10
10
10
10
10
10
10
10
10
10
10
10
10
10
10
10
10
10
10
10
10
10
10
10
10
10
10
10
10
10
10
10
10
10
10
10
10
10
10
10
10
10
10
10
10
10
10
10
10
10
10
10
10
10
10
10
10
10
10
10
10
10
10
10
10
10
10
10
10
10
10
10
10
10
10
10
10
10
10
10
10
10
10
10
10
10
10
10
10
10
10
10
10
10
10
10
10
10
10
10
10
10
10
10
10
10
10
10
10
10
10
10
10
10
10
10
10
10
10
10
10
10
10
10
10
10
10
10
10
10
10
10
10
10
10
10
10
10
10
10
10
10
10
10
10
10
10
10
10
10
10
10
10
10
10
10
10
10
10
10
10
10
10
10
10
10
10
10
10
10
10
10
10
10
10
10
10
10
10
10
10
10
10
10
10
10
10
10
10
10
10
10
10
10
10
10
10
10
10
10
10
10
10
10
10
10
10
10
10
10
10
10
10
10
10
10
10
10
10
10
10
10
10
10
10
10
10
10
10
10
10
10
10
10
10
10
10
10
10
10
10
10
10
10
10
10
10
10
10
10
10
10
10
10
10
10
10
10
10
10
10
10
10
10
10
10
10
10
10
10
10
10
10
10
10
10
10
10
10
10
10
10
10
10
10
10
10
10
10
10
10
10
10
10
10
10
10
10
10
10
10
10
10
10
10
10
10
10
10
10
10
10
10
10
10
10
10
10
10
10
10
10
10
10
10
10
10
10
10
10
10
10
10
10
10
10
10
10
10
10
10
10
10
10
10
10
10
10
10
10
10
10
10
10
10
10
10
10
10
10
10
10
10
10
10
10
10
10
10
10
10
10
10
10
10
10
10
10
10
10
10
10
10
10
10
10
10
10
10
10
10
10
10
10
10
10
10
10
10
10
10
10
10
10
10
10
10
10
10
10
10
10
10
10
10
10
10
10
10
10
10
10
10
10
10
10
10
10
10
10
10
10
10
10
10
10
10
10
10
10
10
10
10
10
10
10
10
10
10
10
10
10
10
10
10
10
10
10
10
10
10
10
10
10
10
10
10
10
10
10
10
10
10
10
10
10
10
10
10
10
10
10
10
10
10
10
10
10
10
10
10
10
10
10
10
10
10
10
10
10
10
10
10
10
10
10
10
10
10
10
10
10
10
10
10
10
10
10
10
10
10
10
10
10
10
10
10
10
10
10
10
10
10
10
10
10
10
10
10
10
10
10
10
10
10
10
10
10
10
10
10
10
10
10
10
10
10
10
10
10
10
10
10
10
10
10
10
10
10
10
10
10
10
10
10
10
10
10
10
10
10
10
10
10
10
10
10
10
10
10
10
10
10
10
10
10
10
10
10
10
10
10
10
10
10
10
10
10
10
10
10
10
10
10
10
10
10
10
10
10
10
10
10
10
10
10
10
10
10
10
10
10
10
10
10
10
10
10
10
10
10
10
10
10
10
10
10
10
10
10
10
10
10
10
10
10
10
10
10
10
10
10
10
10
10
10
10
10
10
10
10
10
10
10
10
10
10
10
10
10
10
10
10
10
10
10
10
10
10
10
10
10
10
10
10
10
10
10
10
10
10
10
10
10
10
10
10
10
10
10
10
10
10
10
10
10
10
10
10
10
10
10
10
10
10
10
10
10
10
10
10
10
10
10
10
10
10
10
10
10
10
10
10
10
10
10
10
10
10
10
10
10
10
10
10
10
10
10
10
10
10
10
10
10
10
10
10
10
10
10
10
10
10
10
10
10
10
10
10
10
10
10
10
10
10
10
10
10
10
10
10
10
10
10
10
10
10
10
10
10
10
10
10
10
10
10
10
10
10
10
10
10
10
10
10
10
10
10
10
10
10
10
10
10
10
10
10
10
10
10
10
10
10
10
10
10
10
10
10
10
10
10
10
10
10
10
10
10
10
10
10
10
10
10
10
10
10
10
10
10
10
10
10
10
10
10
10
10
10
10
10
10
10
10
10
10
10
10
10
10
10
10
10
10
10
10
10
10
10
10
10
10
10
10
10
10
10
10
10
10
10
10
10
10
10
10
10
10
10
10
10
10
10
10
10
10
10
10
10
10
10
10
10
10
10
10
10
10
10
10
10
10
10
10
10
10
10
10
10
10
10
10
10
10
10
10
10
10
10
10
10
10
10
10
10
10
10
10
10
10
10
10
10
10
10
10
10
10
10
10
10
10
10
10
10
10
10
10
10
10
10
10
10
10
10
10
10
10
10
10
10
10
10
10
10
10
10
10
10
10
10
10
10
10
10
10
10
10
10
10
10
10
10
10
10
10
10
10
10
10
10
10
10
10
10
10
10
10
10
10
10
10
10
10
10
10
10
10
10
10
10
10
10
10
10
10
10
10
10
10
10
10
10
10
10
10
10
10
10
10
10
10
10
10
10
10
10
10
10
10
10
10
10
10
10
10
10
10
10
10
10
10
10
10
10
10
10
10
10
10
10
10
10
10
10
10
10
10
10
10
10
10
10
10
10
10
10
10
10
10
10
10
10
10
10
10
10
10
10
10
10
10
10
10
10
10
10
10
10
10
10
10
10
10
10
10
10
10
10
10
10
10
10
10
10
10
10
10
10
10
10
10
10
10
10
10
10
10
10
10
10
10
10
10
10
10
10
10
10
10
10
10
10
10
10
10
10
10
10
10
10
10
10
10
10
10
10
10
10
10
10
10
10
10
10
10
10
10
10
10
10
10
10
10
10
10
10
10
10
10
10
10
10
10
10
10
10
10
10
10
10
10
10
10
10
10
10
10
10
10
10
10
10
10
10
10
10
10
10
10
10
10
10
10
10
10
10
10
10
10
10
10
10
10
10
10
10
10
10
10
10
10
10
10
10
10
10
10
10
10
10
10
10
10
10
10
10
10
10
10
10
10
10
10
10
10
10
10
10
10
10
10
10
10
10
10
10
10
10
10
10
10
10
10
10
10
10
10
10
10
10
10
10
10
10
10
10
10
10
10
10
10
10
10
10
10
10
10
10
10
10
10
10
10
10
10
10
10
10
10
10
10
10
10
10
10
10
10
10
10
10
10
10
10
10
10
10
10
10
10
10
10
10
10
10
10
10
10
10
10
10
10
10
10
10
10
10
10
10
10
10
10
10
10
10
10
10
10
10
10
10
10
10
10
10
10
10
10
10
10
10
10
10
10
10
10
10
10
10
10
10
10
10
10
10
10
10
10
10
10
10
10
10
10
10
10
10
10
10
10
10
10
10
10
10
10
10
10
10
10
10
10
10
10
10
10
10
10
10
10
10
10
10
10
10
10
10
10
10
10
10
10
10
10
10
10
10
10
10
10
10
10
10
10
10
10
10
10
10
10
10
10
10
10
10
10
10
10
10
10
10
10
10
10
10
10
10
10
10
10
10
10
10
10
10
10
10
10
10
10
10
10
10
10
10
10
10
10
10
10
10
10
10
10
10
10
10
10
10
10
10
10
10
10
10
10
10
10
10
10
10
10
10
10
10
10
10
10
10
10
10
10
10
10
10
10
10
10
10
10
10
10
10
10
10
10
10
10
10
10
10
10
10
10
10
10
10
10
10
10
10
10
10
10
10
10
10
10
10
10
10
10
10
10
10
10
10
10
10
10
10
10
10
10
10
10
10
10
10
10
10
10
10
10
10
10
10
10
10
10
10
10
10
10
10
10
10
10
10
10
10
10
10
10
10
10
10
10
10
10
10
10
10
10
10
10
10
10
10
10
10
10
10
10
10
10
10
10
10
10
10
10
10
10
10
10
10
10
10
10
10
10
10
10
10
10
10
10
10
10
10
10
10
10
10
10
10
10
10
10
10
10
10
10
10
10
10
10
10
10
10
10
10
10
10
10
10
10
10
10
10
10
10
10
10
10
10
10
10
10
10
10
10
10
10
10
10
10
10
10
10
10
10
10
10
10
10
10
10
10
10
10
10
10
10
10
10
10
10
10
10
10
10
10
10
10
10
10
10
10
10
10
10
10
10
10
10
10
10
10
10
10
10
10
10
10
10
10
10
10
10
10
10
10
10
10
10
10
10
10
10
10
10
10
10
10
10
10
10
10
10
10
10
10
10
10
10
10
10
10
10
10
10
10
10
10
10
10
10
10
10
10
10
10
10
10
10
10
10
10
10
10
10
10
10
10
10
10
10
10
10
10
10
10
10
10
10
10
10
10
10
10
10
10
10
10
10
10
10
10
10
10
10
10
10
10
10
10
10
10
10
10
10
10
10
10
10
10
10
10
10
10
10
10
10
10
10
10
10
10
10
10
10
10
10
10
10
10
10
10
10
10
10
10
10
10
10
10
10
10
10
10
10
10
10
10
10
10
10
10
10
10
10
10
10
10
10
10
10
10
10
10
10
10
10
10
10
10
10
10
10
10
10
10
10
10
10
10
10
10
10
10
10
10
10
10
10
10
10
10
10
10
10
10
10
10
10
10
10
10
10
10
10
10
10
10
10
10
10
10
10
10
10
10
10
10
10
10
10
10
10
10
10
10
10
10
10
10
10
10
10
10
10
10
10
10
10
10
10
10
10
10
10
10
10
10
10
10
10
10
10
10
10
10
10
10
10
10
10
10
10
10
10
10
10
10
10
10
10
10
10
10
10
10
10
10
10
10
10
10
10
10
10
10
10
10
10
10
10
10
10
10
10
10
10
10
10
10
10
10
10
10
10
10
10
10
10
10
10
10
10
10
10
10
10
10
10
10
10
10
10
10
10
10
10
10
10
10
10
10
10
10
10
10
10
10
10
10
10
10
10
10
10
10
10
10
10
10
10
10
10
10
10
10
10
10
10
10
10
10
10
10
10
10
10
10
10
10
10
10
10
10
10
10
10
10
10
10
10
10
10
10
10
10
10
10
10
10
10
10
10
10
10
10
10
10
10
10
10
10
10
10
10
10
10
10
10
10
10
10
10
10
10
10
10
10
10
10
10
10
10
10
10
10
10
10
10
10
10
10
10
10
10
10
10
10
10
10
10
10
10
10
10
10
10
10
10
10
10
10
10
10
10
10
10
10
10
10
10
10
10
10
10
10
10
10
10
10
10
10
10
10
10
10
10
10
10
10
10
10
10
10
10
10
10
10
10
10
10
10
10
10
10
10
10
10
10
10
10
10
10
10
10
10
10
10
10
10
10
10
10
10
10
10
10
10
10
10
10
10
10
10
10
10
10
10
10
10
10
10
10
10
10
10
10
10
10
10
10
10
10
10
10
10
10
10
10
10
10
10
10
10
10
10
10
10
10
10
10
10
10
10
10
10
10
10
10
10
10
10
10
10
10
10
10
10
10
10
10
10
10
10
10
10
10
10
10
10
10
10
10
10
10
10
10
10
10
10
10
10
10
10
10
10
10
10
10
10
10
10
10
10
10
10
10
10
10
10
10
10
10
10
10
10
10
10
10
10
10
10
10
10
10
10
10
10
10
10
10
10
10
10
10
10
10
10
10
10
10
10
10
10
10
10
10
10
10
10
10
10
10
10
10
10
10
10
10
10
10
10
10
10
10
10
10
10
10
10
10
10
10
10
10
10
10
10
10
10
10
10
10
10
10
10
10
10
10
10
10
10
10
10
10
10
10
10
10
10
10
10
10
10
10
10
10
10
10
10
10
10
10
10
10
10
10
10
10
10
10
10
10
10
10
10
10
10
10
10
10
10
10
10
10
10
10
10
10
10
10
10
10
10
10
10
10
10
10
10
10
10
10
10
10
10
10
10
10
10
10
10
10
10
10
10
10
10
10
10
10
10
10
10
10
10
10
10
10
10
10
10
10
10
10
10
10
10
10
10
10
10
10
10
10
10
10
10
10
10
10
10
10
10
10
10
10
10
10
10
10
10
10
10
10
10
10
10
10
10
10
10
10
10
10
10
10
10
10
10
10
10
10
10
10
10
10
10
10
10
10
10
10
10
10
10
10
10
10
10
10
10
10
10
10
10
10
10
10
10
10
10
10
10
10
10
10
10
10
10
10
10
10
10
10
10
10
10
10
10
10
10
10
10
10
10
10
10
10
10
10
10
10
10
10
10
10
10
10
10
10
10
10
10
10
10
10
10
10
10
10
10
10
10
10
10
10
10
10
10
10
10
10
10
10
10
10
10
10
10
10
10
10
10
10
10
10
10
10
10
10
10
10
10
10
10
10
10
10
10
10
10
10
10
10
10
10
10
10
10
10
10
10
10
10
10
10
10
10
10
10
10
10
10
10
10
10
10
10
10
10
10
10
10
10
10
10
10
10
10
10
10
10
10
10
10
10
10
10
10
10
10
10
10
10
10
10
10
10
10
10
10
10
10
10
10
10
10
10
10
10
10
10
10
10
10
10
10
10
10
10
10
10
10
10
10
10
10
10
10
10
10
10
10
10
10
10
10
10
10
10
10
10
10
10
10
10
10
10
10
10
10
10
10
10
10
10
10
10
10
10
10
10
10
10
10
10
10
10
10
10
10
10
10
10
10
10
10
10
10
10
10
10
10
10
10
10
10
10
10
10
10
10
10
10
10
10
10
10
10
10
10
10
10
10
10
10
10
10
10
10
10
10
10
10
10
10
10
10
10
10
10
10
10
10
10
10
10
10
10
10
10
10
10
10
10
10
10
10
10
10
10
10
10
10
10
10
10
10
10
10
10
10
10
10
10
10
10
10
10
10
10
10
10
10
10
10
10
10
10
10
10
10
10
10
10
10
10
10
10
10
10
10
10
10
10
10
10
10
10
10
10
10
10
10
10
10
10
10
10
10
10
10
10
10
10
10
10
10
10
10
10
10
10
10
10
10
10
10
10
10
10
10
10
10
10
10
10
10
10
10
10
10
10
10
10
10
10
10
10
10
10
10
10
10
10
10
10
10
10
10
10
10
10
10
10
10
10
10
10
10
10
10
10
10
10
10
10
10
10
10
10
10
10
10
10
10
10
10
10
10
10
10
10
10
10
10
10
10
10
10
10
10
10
10
10
10
10
10
10
10
10
10
10
10
10
10
10
10
10
10
10
10
10
10
10
10
10
10
10
10
10
10
10
10
10
10
10
10
10
10
10
10
10
10
10
10
10
10
10
10
10
10
10
10
10
10
10
10
10
10
10
10
10
10
10
10
10
10
10
10
10
10
10
10
10
10
10
10
10
10
10
10
10
10
10
10
10
10
10
10
10
10
10
10
10
10
10
10
10
10
10
10
10
10
10
10
10
10
10
10
10
10
10
10
10
10
10
10
10
10
10
10
10
10
10
10
10
10
10
10
10
10
10
10
10
10
10
10
10
10
10
10
10
10
10
10
10
10
10
10
10
10
10
10
10
10
10
10
10
10
10
10
10
10
10
10
10
10
10
10
10
10
10
10
10
10
10
10
10
10
10
10
10
10
10
10
10
10
10
10
10
10
10
10
10
10
10
10
10
10
10
10
10
10
10
10
10
10
10
10
10
10
10
10
10
10
10
10
10
10
10
10
10
10
10
10
10
10
10
10
10
10
10
10
10
10
10
10
10
10
10
10
10
10
10
10
10
10
10
10
10
10
10
10
10
10
10
10
10
10
10
10
10
10
10
10
10
10
10
10
10
10
10
10
10
10
10
10
10
10
10
10
10
10
10
10
10
10
10
10
10
10
10
10
10
10
10
10
10
10
10
10
10
10
10
10
10
10
10
10
10
10
10
10
10
10
10
10
10
10
10
10
10
10
10
10
10
10
10
10
10
10
10
10
10
10
10
10
10
10
10
10
10
10
10
10
10
10
10
10
10
10
10
10
10
10
10
10
10
10
10
10
10
10
10
10
10
10
10
10
10
10
10
10
10
10
10
10
10
10
10
10
10
10
10
10
10
10
10
10
10
10
10
10
10
10
10
10
10
10
10
10
10
10
10
10
10
10
10
10
10
10
10
10
10
10
10
10
10
10
10
10
10
10
10
10
10
10
10
10
10
10
10
10
10
10
10
10
10
10
10
10
10
10
10
10
10
10
10
10
10
10
10
10
10
10
10
10
10
10
10
10
10
10
10
10
10
10
10
10
10
10
10
10
10
10
10
10
10
10
10
10
10
10
10
10
10
10
10
10
10
10
10
10
10
10
10
10
10
10
10
10
10
10
10
10
10
10
10
10
10
10
10
10
10
10
10
10
10
10
10
10
10
10
10
10
10
10
10
10
10
10
10
10
10
10
10
10
10
10
10
10
10
10
10
10
10
10
10
10
10
10
10
10
10
10
10
10
10
10
10
10
10
10
10
10
10
10
10
10
10
10
10
10
10
10
10
10
10
10
10
10
10
10
10
10
10
10
10
10
10
10
10
10
10
10
10
10
10
10
10
10
10
10
10
10
10
10
10
10
10
10
10
10
10
10
10
10
10
10
10
10
10
10
10
10
10
10
10
10
10
10
10
10
10
10
10
10
10
10
10
10
10
10
10
10
10
10
10
10
10
10
10
10
10
10
10
10
10
10
10
10
10
10
10
10
10
10
10
10
10
10
10
10
10
10
10
10
10
10
10
10
10
10
10
10
10
10
10
10
10
10
10
10
10
10
10
10
10
10
10
10
10
10
10
10
10
10
10
10
10
10
10
10
10
10
10
10
10
10
10
10
10
10
10
10
10
10
10
10
10
10
10
10
10
10
10
10
10
10
10
10
10
10
10
10
10
10
10
10
10
10
10
10
10
10
10
10
10
10
10
10
10
10
10
10
10
10
10
10
10
10
10
10
10
10
10
10
10
10
10
10
10
10
10
10
10
10
10
10
10
10
10
10
10
10
10
10
10
10
10
10
10
10
10
10
10
10
10
10
10
10
10
10
10
10
10
10
10
10
10
10
10
10
10
10
10
10
10
10
10
10
10
10
10
10
10
10
10
10
10
10
10
10
10
10
10
10
10
10
10
10
10
10
10
10
10
10
10
10
10
10
10
10
10
10
10
10
10
10
10
10
10
10
10
10
10
10
10
10
10
10
10
10
10
10
10
10
10
10
10
10
10
10
10
10
10
10
10
10
10
10
10
10
10
10
10
10
10
10
10
10
10
10
10
10
10
10
10
10
10
10
10
10
10
10
10
10
10
10
10
10
10
10
10
10
10
10
10
10
10
10
10
10
10
10
10
10
10
10
10
10
10
10
10
10
10
10
10
10
10
10
10
10
10
10
10
10
10
10
10
10
10
10
10
10
10
10
10
10
10
10
10
10
10
10
10
10
10
10
10
10
10
10
10
10
10
10
10
10
10
10
10
10
10
10
10
10
10
10
10
10
10
10
10
10
10
10
10
10
10
10
10
10
10
10
10
10
10
10
10
10
10
10
10
10
10
10
10
10
10
10
10
10
10
10
10
10
10
10
10
10
10
10
10
10
10
10
10
10
10
10
10
10
10
10
10
10
10
10
10
10
10
10
10
10
10
10
10
10
10
10
10
10
10
10
10
10
10
10
10
10
10
10
10
10
10
10
10
10
10
10
10
10
10
10
10
10
10
10
10
10
10
10
10
10
10
10
10
10
10
10
10
10
10
10
10
10
10
10
10
10
10
10
10
10
10
10
10
10
10
10
10
10
10
10
10
10
10
10
10
10
10
10
10
10
10
10
10
10
10
10
10
10
10
10
10
10
10
10
10
10
10
10
10
10
10
10
10
10
10
10
10
10
10
10
10
10
10
10
10
10
10
10
10
10
10
10
10
10
10
10
10
10
10
10
10
10
10
10
10
10
10
10
10
10
10
10
10
10
10
10
10
10
10
10
10
10
10
10
10
10
10
10
10
10
10
10
10
10
10
10
10
10
10
10
10
10
10
10
10
10
10
10
10
10
10
10
10
10
10
10
10
10
10
10
10
10
10
10
10
10
10
10
10
10
10
10
10
10
10
10
10
10
10
10
10
10
10
10
10
10
10
10
10
10
10
10
10
10
10
10
10
10
10
10
10
10
10
10
10
10
10
10
10
10
10
10
10
10
10
10
10
10
10
10
10
10
10
10
10
10
10
10
10
10
10
10
10
10
10
10
10
10
10
10
10
10
10
10
10
10
10
10
10
10
10
10
10
10
10
10
10
10
10
10
10
10
10
10
10
10
10
10
10
10
10
10
10
10
10
10
10
10
10
10
10
10
10
10
10
10
10
10
10
10
10
10
10
10
10
10
10
10
10
10
10
10
10
10
10
10
10
10
10
10
10
10
10
10
10
10
10
10
10
10
10
10
10
10
10
10
10
10
10
10
10
10
10
10
10
10
10
10
10
10
10
10
10
10
10
10
10
10
10
10
10
10
10
10
10
10
10
10
10
10
10
10
10
10
10
10
10
10
10
10
10
10
10
10
10
10
10
10
10
10
10
10
10
10
10
10
10
10
10
10
10
10
10
10
10
10
10
10
10
10
10
10
10
10
10
10
10
10
10
10
10
10
10
10
10
10
10
10
10
10
10
10
10
10
10
10
10
10
10
10
10
10
10
10
10
10
10
10
10
10
10
10
10
10
10
10
10
10
10
10
10
10
10
10
10
10
10
10
10
10
10
10
10
10
10
10
10
10
10
10
10
10
10
10
10
10
10
10
10
10
10
10
10
10
10
10
10
10
10
10
10
10
10
10
10
10
10
10
10
10
10
10
10
10
10
10
10
10
10
10
10
10
10
10
10
10
10
10
10
10
10
10
10
10
10
10
10
10
10
10
10
10
10
10
10
10
10
10
10
10
10
10
10
10
10
10
10
10
10
10
10
10
10
10
10
10
10
10
10
10
10
10
10
10
10
10
10
10
10
10
10
10
10
10
10
10
10
10
10
10
10
10
10
10
10
10
10
10
10
10
10
10
10
10
10
10
10
10
10
10
10
10
10
10
10
10
10
10
10
10
10
10
10
10
10
10
10
10
10
10
10
10
10
10
10
10
10
10
10
10
10
10
10
10
10
10
10
10
10
10
10
10
10
10
10
10
10
10
10
10
10
10
10
10
10
10
10
10
10
10
10
10
10
10
10
10
10
10
10
10
10
10
10
10
10
10
10
10
10
10
10
10
10
10
10
10
10
10
10
10
10
10
10
10
10
10
10
10
10
10
10
10
10
10
10
10
10
10
10
10
10
10
10
10
10
10
10
10
10
10
10
10
10
10
10
10
10
10
10
10
10
10
10
10
10
10
10
10
10
10
10
10
10
10
10
10
10
10
10
10
10
10
10
10
10
10
10
10
10
10
10
10
10
10
10
10
10
10
10
10
10
10
10
10
10
10
10
10
10
10
10
10
10
10
10
10
10
10
10
10
10
10
10
10
10
10
10
10
10
10
10
10
10
10
10
10
10
10
10
10
10
10
10
10
10
10
10
10
10
10
10
10
10
10
10
10
10
10
10
10
10
10
10
10
10
10
10
10
10
10
10
10
10
10
10
10
10
10
10
10
10
10
10
10
10
10
10
10
10
10
10
10
10
10
10
10
10
10
10
10
10
10
10
10
10
10
10
10
10
10
10
10
10
10
10
10
10
10
10
10
10
10
10
10
10
10
10
10
10
10
10
10
10
10
10
10
10
10
10
10
10
10
10
10
10
10
10
10
10
10
10
10
10
10
10
10
10
10
10
10
10
10
10
10
10
10
10
10
10
10
10
10
10
10
10
10
10
10
10
10
10
10
10
10
10
10
10
10
10
10
10
10
10
10
10
10
10
10
10
10
10
10
10
10
10
10
10
10
10
10
10
10
10
10
10
10
10
10
10
10
10
10
10
10
10
10
10
10
10
10
10
10
10
10
10
10
10
10
10
10
10
10
10
10
10
10
10
10
10
10
10
10
10
10
10
10
10
10
10
10
10
10
10
10
10
10
10
10
10
10
10
10
10
10
10
10
10
10
10
10
10
10
10
10
10
10
10
10
10
10
10
10
10
10
10
10
10
10
10
10
10
10
10
10
10
10
10
10
10
10
10
10
10
10
10
10
10
10
10
10
10
10
10
10
10
10
10
10
10
10
10
10
10
10
10
10
10
10
10
10
10
10
10
10
10
10
10
10
10
10
10
10
10
10
10
10
10
10
10
10
10
10
10
10
10
10
10
10
10
10
10
10
10
10
10
10
10
10
10
10
10
10
10
10
10
10
10
10
10
10
10
10
10
10
10
10
10
10
10
10
10
10
10
10
10
10
10
10
10
10
10
10
10
10
10
10
10
10
10
10
10
10
10
10
10
10
10
10
10
10
10
10
10
10
10
10
10
10
10
10
10
10
10
10
10
10
10
10
10
10
10
10
10
10
10
10
10
10
10
10
10
10
10
10
10
10
10
10
10
10
10
10
10
10
10
10
10
10
10
10
10
10
10
10
10
10
10
10
10
10
10
10
10
10
10
10
10
10
10
10
10
10
10
10
10
10
10
10
10
10
10
10
10
10
10
10
10
10
10
10
10
10
10
10
10
10
10
10
10
10
10
10
10
10
10
10
10
10
10
10
10
10
10
10
10
10
10
10
10
10
10
10
10
10
10
10
10
10
10
10
10
10
10
10
10
10
10
10
10
10
10
10
10
10
10
10
10
10
10
10
10
10
10
10
10
10
10
10
10
10
10
10
10
10
10
10
10
10
10
10
10
10
10
10
10
10
10
10
10
10
10
10
10
10
10
10
10
10
10
10
10
10
10
10
10
10
10
10
10
10
10
10
10
10
10
10
10
10
10
10
10
10
10
10
10
10
10
10
10
10
10
10
10
10
10
10
10
10
10
10
10
10
10
10
10
10
10
10
10
10
10
10
10
10
10
10
10
10
10
10
10
10
10
10
10
10
10
10
10
10
10
10
10
10
10
10
10
10
10
10
10
10
10
10
10
10
10
10
10
10
10
10
10
10
10
10
10
10
10
10
10
10
10
10
10
10
10
10
10
10
10
10
10
10
10
10
10
10
10
10
10
10
10
10
10
10
10
10
10
10
10
10
10
10
10
10
10
10
10
10
10
10
10
10
10
10
10
10
10
10
10
10
10
10
10
10
10
10
10
10
10
10
10
10
10
10
10
10
10
10
10
10
10
10
10
10
10
10
10
10
10
10
10
10
10
10
10
10
10
10
10
10
10
10
10
10
10
10
10
10
10
10
10
10
10
10
10
10
10
10
10
10
10
10
10
10
10
10
10
10
10
10
10
10
10
10
10
10
10
10
10
10
10
10
10
10
10
10
10
10
10
10
10
10
10
10
10
10
10
10
10
10
10
10
10
10
10
10
10
10
10
10
10
10
10
10
10
10
10
10
10
10
10
10
10
10
10
10
10
10
10
10
10
10
10
10
10
10
10
10
10
10
10
10
10
10
10
10
10
10
10
10
10
10
10
10
10
10
10
10
10
10
10
10
10
10
10
10
10
10
10
10
10
10
10
10
10
10
10
10
10
10
10
10
10
10
10
10
10
10
10
10
10
10
10
10
10
10
10
10
10
10
10
10
10
10
10
10
10
10
10
10
10
10
10
10
10
10
10
10
10
10
10
10
10
10
10
10
10
10
10
10
10
10
10
10
10
10
10
10
10
10
10
10
10
10
10
10
10
10
10
10
10
10
10
10
10
10
10
10
10
10
10
10
10
10
10
10
10
10
10
10
10
10
10
10
10
10
10
10
10
10
10
10
10
10
10
10
10
10
10
10
10
10
10
10
10
10
10
10
10
10
10
10
10
10
10
10
10
10
10
10
10
10
10
10
10
10
10
10
10
10
10
10
10
10
10
10
10
10
10
10
10
10
10
10
10
10
10
10
10
10
10
10
10
10
10
10
10
10
10
10
10
10
10
10
10
10
10
10
10
10
10
10
10
10
10
10
10
10
10
10
10
10
10
10
10
10
10
10
10
10
10
10
10
10
10
10
10
10
10
10
10
10
10
10
10
10
10
10
10
10
10
10
10
10
10
10
10
10
10
10
10
10
10
10
10
10
10
10
10
10
10
10
10
10
10
10
10
10
10
10
10
10
10
10
10
10
10
10
10
10
10
10
10
10
10
10
10
10
10
10
10
10
10
10
10
10
10
10
10
10
10
10
10
10
10
10
10
10
10
10
10
10
10
10
10
10
10
10
10
10
10
10
10
10
10
10
10
10
10
10
10
10
10
10
10
10
10
10
10
10
10
10
10
10
10
10
10
10
10
10
10
10
10
10
10
10
10
10
10
10
10
10
10
10
10
10
10
10
10
10
10
10
10
10
10
10
10
10
10
10
10
10
10
10
10
10
10
10
10
10
10
10
10
10
10
10
10
10
10
10
10
10
10
10
10
10
10
10
10
10
10
10
10
10
10
10
10
10
10
10
10
10
10
10
10
10
10
10
10
10
10
10
10
10
10
10
10
10
10
10
10
10
10
10
10
10
10
10
10
10
10
10
10
10
10
10
10
10
10
10
10
10
10
10
10
10
10
10
10
10
10
10
10
10
10
10
10
10
10
10
10
10
10
10
10
10
10
10
10
10
10
10
10
10
10
10
10
10
10
10
10
10
10
10
10
10
10
10
10
10
10
10
10
10
10
10
10
10
10
10
10
10
10
10
10
10
10
10
10
10
10
10
10
10
10
10
10
10
10
10
10
10
10
10
10
10
10
10
10
10
10
10
10
10
10
10
10
10
10
10
10
10
10
10
10
10
10
10
10
10
10
10
10
10
10
10
10
10
10
10
10
10
10
10
10
10
10
10
10
10
10
10
10
10
10
10
10
10
10
10
10
10
10
10
10
10
10
10
10
10
10
10
10
10
10
10
10
10
10
10
10
10
10
10
10
10
10
10
10
10
10
10
10
10
10
10
10
10
10
10
10
10
10
10
10
10
10
10
10
10
10
10
10
10
10
10
10
10
10
10
10
10
10
10
10
10
10
10
10
10
10
10
10
10
10
10
10
10
10
10
10
10
10
10
10
10
10
10
10
10
10
10
10
10
10
10
10
10
10
10
10
10
10
10
10
10
10
10
10
10
10
10
10
10
10
10
10
10
10
10
10
10
10
10
10
10
10
10
10
10
10
10
10
10
10
10
10
10
10
10
10
10
10
10
10
10
10
10
10
10
10
10
10
10
10
10
10
10
10
10
10
10
10
10
10
10
10
10
10
10
10
10
10
10
10
10
10
10
10
10
10
10
10
10
10
10
10
10
10
10
10
10
10
10
10
10
10
10
10
10
10
10
10
10
10
10
10
10
10
10
10
10
10
10
10
10
10
10
10
10
10
10
10
10
10
10
10
10
10
10
10
10
10
10
10
10
10
10
10
10
10
10
10
10
10
10
10
10
10
10
10
10
10
10
10
10
10
10
10
10
10
10
10
10
10
10
10
10
10
10
10
10
10
10
10
10
10
10
10
10
10
10
10
10
10
10
10
10
10
10
10
10
10
10
10
10
10
10
10
10
10
10
10
10
10
10
10
10
10
10
10
10
10
10
10
10
10
10
10
10
10
10
10
10
10
10
10
10
10
10
10
10
10
10
10
10
10
10
10
10
10
10
10
10
10
10
10
10
10
10
10
10
10
10
10
10
10
10
10
10
10
10
10
10
10
10
10
10
10
10
10
10
10
10
10
10
10
10
10
10
10
10
10
10
10
10
10
10
10
10
10
10
10
10
10
10
10
10
10
10
10
10
10
10
10
10
10
10
10
10
10
10
10
10
10
10
10
10
10
10
10
10
10
10
10
10
10
10
10
10
10
10
10
10
10
10
10
10
10
10
10
10
10
10
10
10
10
10
10
10
10
10
10
10
10
10
10
10
10
10
10
10
10
10
10
10
10
10
10
10
10
10
10
10
10
10
10
10
10
10
10
10
10
10
10
10
10
10
10
10
10
10
10
10
10
10
10
10
10
10
10
10
10
10
10
10
10
10
10
10
10
10
10
10
10
10
10
10
10
10
10
10
10
10
10
10
10
10
10
10
10
10
10
10
10
10
10
10
10
10
10
10
10
10
10
10
10
10
10
10
10
10
10
10
10
10
10
10
10
10
10
10
10
10
10
10
10
10
10
10
10
10
10
10
10
10
10
10
10
10
10
10
10
10
10
10
10
10
10
10
10
10
10
10
10
10
10
10
10
10
10
10
10
10
10
10
10
10
10
10
10
10
10
10
10
10
10
10
10
10
10
10
10
10
10
10
10
10
10
10
10
10
10
10
10
10
10
10
10
10
10
10
10
10
10
10
10
10
10
10
10
10
10
10
10
10
10
10
10
10
10
10
10
10
10
10
10
10
10
10
10
10
10
10
10
10
10
10
10
10
10
10
10
10
10
10
10
10
10
10
10
10
10
10
10
10
10
10
10
10
10
10
10
10
10
10
10
10
10
10
10
10
10
10
10
10
10
10
10
10
10
10
10
10
10
10
10
10
10
10
10
10
10
10
10
10
10
10
10
10
10
10
10
10
10
10
10
10
10
10
10
10
10
10
10
10
10
10
10
10
10
10
10
10
10
10
10
10
10
10
10
10
10
10
10
10
10
10
10
10
10
10
10
10
10
10
10
10
10
10
10
10
10
10
10
10
10
10
10
10
10
10
10
10
10
10
10
10
10
10
10
10
10
10
10
10
10
10
10
10
10
10
10
10
10
10
10
10
10
10
10
10
10
10
10
10
10
10
10
10
10
10
10
10
10
10
10
10
10
10
10
10
10
10
10
10
10
10
10
10
10
10
10
10
10
10
10
10
10
10
10
10
10
10
10
10
10
10
10
10
10
10
10
10
10
10
10
10
10
10
10
10
10
10
10
10
10
10
10
10
10
10
10
10
10
10
10
10
10
10
10
10
10
10
10
10
10
10
10
10
10
10
10
10
10
10
10
10
10
10
10
10
10
10
10
10
10
10
10
10
10
10
10
10
10
10
10
10
10
10
10
10
10
10
10
10
10
10
10
10
10
10
10
10
10
10
10
10
10
10
10
10
10
10
10
10
10
10
10
10
10
10
10
10
10
10
10
10
10
10
10
10
10
10
10
10
10
10
10
10
10
10
10
10
10
10
10
10
10
10
10
10
10
10
10
10
10
10
10
10
10
10
10
10
10
10
10
10
10
10
10
10
10
10
10
10
10
10
10
10
10
10
10
10
10
10
10
10
10
10
10
10
10
10
10
10
10
10
10
10
10
10
10
10
10
10
10
10
10
10
10
10
10
10
10
10
10
10
10
10
10
10
10
10
10
10
10
10
10
10
10
10
10
10
10
10
10
10
10
10
10
10
10
10
10
10
10
10
10
10
10
10
10
10
10
10
10
10
10
10
10
10
10
10
10
10
10
10
10
10
10
10
10
10
10
10
10
10
10
10
10
10
10
10
10
10
10
10
10
10
10
10
10
10
10
10
10
10
10
10
10
10
10
10
10
10
10
10
10
10
10
10
10
10
10
10
10
10
10
10
10
10
10
10
10
10
10
10
10
10
10
10
10
10
10
10
10
10
10
10
10
10
10
10
10
10
10
10
10
10
10
10
10
10
10
10
10
10
10
10
10
10
10
10
10
10
10
10
10
10
10
10
10
10
10
10
10
10
10
10
10
10
10
10
10
10
10
10
10
10
10
10
10
10
10
10
10
10
10
10
10
10
10
10
10
10
10
10
10
10
10
10
10
10
10
10
10
10
10
10
10
10
10
10
10
10
10
10
10
10
10
10
10
10
10
10
10
10
10
10
10
10
10
10
10
10
10
10
10
10
10
10
10
10
10
10
10
10
10
10
10
10
10
10
10
10
10
10
10
10
10
10
10
10
10
10
10
10
10
10
10
10
10
10
10
10
10
10
10
10
10
10
10
10
10
10
10
10
10
10
10
10
10
10
10
10
10
10
10
10
10
10
10
10
10
10
10
10
10
10
10
10
10
10
10
10
10
10
10
10
10
10
10
10
10
10
10
10
10
10
10
10
10
10
10
10
10
10
10
10
10
10
10
10
10
10
10
10
10
10
10
10
10
10
10
10
10
10
10
10
10
10
10
10
10
10
10
10
10
10
10
10
10
10
10
10
10
10
10
10
10
10
10
10
10
10
10
10
10
10
10
10
10
10
10
10
10
10
10
10
10
10
10
10
10
10
10
10
10
10
10
10
10
10
10
10
10
10
10
10
10
10
10
10
10
10
10
10
10
10
10
10
10
10
10
10
10
10
10
10
10
10
10
10
10
10
10
10
10
10
10
10
10
10
10
10
10
10
10
10
10
10
10
10
10
10
10
10
10
10
10
10
10
10
10
10
10
10
10
10
10
10
10
10
10
10
10
10
10
10
10
10
10
10
10
10
10
10
10
10
10
10
10
10
10
10
10
10
10
10
10
10
10
10
10
10
10
10
10
10
10
10
10
10
10
10
10
10
10
10
10
10
10
10
10
10
10
10
10
10
10
10
10
10
10
10
10
10
10
10
10
10
10
10
10
10
10
10
10
10
10
10
10
10
10
10
10
10
10
10
10
10
10
10
10
10
10
10
10
10
10
10
10
10
10
10
10
10
10
10
10
10
10
10
10
10
10
10
10
10
10
10
10
10
10
10
10
10
10
10
10
10
10
10
10
10
10
10
10
10
10
10
10
10
10
10
10
10
10
10
10
10
10
10
10
10
10
10
10
10
10
10
10
10
10
10
10
10
10
10
10
10
10
10
10
10
10
10
10
10
10
10
10
10
10
10
10
10
10
10
10
10
10
10
10
10
10
10
10
10
10
10
10
10
10
10
10
10
10
10
10
10
10
10
10
10
10
10
10
10
10
10
10
10
10
10
10
10
10
10
10
10
10
10
10
10
10
10
10
10
10
10
10
10
10
10
10
10
10
10
10
10
10
10
10
10
10
10
10
10
10
10
10
10
10
10
10
10
10
10
10
10
10
10
10
10
10
10
10
10
10
10
10
10
10
10
10
10
10
10
10
10
10
10
10
10
10
10
10
10
10
10
10
10
10
10
10
10
10
10
10
10
10
10
10
10
10
10
10
10
10
10
10
10
10
10
10
10
10
10
10
10
10
10
10
10
10
10
10
10
10
10
10
10
10
10
10
10
10
10
10
10
10
10
10
10
10
10
10
10
10
10
10
10
10
10
10
10
10
10
10
10
10
10
10
10
10
10
10
10
10
10
10
10
10
10
10
10
10
10
10
10
10
10
10
10
10
10
10
10
10
10
10
10
10
10
10
10
10
10
10
10
10
10
10
10
10
10
10
10
10
10
10
10
10
10
10
10
10
10
10
10
10
10
10
10
10
10
10
10
10
10
10
10
10
10
10
10
10
10
10
10
10
10
10
10
10
10
10
10
10
10
10
10
10
10
10
10
10
10
10
10
10
10
10
10
10
10
10
10
10
10
10
10
10
10
10
10
10
10
10
10
10
10
10
10
10
10
10
10
10
10
10
10
10
10
10
10
10
10
10
10
10
10
10
10
10
10
10
10
10
10
10
10
10
10
10
10
10
10
10
10
10
10
10
10
10
10
10
10
10
10
10
10
10
10
10
10
10
10
10
10
10
10
10
10
10
10
10
10
10
10
10
10
10
10
10
10
10
10
10
10
10
10
10
10
10
10
10
10
10
10
10
10
10
10
10
10
10
10
10
10
10
10
10
10
10
10
10
10
10
10
10
10
10
10
10
10
10
10
10
10
10
10
10
10
10
10
10
10
10
10
10
10
10
10
10
10
10
10
10
10
10
10
10
10
10
10
10
10
10
10
10
10
10
10
10
10
10
10
10
10
10
10
10
10
10
10
10
10
10
10
10
10
10
10
10
10
10
10
10
10
10
10
10
10
10
10
10
10
10
10
10
10
10
10
10
10
10
10
10
10
10
10
10
10
10
10
10
10
10
10
10
10
10
10
10
10
10
10
10
10
10
10
10
10
10
10
10
10
10
10
10
10
10
10
10
10
10
10
10
10
10
10
10
10
10
10
10
10
10
10
10
10
10
10
10
10
10
10
10
10
10
10
10
10
10
10
10
10
10
10
10
10
10
10
10
10
10
10
10
10
10
10
10
10
10
10
10
10
10
10
10
10
10
10
10
10
10
10
10
10
10
10
10
10
10
10
10
10
10
10
10
10
10
10
10
10
10
10
10
10
10
10
10
10
10
10
10
10
10
10
10
10
10
10
10
10
10
10
10
10
10
10
10
10
10
10
10
10
10
10
10
10
10
10
10
10
10
10
10
10
10
10
10
10
10
10
10
10
10
10
10
10
10
10
10
10
10
10
10
10
10
10
10
10
10
10
10
10
10
10
10
10
10
10
10
10
10
10
10
10
10
10
10
10
10
10
10
10
10
10
10
10
10
10
10
10
10
10
10
10
10
10
10
10
10
10
10
10
10
10
10
10
10
10
10
10
10
10
10
10
10
10
10
10
10
10
10
10
10
10
10
10
10
10
10
10
10
10
10
10
10
10
10
10
10
10
10
10
10
10
10
10
10
10
10
10
10
10
10
10
10
10
10
10
10
10
10
10
10
10
10
10
10
10
10
10
10
10
10
10
10
10
10
10
10
10
10
10
10
10
10
10
10
10
10
10
10
10
10
10
10
10
10
10
10
10
10
10
10
10
10
10
10
10
10
10
10
10
10
10
10
10
10
10
10
10
10
10
10
10
10
10
10
10
10
10
10
10
10
10
10
10
10
10
10
10
10
10
10
10
10
10
10
10
10
10
10
10
10
10
10
10
10
10
10
10
10
10
10
10
10
10
10
10
10
10
10
10
10
10
10
10
10
10
10
10
10
10
10
10
10
10
10
10
10
10
10
10
10
10
10
10
10
10
10
10
10
10
10
10
10
10
10
10
10
10
10
10
10
10
10
10
10
10
10
10
10
10
10
10
10
10
10
10
10
10
10
10
10
10
10
10
10
10
10
10
10
10
10
10
10
10
10
10
10
10
10
10
10
10
10
10
10
10
10
10
10
10
10
10
10
10
10
10
10
10
10
10
10
10
10
10
10
10
10
10
10
10
10
10
10
10
10
10
10
10
10
10
10
10
10
10
10
10
10
10
10
10
10
10
10
10
10
10
10
10
10
10
10
10
10
10
10
10
10
10
10
10
10
10
10
10
10
10
10
10
10
10
10
10
10
10
10
10
10
10
10
10
10
10
10
10
10
10
10
10
10
10
10
10
10
10
10
10
10
10
10
10
10
10
10
10
10
10
10
10
10
10
10
10
10
10
10
10
10
10
10
10
10
10
10
10
10
10
10
10
10
10
10
10
10
10
10
10
10
10
10
10
10
10
10
10
10
10
10
10
10
10
10
10
10
10
10
10
10
10
10
10
10
10
10
10
10
10
10
10
10
10
10
10
10
10
10
10
10
10
10
10
10
10
10
10
10
10
10
10
10
10
10
10
10
10
10
10
10
10
10
10
10
10
10
10
10
10
10
10
10
10
10
10
10
10
10
10
10
10
10
10
10
10
10
10
10
10
10
10
10
10
10
10
10
10
10
10
10
10
10
10
10
10
10
10
10
10
10
10
10
10
10
10
10
10
10
10
10
10
10
10
10
10
10
10
10
10
10
10
10
10
10
10
10
10
10
10
10
10
10
10
10
10
10
10
10
10
10
10
10
10
10
10
10
10
10
10
10
10
10
10
10
10
10
10
10
10
10
10
10
10
10
10
10
10
10
10
10
10
10
10
10
10
10
10
10
10
10
10
10
10
10
10
10
10
10
10
10
10
10
10
10
10
10
10
10
10
10
10
10
10
10
10
10
10
10
10
10
10
10
10
10
10
10
10
10
10
10
10
10
10
10
10
10
10
10
10
10
10
10
10
10
10
10
10
10
10
10
10
10
10
10
10
10
10
10
10
10
10
10
10
10
10
10
10
10
10
10
10
10
10
10
10
10
10
10
10
10
10
10
10
10
10
10
10
10
10
10
10
10
10
10
10
10
10
10
10
10
10
10
10
10
10
10
10
10
10
10
10
10
10
10
10
10
10
10
10
10
10
10
10
10
10
10
10
10
10
10
10
10
10
10
10
10
10
10
10
10
10
10
10
10
10
10
10
10
10
10
10
10
10
10
10
10
10
10
10
10
10
10
10
10
10
10
10
10
10
10
10
10
10
10
10
10
10
10
10
10
10
10
10
10
10
10
10
10
10
10
10
10
10
10
10
10
10
10
10
10
10
10
10
10
10
10
10
10
10
10
10
10
10
10
10
10
10
10
10
10
10
10
10
10
10
10
10
10
10
10
10
10
10
10
10
10
10
10
10
10
10
10
10
10
10
10
10
10
10
10
10
10
10
10
10
10
10
10
10
10
10
10
10
10
10
10
10
10
10
10
10
10
10
10
10
10
10
10
10
10
10
10
10
10
10
10
10
10
10
10
10
10
10
10
10
10
10
10
10
10
10
10
10
10
10
10
10
10
10
10
10
10
10
10
10
10
10
10
10
10
10
10
10
10
10
10
10
10
10
10
10
10
10
10
10
10
10
10
10
10
10
10
10
10
10
10
10
10
10
10
10
10
10
10
10
10
10
10
10
10
10
10
10
10
10
10
10
10
10
10
10
10
10
10
10
10
10
10
10
10
10
10
10
10
10
10
10
10
10
10
10
10
10
10
10
10
10
10
10
10
10
10
10
10
10
10
10
10
10
10
10
10
10
10
10
10
10
10
10
10
10
10
10
10
10
10
10
10
10
10
10
10
10
10
10
10
10
10
10
10
10
10
10
10
10
10
10
10
10
10
10
10
10
10
10
10
10
10
10
10
10
10
10
10
10
10
10
10
10
10
10
10
10
10
10
10
10
10
10
10
10
10
10
10
10
10
10
10
10
10
10
10
10
10
10
10
10
10
10
10
10
10
10
10
10
10
10
10
10
10
10
10
10
10
10
10
10
10
10
10
10
10
10
10
10
10
10
10
10
10
10
10
10
10
10
10
10
10
10
10
10
10
10
10
10
10
10
10
10
10
10
10
10
10
10
10
10
10
10
10
10
10
10
10
10
10
10
10
10
10
10
10
10
10
10
10
10
10
10
10
10
10
10
10
10
10
10
10
10
10
10
10
10
10
10
10
10
10
10
10
10
10
10
10
10
10
10
10
10
10
10
10
10
10
10
10
10
10
10
10
10
10
10
10
10
10
10
10
10
10
10
10
10
10
10
10
10
10
10
10
10
10
10
10
10
10
10
10
10
10
10
10
10
10
10
10
10
10
10
10
10
10
10
10
10
10
10
10
10
10
10
10
10
10
10
10
10
10
10
10
10
10
10
10
10
10
10
10
10
10
10
10
10
10
10
10
10
10
10
10
10
10
10
10
10
10
10
10
10
10
10
10
10
10
10
10
10
10
10
10
10
10
10
10
10
10
10
10
10
10
10
10
10
10
10
10
10
10
10
10
10
10
10
10
10
10
10
10
10
10
10
10
10
10
10
10
10
10
10
10
10
10
10
10
10
10
10
10
10
10
10
10
10
10
10
10
10
10
10
10
10
10
10
10
10
10
10
10
10
10
10
10
10
10
10
10
10
10
10
10
10
10
10
10
10
10
10
10
10
10
10
10
10
10
10
10
10
10
10
10
10
10
10
10
10
10
10
10
10
10
10
10
10
10
10
10
10
10
10
10
10
10
10
10
10
10
10
10
10
10
10
10
10
10
10
10
10
10
10
10
10
10
10
10
10
10
10
10
10
10
10
10
10
10
10
10
10
10
10
10
10
10
10
10
10
10
10
10
10
10
10
10
10
10
10
10
10
10
10
10
10
10
10
10
10
10
10
10
10
10
10
10
10
10
10
10
10
10
10
10
10
10
10
10
10
10
10
10
10
10
10
10
10
10
10
10
10
10
10
10
10
10
10
10
10
10
10
10
10
10
10
10
10
10
10
10
10
10
10
10
10
10
10
10
10
10
10
10
10
10
10
10
10
10
10
10
10
10
10
10
10
10
10
10
10
10
10
10
10
10
10
10
10
10
10
10
10
10
10
10
10
10
10
10
10
10
10
10
10
10
10
10
10
10
10
10
10
10
10
10
10
10
10
10
10
10
10
10
10
10
10
10
10
10
10
10
10
10
10
10
10
10
10
10
10
10
10
10
10
10
10
10
10
10
10
10
10
10
10
10
10
10
10
10
10
10
10
10
10
10
10
10
10
10
10
10
10
10
10
10
10
10
10
10
10
10
10
10
10
10
10
10
10
10
10
10
10
10
10
10
10
10
10
10
10
10
10
10
10
10
10
10
10
10
10
10
10
10
10
10
10
10
10
10
10
10
10
10
10
10
10
10
10
10
10
10
10
10
10
10
10
10
10
10
10
10
10
10
10
10
10
10
10
10
10
10
10
10
10
10
10
10
10
10
10
10
10
10
10
10
10
10
10
10
10
10
10
10
10
10
10
10
10
10
10
10
10
10
10
10
10
10
10
10
10
10
10
10
10
10
10
10
10
10
10
10
10
10
10
10
10
10
10
10
10
10
10
10
10
10
10
10
10
10
10
10
10
10
10
10
10
10
10
10
10
10
10
10
10
10
10
10
10
10
10
10
10
10
10
10
10
10
10
10
10
10
10
10
10
10
10
10
10
10
10
10
10
10
10
10
10
10
10
10
10
10
10
10
10
10
10
10
10
10
10
10
10
10
10
10
10
10
10
10
10
10
10
10
10
10
10
10
10
10
10
10
10
10
10
10
10
10
10
10
10
10
10
10
10
10
10
10
10
10
10
10
10
10
10
10
10
10
10
10
10
10
10
10
10
10
10
10
10
10
10
10
10
10
10
10
10
10
10
10
10
10
10
10
10
10
10
10
10
10
10
10
10
10
10
10
10
10
10
10
10
10
10
10
10
10
10
10
10
10
10
10
10
10
10
10
10
10
10
10
10
10
10
10
10
10
10
10
10
10
10
10
10
10
10
10
10
10
10
10
10
10
10
10
10
10
10
10
10
10
10
10
10
10
10
10
10
10
10
10
10
10
10
10
10
10
10
10
10
10
10
10
10
10
10
10
10
10
10
10
10
10
10
10
10
10
10
10
10
10
10
10
10
10
10
10
10
10
10
10
10
10
10
10
10
10
10
10
10
10
10
10
10
10
10
10
10
10
10
10
10
10
10
10
10
10
10
10
10
10
10
10
10
10
10
10
10
10
10
10
10
10
10
10
10
10
10
10
10
10
10
10
10
10
10
10
10
10
10
10
10
10
10
10
10
10
10
10
10
10
10
10
10
10
10
10
10
10
10
10
10
10
10
10
10
10
10
10
10
10
10
10
10
10
10
10
10
10
10
10
10
10
10
10
10
10
10
10
10
10
10
10
10
10
10
10
10
10
10
10
10
10
10
10
10
10
10
10
10
10
10
10
10
10
10
10
10
10
10
10
10
10
10
10
10
10
10
10
10
10
10
10
10
10
10
10
10
10
10
10
10
10
10
10
10
10
10
10
10
10
10
10
10
10
10
10
10
10
10
10
10
10
10
10
10
10
10
10
10
10
10
10
10
10
10
10
10
10
10
10
10
10
10
10
10
10
10
10
10
10
10
10
10
10
10
10
10
10
10
10
10
10
10
10
10
10
10
10
10
10
10
10
10
10
10
10
10
10
10
10
10
10
10
10
10
10
10
10
10
10
10
10
10
10
10
10
10
10
10
10
10
10
10
10
10
10
10
10
10
10
10
10
10
10
10
10
10
10
10
10
10
10
10
10
10
10
10
10
10
10
10
10
10
10
10
10
10
10
10
10
10
10
10
10
10
10
10
10
10
10
10
10
10
10
10
10
10
10
10
10
10
10
10
10
10
10
10
10
10
10
10
10
10
10
10
10
10
10
10
10
10
10
10
10
10
10
10
10
10
10
10
10
10
10
10
10
10
10
10
10
10
10
10
10
10
10
10
10
10
10
10
10
10
10
10
10
10
10
10
10
10
10
10
10
10
10
10
10
10
10
10
10
10
10
10
10
10
10
10
10
10
10
10
10
10
10
10
10
10
10
10
10
10
10
10
10
10
10
10
10
10
10
10
10
10
10
10
10
10
10
10
10
10
10
10
10
10
10
10
10
10
10
10
10
10
10
10
10
10
10
10
10
10
10
10
10
10
10
10
10
10
10
10
10
10
10
10
10
10
10
10
10
10
10
10
10
10
10
10
10
10
10
10
10
10
10
10
10
10
10
10
10
10
10
10
10
10
10
10
10
10
10
10
10
10
10
10
10
10
10
10
10
10
10
10
10
10
10
10
10
10
10
10
10
10
10
10
10
10
10
10
10
10
10
10
10
10
10
10
10
10
10
10
10
10
10
10
10
10
10
10
10
10
10
10
10
10
10
10
10
10
10
10
10
10
10
10
10
10
10
10
10
10
10
10
10
10
10
10
10
10
10
10
10
10
10
10
10
10
10
10
10
10
10
10
10
10
10
10
10
10
10
10
10
10
10
10
10
10
10
10
10
10
10
10
10
10
10
10
10
10
10
10
10
10
10
10
10
10
10
10
10
10
10
10
10
10
10
10
10
10
10
10
10
10
10
10
10
10
10
10
10
10
10
10
10
10
10
10
10
10
10
10
10
10
10
10
10
10
10
10
10
10
10
10
10
10
10
10
10
10
10
10
10
10
10
10
10
10
10
10
10
10
10
10
10
10
10
10
10
10
10
10
10
10
10
10
10
10
10
10
10
10
10
10
10
10
10
10
10
10
10
10
10
10
10
10
10
10
10
10
10
10
10
10
10
10
10
10
10
10
10
10
10
10
10
10
10
10
10
10
10
10
10
10
10
10
10
10
10
10
10
10
10
10
10
10
10
10
10
10
10
10
10
10
10
10
10
10
10
10
10
10
10
10
10
10
10
10
10
10
10
10
10
10
10
10
10
10
10
10
10
10
10
10
10
10
10
10
10
10
10
10
10
10
10
10
10
10
10
10
10
10
10
10
10
10
10
10
10
10
10
10
10
10
10
10
10
10
10
10
10
10
10
10
10
10
10
10
10
10
10
10
10
10
10
10
10
10
10
10
10
10
10
10
10
10
10
10
10
10
10
10
10
10
10
10
10
10
10
10
10
10
10
10
10
10
10
10
10
10
10
10
10
10
10
10
10
10
10
10
10
10
10
10
10
10
10
10
10
10
10
10
10
10
10
10
10
10
10
10
10
10
10
10
10
10
10
10
10
10
10
10
10
10
10
10
10
10
10
10
10
10
10
10
10
10
10
10
10
10
10
10
10
10
10
10
10
10
10
10
10
10
10
10
10
10
10
10
10
10
10
10
10
10
10
10
10
10
10
10
10
10
10
10
10
10
10
10
10
10
10
10
10
10
10
10
10
10
10
10
10
10
10
10
10
10
10
10
10
10
10
10
10
10
10
10
10
10
10
10
10
10
10
10
10
10
10
10
10
10
10
10
10
10
10
10
10
10
10
10
10
10
10
10
10
10
10
10
10
10
10
10
10
10
10
10
10
10
10
10
10
10
10
10
10
10
10
10
10
10
10
10
10
10
10
10
10
10
10
10
10
10
10
10
10
10
10
10
10
10
10
10
10
10
10
10
10
10
10
10
10
10
10
10
10
10
10
10
10
10
10
10
10
10
10
10
10
10
10
10
10
10
10
10
10
10
10
10
10
10
10
10
10
10
10
10
10
10
10
10
10
10
10
10
10
10
10
10
10
10
10
10
10
10
10
10
10
10
10
10
10
10
10
10
10
10
10
10
10
10
10
10
10
10
10
10
10
10
10
10
10
10
10
10
10
10
10
10
10
10
10
10
10
10
10
10
10
10
10
10
10
10
10
10
10
10
10
10
10
10
10
10
10
10
10
10
10
10
10
10
10
10
10
10
10
10
10
10
10
10
10
10
10
10
10
10
10
10
10
10
10
10
10
10
10
10
10
10
10
10
10
10
10
10
10
10
10
10
10
10
10
10
10
10
10
10
10
10
10
10
10
10
10
10
10
10
10
10
10
10
10
10
10
10
10
10
10
10
10
10
10
10
10
10
10
10
10
10
10
10
10
10
10
10
10
10
10
10
10
10
10
10
10
10
10
10
10
10
10
10
10
10
10
10
10
10
10
10
10
10
10
10
10
10
10
10
10
10
10
10
10
10
10
10
10
10
10
10
10
10
10
10
10
10
10
10
10
10
10
10
10
10
10
10
10
10
10
10
10
10
10
10
10
10
10
10
10
10
10
10
10
10
10
10
10
10
10
10
10
10
10
10
10
10
10
10
10
10
10
10
10
10
10
10
10
10
10
10
10
10
10
10
10
10
10
10
10
10
10
10
10
10
10
10
10
10
10
10
10
10
10
10
10
10
10
10
10
10
10
10
10
10
10
10
10
10
10
10
10
10
10
10
10
10
10
10
10
10
10
10
10
10
10
10
10
10
10
10
10
10
10
10
10
10
10
10
10
10
10
10
10
10
10
10
10
10
10
10
10
10
10
10
10
10
10
10
10
10
10
10
10
10
10
10
10
10
10
10
10
10
10
10
10
10
10
10
10
10
10
10
10
10
10
10
10
10
10
10
10
10
10
10
10
10
10
10
10
10
10
10
10
10
10
10
10
10
10
10
10
10
10
10
10
10
10
10
10
10
10
10
10
10
10
10
10
10
10
10
10
10
10
10
10
10
10
10
10
10
10
10
10
10
10
10
10
10
10
10
10
10
10
10
10
10
10
10
10
10
10
10
10
10
10
10
10
10
10
10
10
10
10
10
10
10
10
10
10
10
10
10
10
10
10
10
10
10
10
10
10
10
10
10
10
10
10
10
10
10
10
10
10
10
10
10
10
10
10
10
10
10
10
10
10
10
10
10
10
10
10
10
10
10
10
10
10
10
10
10
10
10
10
10
10
10
10
10
10
10
10
10
10
10
10
10
10
10
10
10
10
10
10
10
10
10
10
10
10
10
10
10
10
10
10
10
10
10
10
10
10
10
10
10
10
10
10
10
10
10
10
10
10
10
10
10
10
10
10
10
10
10
10
10
10
10
10
10
10
10
10
10
10
10
10
10
10
10
10
10
10
10
10
10
10
10
10
10
10
10
10
10
10
10
10
10
10
10
10
10
10
10
10
10
10
10
10
10
10
10
10
10
10
10
10
10
10
10
10
10
10
10
10
10
10
10
10
10
10
10
10
10
10
10
10
10
10
10
10
10
10
10
10
10
10
10
10
10
10
10
10
10
10
10
10
10
10
10
10
10
10
10
10
10
10
10
10
10
10
10
10
10
10
10
10
10
10
10
10
10
10
10
10
10
10
10
10
10
10
10
10
10
10
10
10
10
10
10
10
10
10
10
10
10
10
10
10
10
10
10
10
10
10
10
10
10
10
10
10
10
10
10
10
10
10
10
10
10
10
10
10
10
10
10
10
10
10
10
10
10
10
10
10
10
10
10
10
10
10
10
10
10
10
10
10
10
10
10
10
10
10
10
10
10
10
10
10
10
10
10
10
10
10
10
10
10
10
10
10
10
10
10
10
10
10
10
10
10
10
10
10
10
10
10
10
10
10
10
10
10
10
10
10
10
10
10
10
10
10
10
10
10
10
10
10
10
10
10
10
10
10
10
10
10
10
10
10
10
10
10
10
10
10
10
10
10
10
10
10
10
10
10
10
10
10
10
10
10
10
10
10
10
10
10
10
10
10
10
10
10
10
10
10
10
10
10
10
10
10
10
10
10
10
10
10
10
10
10
10
10
10
10
10
10
10
10
10
10
10
10
10
10
10
10
10
10
10
10
10
10
10
10
10
10
10
10
10
10
10
10
10
10
10
10
10
10
10
10
10
10
10
10
10
10
10
10
10
10
10
10
10
10
10
10
10
10
10
10
10
10
10
10
10
10
10
10
10
10
10
10
10
10
10
10
10
10
10
10
10
10
10
10
10
10
10
10
10
10
10
10
10
10
10
10
10
10
10
10
10
10
10
10
10
10
10
10
10
10
10
10
10
10
10
10
10
10
10
10
10
10
10
10
10
10
10
10
10
10
10
10
10
10
10
10
10
10
10
10
10
10
10
10
10
10
10
10
10
10
10
10
10
10
10
10
10
10
10
10
10
10
10
10
10
10
10
10
10
10
10
10
10
10
10
10
10
10
10
10
10
10
10
10
10
10
10
10
10
10
10
10
10
10
10
10
10
10
10
10
10
10
10
10
10
10
10
10
10
10
10
10
10
10
10
10
10
10
10
10
10
10
10
10
10
10
10
10
10
10
10
10
10
10
10
10
10
10
10
10
10
10
10
10
10
10
10
10
10
10
10
10
10
10
10
10
10
10
10
10
10
10
10
10
10
10
10
10
10
10
10
10
10
10
10
10
10
10
10
10
10
10
10
10
10
10
10
10
10
10
10
10
10
10
10
10
10
10
10
10
10
10
10
10
10
10
10
10
10
10
10
10
10
10
10
10
10
10
10
10
10
10
10
10
10
10
10
10
10
10
10
10
10
10
10
10
10
10
10
10
10
10
10
10
10
10
10
10
10
10
10
10
10
10
10
10
10
10
10
10
10
10
10
10
10
10
10
10
10
10
10
10
10
10
10
10
10
10
10
10
10
10
10
10
10
10
10
10
10
10
10
10
10
10
10
10
10
10
10
10
10
10
10
10
10
10
10
10
10
10
10
10
10
10
10
10
10
10
10
10
10
10
10
10
10
10
10
10
10
10
10
10
10
10
10
10
10
10
10
10
10
10
10
10
10
10
10
10
10
10
10
10
10
10
10
10
10
10
10
10
10
10
10
10
10
10
10
10
10
10
10
10
10
10
10
10
10
10
10
10
10
10
10
10
10
10
10
10
10
10
10
10
10
10
10
10
10
10
10
10
10
10
10
10
10
10
10
10
10
10
10
10
10
10
10
10
10
10
10
10
10
10
10
10
10
10
10
10
10
10
10
10
10
10
10
10
10
10
10
10
10
10
10
10
10
10
10
10
10
10
10
10
10
10
10
10
10
10
10
10
10
10
10
10
10
10
10
10
10
10
10
10
10
10
10
10
10
10
10
10
10
10
10
10
10
10
10
10
10
10
10
10
10
10
10
10
10
10
10
10
10
10
10
10
10
10
10
10
10
10
10
10
10
10
10
10
10
10
10
10
10
10
10
10
10
10
10
10
10
10
10
10
10
10
10
10
10
10
10
10
10
10
10
10
10
10
10
10
10
10
10
10
10
10
10
10
10
10
10
10
10
10
10
10
10
10
10
10
10
10
10
10
10
10
10
10
10
10
10
10
10
10
10
10
10
10
10
10
10
10
10
10
10
10
10
10
10
10
10
10
10
10
10
10
10
10
10
10
10
10
10
10
10
10
10
10
10
10
10
10
10
10
10
10
10
10
10
10
10
10
10
10
10
10
10
10
10
10
10
10
10
10
10
10
10
10
10
10
10
10
10
10
10
10
10
10
10
10
10
10
10
10
10
10
10
10
10
10
10
10
10
10
10
10
10
10
10
10
10
10
10
10
10
10
10
10
10
10
10
10
10
10
10
10
10
10
10
10
10
10
10
10
10
10
10
10
10
10
10
10
10
10
10
10
10
10
10
10
10
10
10
10
10
10
10
10
10
10
10
10
10
10
10
10
10
10
10
10
10
10
10
10
10
10
10
10
10
10
10
10
10
10
10
10
10
10
10
10
10
10
10
10
10
10
10
10
10
10
10
10
10
10
10
10
10
10
10
10
10
10
10
10
10
10
10
10
10
10
10
10
10
10
10
10
10
10
10
10
10
10
10
10
10
10
10
10
10
10
10
10
10
10
10
10
10
10
10
10
10
10
10
10
10
10
10
10
10
10
10
10
10
10
10
10
10
10
10
10
10
10
10
10
10
10
10
10
10
10
10
10
10
10
10
10
10
10
10
10
10
10
10
10
10
10
10
10
10
10
10
10
10
10
10
10
10
10
10
10
10
10
10
10
10
10
10
10
10
10
10
10
10
10
10
10
10
10
10
10
10
10
10
10
10
10
10
10
10
10
10
10
10
10
10
10
10
10
10
10
10
10
10
10
10
10
10
10
10
10
10
10
10
10
10
10
10
10
10
10
10
10
10
10
10
10
10
10
10
10
10
10
10
10
10
10
10
10
10
10
10
10
10
10
10
10
10
10
10
10
10
10
10
10
10
10
10
10
10
10
10
10
10
10
10
10
10
10
10
10
10
10
10
10
10
10
10
10
10
10
10
10
10
10
10
10
10
10
10
10
10
10
10
10
10
10
10
10
10
10
10
10
10
10
10
10
10
10
10
10
10
10
10
10
10
10
10
10
10
10
10
10
10
10
10
10
10
10
10
10
10
10
10
10
10
10
10
10
10
10
10
10
10
10
10
10
10
10
10
10
10
10
10
10
10
10
10
10
10
10
10
10
10
10
10
10
10
10
10
10
10
10
10
10
10
10
10
10
10
10
10
10
10
10
10
10
10
10
10
10
10
10
10
10
10
10
10
10
10
10
10
10
10
10
10
10
10
10
10
10
10
10
10
10
10
10
10
10
10
10
10
10
10
10
10
10
10
10
10
10
10
10
10
10
10
10
10
10
10
10
10
10
10
10
10
10
10
10
10
10
10
10
10
10
10
10
10
10
10
10
10
10
10
10
10
10
10
10
10
10
10
10
10
10
10
10
10
10
10
10
10
10
10
10
10
10
10
10
10
10
10
10
10
10
10
10
10
10
10
10
10
10
10
10
10
10
10
10
10
10
10
10
10
10
10
10
10
10
10
10
10
10
10
10
10
10
10
10
10
10
10
10
10
10
10
10
10
10
10
10
10
10
10
10
10
10
10
10
10
10
10
10
10
10
10
10
10
10
10
10
10
10
10
10
10
10
10
10
10
10
10
10
10
10
10
10
10
10
10
10
10
10
10
10
10
10
10
10
10
10
10
10
10
10
10
10
10
10
10
10
10
10
10
10
10
10
10
10
10
10
10
10
10
10
10
10
10
10
10
10
10
10
10
10
10
10
10
10
10
10
10
10
10
10
10
10
10
10
10
10
10
10
10
10
10
10
10
10
10
10
10
10
10
10
10
10
10
10
10
10
10
10
10
10
10
10
10
10
10
10
10
10
10
10
10
10
10
10
10
10
10
10
10
10
10
10
10
10
10
10
10
10
10
10
10
10
10
10
10
10
10
10
10
10
10
10
10
10
10
10
10
10
10
10
10
10
10
10
10
10
10
10
10
10
10
10
10
10
10
10
10
10
10
10
10
10
10
10
10
10
10
10
10
10
10
10
10
10
10
10
10
10
10
10
10
10
10
10
10
10
10
10
10
10
10
10
10
10
10
10
10
10
10
10
10
10
10
10
10
10
10
10
10
10
10
10
10
10
10
10
10
10
10
10
10
10
10
10
10
10
10
10
10
10
10
10
10
10
10
10
10
10
10
10
10
10
10
10
10
10
10
10
10
10
10
10
10
10
10
10
10
10
10
10
10
10
10
10
10
10
10
10
10
10
10
10
10
10
10
10
10
10
10
10
10
10
10
10
10
10
10
10
10
10
10
10
10
10
10
10
10
10
10
10
10
10
10
10
10
10
10
10
10
10
10
10
10
10
10
10
10
10
10
10
10
10
10
10
10
10
10
10
10
10
10
10
10
10
10
10
10
10
10
10
10
10
10
10
10
10
10
10
10
10
10
10
10
10
10
10
10
10
10
10
10
10
10
10
10
10
10
10
10
10
10
10
10
10
10
10
10
10
10
10
10
10
10
10
10
10
10
10
10
10
10
10
10
10
10
10
10
10
10
10
10
10
10
10
10
10
10
10
10
10
10
10
10
10
10
10
10
10
10
10
10
10
10
10
10
10
10
10
10
10
10
10
10
10
10
10
10
10
10
10
10
10
10
10
10
10
10
10
10
10
10
10
10
10
10
10
10
10
10
10
10
10
10
10
10
10
10
10
10
10
10
10
10
10
10
10
10
10
10
10
10
10
10
10
10
10
10
10
10
10
10
10
10
10
10
10
10
10
10
10
10
10
10
10
10
10
10
10
10
10
10
10
10
10
10
10
10
10
10
10
10
10
10
10
10
10
10
10
10
10
10
10
10
10
10
10
10
10
10
10
10
10
10
10
10
10
10
10
10
10
10
10
10
10
10
10
10
10
10
10
10
10
10
10
10
10
10
10
10
10
10
10
10
10
10
10
10
10
10
10
10
10
10
10
10
10
10
10
10
10
10
10
10
10
10
10
10
10
10
10
10
10
10
10
10
10
10
10
10
10
10
10
10
10
10
10
10
10
10
10
10
10
10
10
10
10
10
10
10
10
10
10
10
10
10
10
10
10
10
10
10
10
10
10
10
10
10
10
10
10
10
10
10
10
10
10
10
10
10
10
10
10
10
10
10
10
10
10
10
10
10
10
10
10
10
10
10
10
10
10
10
10
10
10
10
10
10
10
10
10
10
10
10
10
10
10
10
10
10
10
10
10
10
10
10
10
10
10
10
10
10
10
10
10
10
10
10
10
10
10
10
10
10
10
10
10
10
10
10
10
10
10
10
10
10
10
10
10
10
10
10
10
10
10
10
10
10
10
10
10
10
10
10
10
10
10
10
10
10
10
10
10
10
10
10
10
10
10
10
10
10
10
10
10
10
10
10
10
10
10
10
10
10
10
10
10
10
10
10
10
10
10
10
10
10
10
10
10
10
10
10
10
10
10
10
10
10
10
10
10
10
10
10
10
10
10
10
10
10
10
10
10
10
10
10
10
10
10
10
10
10
10
10
10
10
10
10
10
10
10
10
10
10
10
10
10
10
10
10
10
10
10
10
10
10
10
10
10
10
10
10
10
10
10
10
10
10
10
10
10
10
10
10
10
10
10
10
10
10
10
10
10
10
10
10
10
10
10
10
10
10
10
10
10
10
10
10
10
10
10
10
10
10
10
10
10
10
10
10
10
10
10
10
10
10
10
10
10
10
10
10
10
10
10
10
10
10
10
10
10
10
10
10
10
10
10
10
10
10
10
10
10
10
10
10
10
10
10
10
10
10
10
10
10
10
10
10
10
10
10
10
10
10
10
10
10
10
10
10
10
10
10
10
10
10
10
10
10
10
10
10
10
10
10
10
10
10
10
10
10
10
10
10
10
10
10
10
10
10
10
10
10
10
10
10
10
10
10
10
10
10
10
10
10
10
10
10
10
10
10
10
10
10
10
10
10
10
10
10
10
10
10
10
10
10
10
10
10
10
10
10
10
10
10
10
10
10
10
10
10
10
10
10
10
10
10
10
10
10
10
10
10
10
10
10
10
10
10
10
10
10
10
10
10
10
10
10
10
10
10
10
10
10
10
10
10
10
10
10
10
10
10
10
10
10
10
10
10
10
10
10
10
10
10
10
10
10
10
10
10
10
10
10
10
10
10
10
10
10
10
10
10
10
10
10
10
10
10
10
10
10
10
10
10
10
10
10
10
10
10
10
10
10
10
10
10
10
10
10
10
10
10
10
10
10
10
10
10
10
10
10
10
10
10
10
10
10
10
10
10
10
10
10
10
10
10
10
10
10
10
10
10
10
10
10
10
10
10
10
10
10
10
10
10
10
10
10
10
10
10
10
10
10
10
10
10
10
10
10
10
10
10
10
10
10
10
10
10
10
10
10
10
10
10
10
10
10
10
10
10
10
10
10
10
10
10
10
10
10
10
10
10
10
10
10
10
10
10
10
10
10
10
10
10
10
10
10
10
10
10
10
10
10
10
10
10
10
10
10
10
10
10
10
10
10
10
10
10
10
10
10
10
10
10
10
10
10
10
10
10
10
10
10
10
10
10
10
10
10
10
10
10
10
10
10
10
10
10
10
10
10
10
10
10
10
10
10
10
10
10
10
10
10
10
10
10
10
10
10
10
10
10
10
10
10
10
10
10
10
10
10
10
10
10
10
10
10
10
10
10
10
10
10
10
10
10
10
10
10
10
10
10
10
10
10
10
10
10
10
10
10
10
10
10
10
10
10
10
10
10
10
10
10
10
10
10
10
10
10
10
10
10
10
10
10
10
10
10
10
10
10
10
10
10
10
10
10
10
10
10
10
10
10
10
10
10
10
10
10
10
10
10
10
10
10
10
10
10
10
10
10
10
10
10
10
10
10
10
10
10
10
10
10
10
10
10
10
10
10
10
10
10
10
10
10
10
10
10
10
10
10
10
10
10
10
10
10
10
10
10
10
10
10
10
10
10
10
10
10
10
10
10
10
10
10
10
10
10
10
10
10
10
10
10
10
10
10
10
10
10
10
10
10
10
10
10
10
10
10
10
10
10
10
10
10
10
10
10
10
10
10
10
10
10
10
10
10
10
10
10
10
10
10
10
10
10
10
10
10
10
10
10
10
10
10
10
10
10
10
10
10
10
10
10
10
10
10
10
10
10
10
10
10
10
10
10
10
10
10
10
10
10
10
10
10
10
10
10
10
10
10
10
10
10
10
10
10
10
10
10
10
10
10
10
10
10
10
10
10
10
10
10
10
10
10
10
10
10
10
10
10
10
10
10
10
10
10
10
10
10
10
10
10
10
10
10
10
10
10
10
10
10
10
10
10
10
10
10
10
10
10
10
10
10
10
10
10
10
10
10
10
10
10
10
10
10
10
10
10
10
10
10
10
10
10
10
10
10
10
10
10
10
10
10
10
10
10
10
10
10
10
10
10
10
10
10
10
10
10
10
10
10
10
10
10
10
10
10
10
10
10
10
10
10
10
10
10
10
10
10
10
10
10
10
10
10
10
10
10
10
10
10
10
10
10
10
10
10
10
10
10
10
10
10
10
10
10
10
10
10
10
10
10
10
10
10
10
10
10
10
10
10
10
10
10
10
10
10
10
10
10
10
10
10
10
10
10
10
10
10
10
10
10
10
10
10
10
10
10
10
10
10
10
10
10
10
10
10
10
10
10
10
10
10
10
10
10
10
10
10
10
10
10
10
10
10
10
10
10
10
10
10
10
10
10
10
10
10
10
10
10
10
10
10
10
10
10
10
10
10
10
10
10
10
10
10
10
10
10
10
10
10
10
10
10
10
10
10
10
10
10
10
10
10
10
10
10
10
10
10
10
10
10
10
10
10
10
10
10
10
10
10
10
10
10
10
10
10
10
10
10
10
10
10
10
10
10
10
10
10
10
10
10
10
10
10
10
10
10
10
10
10
10
10
10
10
10
10
10
10
10
10
10
10
10
10
10
10
10
10
10
10
10
10
10
10
10
10
10
10
10
10
10
10
10
10
10
10
10
10
10
10
10
10
10
10
10
10
10
10
10
10
10
10
10
10
10
10
10
10
10
10
10
10
10
10
10
10
10
10
10
10
10
10
10
10
10
10
10
10
10
10
10
10
10
10
10
10
10
10
10
10
10
10
10
10
10
10
10
10
10
10
10
10
10
10
10
10
10
10
10
10
10
10
10
10
10
10
10
10
10
10
10
10
10
10
10
10
10
10
10
10
10
10
10
10
10
10
10
10
10
10
10
10
10
10
10
10
10
10
10
10
10
10
10
10
10
10
10
10
10
10
10
10
10
10
10
10
10
10
10
10
10
10
10
10
10
10
10
10
10
10
10
10
10
10
10
10
10
10
10
10
10
10
10
10
10
10
10
10
10
10
10
10
10
10
10
10
10
10
10
10
10
10
10
10
10
10
10
10
10
10
10
10
10
10
10
10
10
10
10
10
10
10
10
10
10
10
10
10
10
10
10
10
10
10
10
10
10
10
10
10
10
10
10
10
10
10
10
10
10
10
10
10
10
10
10
10
10
10
10
10
10
10
10
10
10
10
10
10
10
10
10
10
10
10
10
10
10
10
10
10
10
10
10
10
10
10
10
10
10
10
10
10
10
10
10
10
10
10
10
10
10
10
10
10
10
10
10
10
10
10
10
10
10
10
10
10
10
10
10
10
10
10
10
10
10
10
10
10
10
10
10
10
10
10
10
10
10
10
10
10
10
10
10
10
10
10
10
10
10
10
10
10
10
10
10
10
10
10
10
10
10
10
10
10
10
10
10
10
10
10
10
10
10
10
10
10
10
10
10
10
10
10
10
10
10
10
10
10
10
10
10
10
10
10
10
10
10
10
10
10
10
10
10
10
10
10
10
10
10
10
10
10
10
10
10
10
10
10
10
10
10
10
10
10
10
10
10
10
10
10
10
10
10
10
10
10
10
10
10
10
10
10
10
10
10
10
10
10
10
10
10
10
10
10
10
10
10
10
10
10
10
10
10
10
10
10
10
10
10
10
10
10
10
10
10
10
10
10
10
10
10
10
10
10
10
10
10
10
10
10
10
10
10
10
10
10
10
10
10
10
10
10
10
10
10
10
10
10
10
10
10
10
10
10
10
10
10
10
10
10
10
10
10
10
10
10
10
10
10
10
10
10
10
10
10
10
10
10
10
10
10
10
10
10
10
10
10
10
10
10
10
10
10
10
10
10
10
10
10
10
10
10
10
10
10
10
10
10
10
10
10
10
10
10
10
10
10
10
10
10
10
10
10
10
10
10
10
10
10
10
10
10
10
10
10
10
10
10
10
10
10
10
10
10
10
10
10
10
10
10
10
10
10
10
10
10
10
10
10
10
10
10
10
10
10
10
10
10
10
10
10
10
10
10
10
10
10
10
10
10
10
10
10
10
10
10
10
10
10
10
10
10
10
10
10
10
10
10
10
10
10
10
10
10
10
10
10
10
10
10
10
10
10
10
10
10
10
10
10
10
10
10
10
10
10
10
10
10
10
10
10
10
10
10
10
10
10
10
10
10
10
10
10
10
10
10
10
10
10
10
10
10
10
10
10
10
10
10
10
10
10
10
10
10
10
10
10
10
10
10
10
10
10
10
10
10
10
10
10
10
10
10
10
10
10
10
10
10
10
10
10
10
10
10
10
10
10
10
10
10
10
10
10
10
10
10
10
10
10
10
10
10
10
10
10
10
10
10
10
10
10
10
10
10
10
10
10
10
10
10
10
10
10
10
10
10
10
10
10
10
10
10
10
10
10
10
10
10
10
10
10
10
10
10
10
10
10
10
10
10
10
10
10
10
10
10
10
10
10
10
10
10
10
10
10
10
10
10
10
10
10
10
10
10
10
10
10
10
10
10
10
10
10
10
10
10
10
10
10
10
10
10
10
10
10
10
10
10
10
10
10
10
10
10
10
10
10
10
10
10
10
10
10
10
10
10
10
10
10
10
10
10
10
10
10
10
10
10
10
10
10
10
10
10
10
10
10
10
10
10
10
10
10
10
10
10
10
10
10
10
10
10
10
10
10
10
10
10
10
10
10
10
10
10
10
10
10
10
10
10
10
10
10
10
10
10
10
10
10
10
10
10
10
10
10
10
10
10
10
10
10
10
10
10
10
10
10
10
10
10
10
10
10
10
10
10
10
10
10
10
10
10
10
10
10
10
10
10
10
10
10
10
10
10
10
10
10
10
10
10
10
10
10
10
10
10
10
10
10
10
10
10
10
10
10
10
10
10
10
10
10
10
10
10
10
10
10
10
10
10
10
10
10
10
10
10
10
10
10
10
10
10
10
10
10
10
10
10
10
10
10
10
10
10
10
10
10
10
10
10
10
10
10
10
10
10
10
10
10
10
10
10
10
10
10
10
10
10
10
10
10
10
10
10
10
10
10
10
10
10
10
10
10
10
10
10
10
10
10
10
10
10
10
10
10
10
10
10
10
10
10
10
10
10
10
10
10
10
10
10
10
10
10
10
10
10
10
10
10
10
10
10
10
10
10
10
10
10
10
10
10
10
10
10
10
10
10
10
10
10
10
10
10
10
10
10
10
10
10
10
10
10
10
10
10
10
10
10
10
10
10
10
10
10
10
10
10
10
10
10
10
10
10
10
10
10
10
10
10
10
10
10
10
10
10
10
10
10
10
10
10
10
10
10
10
10
10
10
10
10
10
10
10
10
10
10
10
10
10
10
10
10
10
10
10
10
10
10
10
10
10
10
10
10
10
10
10
10
10
10
10
10
10
10
10
10
10
10
10
10
10
10
10
10
10
10
10
10
10
10
10
10
10
10
10
10
10
10
10
10
10
10
10
10
10
10
10
10
10
10
10
10
10
10
10
10
10
10
10
10
10
10
10
10
10
10
10
10
10
10
10
10
10
10
10
10
10
10
10
10
10
10
10
10
10
10
10
10
10
10

POINT_DATA 13235
FIELD FieldData 5
U 3 13235 double
0 0 0 0 0 0 0 0 0 
0 0 0 0 0 0 0 0 0 
0 0 0 0 0 0 -1.15922 -6.71007 0 
10.433 60.3907 0 -1.15922 -6.71007 0 10.433 60.3907 0 
0 0 0 0 0 0 0 0 0 
0 0 0 20.8325 20.5872 0 23.7305 37.3624 0 
20.8325 20.5872 0 23.7305 37.3624 0 0 0 0 
0 0 0 0 0 0 0 0 0 
0 0 0 0 0 0 0 0 0 
0 0 0 0 0 0 0 0 0 
0 0 0 0 0 0 0 0 0 
0 0 0 0 0 0 0 0 0 
0 0 0 0 0 0 0 0 0 
0 0 0 0 0 0 0 0 0 
0 0 0 0 0 0 0 0 0 
0 0 0 0 0 0 0 0 0 
0 0 0 0 0 0 0 0 0 
0 0 0 0 0 0 0 0 0 
0 0 0 0 0 0 0 0 0 
0 0 0 0 0 0 0 0 0 
0 0 0 0 0 0 0 0 0 
0 0 0 0 0 0 0 0 0 
0 0 0 0 0 0 0 0 0 
0 0 0 0 0 0 0 0 0 
0 0 0 0 0 0 0 0 0 
0 0 0 0 0 0 0 0 0 
0 0 0 0 0 0 0 0 0 
0 0 0 0 0 0 0 0 0 
0 0 0 0 0 0 0 0 0 
0 0 0 0 0 0 0 0 0 
0 0 0 0 0 0 0 0 0 
0 0 0 0 0 0 0 0 0 
0 0 0 0 0 0 0 0 0 
0 0 0 0 0 0 0 0 0 
0 0 0 0 0 0 0 0 0 
0 0 0 0 0 0 0 0 0 
0 0 0 0 0 0 0 0 0 
0 0 0 0 0 0 0 0 0 
0 0 0 0 0 0 0 0 0 
0 0 0 0 0 0 0 0 0 
0 0 0 0 0 0 0 0 0 
0 0 0 0 0 0 0 0 0 
0 0 0 0 0 0 0 0 0 
0 0 0 0 0 0 0 0 0 
0 0 0 0 0 0 0 0 0 
0 0 0 0 0 0 0 0 0 
0 0 0 0 0 0 0 0 0 
0 0 0 0 0 0 0 0 0 
0 0 0 0 0 0 0 0 0 
0 0 0 0 0 0 0 0 0 
0 0 0 0 0 0 0 0 0 
0 0 0 0 0 0 0 0 0 
0 0 0 0 0 0 0 0 0 
0 0 0 0 0 0 0 0 0 
0 0 0 0 0 0 0 0 0 
0 0 0 0 0 0 0 0 0 
0 0 0 0 0 0 0 0 0 
0 0 0 0 0 0 0 0 0 
0 0 0 0 0 0 0 0 0 
0 0 0 0 0 0 0 0 0 
0 0 0 0 0 0 0 0 0 
0 0 0 0 0 0 0 0 0 
0 0 0 0 0 0 0 0 0 
0 0 0 0 0 0 0 0 0 
0 0 0 0 0 0 0 0 0 
0 0 0 0 0 0 0 0 0 
0 0 0 0 0 0 0 0 0 
0 0 0 0 0 0 0 0 0 
0 0 0 0 0 0 0 0 0 
0 0 0 0 0 0 0 0 0 
0 0 0 0 0 0 0 0 0 
0 0 0 0 0 0 0 0 0 
0 0 0 0 0 0 0 0 0 
0 0 0 0 0 0 0 0 0 
0 0 0 0 0 0 0 0 0 
0 0 0 0 0 0 0 0 0 
0 0 0 0 0 0 0 0 0 
0 0 0 0 0 0 0 0 0 
0 0 0 0 0 0 0 0 0 
0 0 0 0 0 0 0 0 0 
0 0 0 0 0 0 0 0 0 
0 0 0 0 0 0 0 0 0 
0 0 0 0 0 0 0 0 0 
0 0 0 0 0 0 0 0 0 
0 0 0 0 0 0 0 0 0 
0 0 0 0 0 0 0 0 0 
0 0 0 0 0 0 0 0 0 
0 0 0 0 0 0 0 0 0 
0 0 0 0 0 0 0 0 0 
0 0 0 0 0 0 0 0 0 
0 0 0 0 0 0 -1.81376 -6.597 0 
-2.44314 -6.48827 0 -3.02318 -6.38806 0 -3.53159 -6.30023 0 
-3.94883 -6.22815 0 -4.25887 -6.17458 0 -4.44979 -6.1416 0 
-4.51426 -6.13046 0 -4.44979 -6.1416 0 -4.25887 -6.17458 0 
-3.94883 -6.22815 0 -3.53159 -6.30023 0 -3.02318 -6.38806 0 
-2.44314 -6.48827 0 -1.81376 -6.597 0 -1.15922 -6.71007 0 
-0.504687 -6.82315 0 0.124695 -6.93188 0 0.704736 -7.03209 0 
1.21315 -7.11992 0 1.63039 -7.192 0 1.94043 -7.24556 0 
2.13135 -7.27855 0 2.19581 -7.28969 0 2.13135 -7.27855 0 
1.94043 -7.24556 0 1.63039 -7.192 0 1.21315 -7.11992 0 
0.704736 -7.03209 0 0.124695 -6.93188 0 -0.504687 -6.82315 0 
10.3171 59.7197 0 10.2012 59.0487 0 10.0852 58.3776 0 
9.96931 57.7066 0 9.85339 57.0356 0 9.73747 56.3646 0 
9.62154 55.6936 0 9.50562 55.0226 0 9.3897 54.3516 0 
9.27378 53.6806 0 9.15786 53.0096 0 9.04193 52.3386 0 
8.92601 51.6676 0 8.81009 50.9966 0 8.69417 50.3256 0 
8.57825 49.6545 0 8.46232 48.9835 0 8.3464 48.3125 0 
8.23048 47.6415 0 8.11456 46.9705 0 7.99863 46.2995 0 
7.88271 45.6285 0 7.76679 44.9575 0 7.65087 44.2865 0 
7.53494 43.6155 0 7.41902 42.9445 0 7.3031 42.2735 0 
7.18718 41.6025 0 7.07126 40.9315 0 6.95533 40.2604 0 
6.83941 39.5894 0 6.72349 38.9184 0 6.60757 38.2474 0 
6.49164 37.5764 0 6.37572 36.9054 0 6.2598 36.2344 0 
6.14388 35.5634 0 6.02796 34.8924 0 5.91203 34.2214 0 
5.79611 33.5504 0 5.68019 32.8794 0 5.56427 32.2084 0 
5.44834 31.5373 0 5.33242 30.8663 0 5.2165 30.1953 0 
5.10058 29.5243 0 4.98466 28.8533 0 4.86873 28.1823 0 
4.75281 27.5113 0 4.63689 26.8403 0 4.52097 26.1693 0 
4.40504 25.4983 0 4.28912 24.8273 0 4.1732 24.1563 0 
4.05728 23.4853 0 3.94136 22.8143 0 3.82543 22.1432 0 
3.70951 21.4722 0 3.59359 20.8012 0 3.47767 20.1302 0 
3.36174 19.4592 0 3.24582 18.7882 0 3.1299 18.1172 0 
3.01398 17.4462 0 2.89806 16.7752 0 2.78213 16.1042 0 
2.66621 15.4332 0 2.55029 14.7622 0 2.43437 14.0912 0 
2.31844 13.4201 0 2.20252 12.7491 0 2.0866 12.0781 0 
1.97068 11.4071 0 1.85476 10.7361 0 1.73883 10.0651 0 
1.62291 9.3941 0 1.50699 8.7231 0 1.39107 8.05209 0 
1.27514 7.38108 0 1.15922 6.71007 0 1.0433 6.03907 0 
0.927378 5.36806 0 0.811456 4.69705 0 0.695533 4.02604 0 
0.579611 3.35504 0 0.463689 2.68403 0 0.347767 2.01302 0 
0.231844 1.34201 0 0.115922 0.671007 0 8.21747e-16 -1.41964e-16 0 
-0.115922 -0.671007 0 -0.231844 -1.34201 0 -0.347767 -2.01302 0 
-0.463689 -2.68403 0 -0.579611 -3.35504 0 -0.695533 -4.02604 0 
-0.811456 -4.69705 0 -0.927378 -5.36806 0 -1.0433 -6.03907 0 
9.77847 60.5037 0 9.14908 60.6125 0 8.56904 60.7127 0 
8.06063 60.8005 0 7.64339 60.8726 0 7.33335 60.9262 0 
7.14243 60.9591 0 7.07796 60.9703 0 7.14243 60.9591 0 
7.33335 60.9262 0 7.64339 60.8726 0 8.06063 60.8005 0 
8.56904 60.7127 0 9.14908 60.6125 0 9.77847 60.5037 0 
10.433 60.3907 0 11.0875 60.2776 0 11.7169 60.1689 0 
12.297 60.0687 0 12.8054 59.9808 0 13.2226 59.9087 0 
13.5326 59.8552 0 13.7236 59.8222 0 13.788 59.8111 0 
13.7236 59.8222 0 13.5326 59.8552 0 13.2226 59.9087 0 
12.8054 59.9808 0 12.297 60.0687 0 11.7169 60.1689 0 
11.0875 60.2776 0 -1.80155 -6.59911 0 -2.40655 -6.49459 0 
-2.93906 -6.40259 0 -3.36814 -6.32847 0 -3.66883 -6.27652 0 
-3.82368 -6.24977 0 -3.82368 -6.24977 0 -3.66883 -6.27652 0 
-3.36814 -6.32847 0 -2.93906 -6.40259 0 -2.40655 -6.49459 0 
-1.80155 -6.59911 0 -1.15922 -6.71007 0 -0.516892 -6.82104 0 
0.0881085 -6.92556 0 0.620619 -7.01756 0 1.04969 -7.09168 0 
1.35039 -7.14363 0 1.50524 -7.17038 0 1.50524 -7.17038 0 
1.35039 -7.14363 0 1.04969 -7.09168 0 0.620619 -7.01756 0 
0.0881085 -6.92556 0 -0.516892 -6.82104 0 9.79067 60.5016 0 
9.18567 60.6062 0 8.65316 60.6982 0 8.22409 60.7723 0 
7.92339 60.8242 0 7.76854 60.851 0 7.76854 60.851 0 
7.92339 60.8242 0 8.22409 60.7723 0 8.65316 60.6982 0 
9.18567 60.6062 0 9.79067 60.5016 0 10.433 60.3907 0 
11.0753 60.2797 0 11.6803 60.1752 0 12.2128 60.0832 0 
12.6419 60.0091 0 12.9426 59.9571 0 13.0975 59.9304 0 
13.0975 59.9304 0 12.9426 59.9571 0 12.6419 60.0091 0 
12.2128 60.0832 0 11.6803 60.1752 0 11.0753 60.2797 0 
10.3171 59.7197 0 10.2012 59.0487 0 10.0852 58.3776 0 
9.96931 57.7066 0 9.85339 57.0356 0 9.73747 56.3646 0 
9.62154 55.6936 0 9.50562 55.0226 0 9.3897 54.3516 0 
9.27378 53.6806 0 9.15786 53.0096 0 9.04193 52.3386 0 
8.92601 51.6676 0 8.81009 50.9966 0 8.69417 50.3256 0 
8.57825 49.6545 0 8.46232 48.9835 0 8.3464 48.3125 0 
8.23048 47.6415 0 8.11456 46.9705 0 7.99863 46.2995 0 
7.88271 45.6285 0 7.76679 44.9575 0 7.65087 44.2865 0 
7.53494 43.6155 0 7.41902 42.9445 0 7.3031 42.2735 0 
7.18718 41.6025 0 7.07126 40.9315 0 6.95533 40.2604 0 
6.83941 39.5894 0 6.72349 38.9184 0 6.60757 38.2474 0 
6.49164 37.5764 0 6.37572 36.9054 0 6.2598 36.2344 0 
6.14388 35.5634 0 6.02796 34.8924 0 5.91203 34.2214 0 
5.79611 33.5504 0 5.68019 32.8794 0 5.56427 32.2084 0 
5.44834 31.5373 0 5.33242 30.8663 0 5.2165 30.1953 0 
5.10058 29.5243 0 4.98466 28.8533 0 4.86873 28.1823 0 
4.75281 27.5113 0 4.63689 26.8403 0 4.52097 26.1693 0 
4.40504 25.4983 0 4.28912 24.8273 0 4.1732 24.1563 0 
4.05728 23.4853 0 3.94136 22.8143 0 3.82543 22.1432 0 
3.70951 21.4722 0 3.59359 20.8012 0 3.47767 20.1302 0 
3.36174 19.4592 0 3.24582 18.7882 0 3.1299 18.1172 0 
3.01398 17.4462 0 2.89806 16.7752 0 2.78213 16.1042 0 
2.66621 15.4332 0 2.55029 14.7622 0 2.43437 14.0912 0 
2.31844 13.4201 0 2.20252 12.7491 0 2.0866 12.0781 0 
1.97068 11.4071 0 1.85476 10.7361 0 1.73883 10.0651 0 
1.62291 9.3941 0 1.50699 8.7231 0 1.39107 8.05209 0 
1.27514 7.38108 0 1.15922 6.71007 0 1.0433 6.03907 0 
0.927378 5.36806 0 0.811456 4.69705 0 0.695533 4.02604 0 
0.579611 3.35504 0 0.463689 2.68403 0 0.347767 2.01302 0 
0.231844 1.34201 0 0.115922 0.671007 0 6.57398e-16 -1.13571e-16 0 
-0.115922 -0.671007 0 -0.231844 -1.34201 0 -0.347767 -2.01302 0 
-0.463689 -2.68403 0 -0.579611 -3.35504 0 -0.695533 -4.02604 0 
-0.811456 -4.69705 0 -0.927378 -5.36806 0 -1.0433 -6.03907 0 
0 0 0 0 0 0 0 0 0 
0 0 0 0 0 0 0 0 0 
0 0 0 0 0 0 0 0 0 
0 0 0 0 0 0 0 0 0 
0 0 0 0 0 0 0 0 0 
0 0 0 0 0 0 0 0 0 
0 0 0 0 0 0 0 0 0 
0 0 0 0 0 0 0 0 0 
0 0 0 0 0 0 0 0 0 
0 0 0 0 0 0 0 0 0 
0 0 0 0 0 0 0 0 0 
0 0 0 0 0 0 0 0 0 
0 0 0 0 0 0 0 0 0 
0 0 0 0 0 0 0 0 0 
0 0 0 0 0 0 0 0 0 
0 0 0 0 0 0 0 0 0 
0 0 0 0 0 0 0 0 0 
0 0 0 0 0 0 0 0 0 
0 0 0 0 0 0 0 0 0 
0 0 0 0 0 0 0 0 0 
0 0 0 0 0 0 0 0 0 
0 0 0 0 0 0 0 0 0 
0 0 0 0 0 0 0 0 0 
0 0 0 0 0 0 0 0 0 
0 0 0 0 0 0 0 0 0 
0 0 0 0 0 0 0 0 0 
0 0 0 0 0 0 0 0 0 
0 0 0 0 0 0 0 0 0 
0 0 0 0 0 0 0 0 0 
0 0 0 0 0 0 0 0 0 
0 0 0 0 0 0 0 0 0 
0 0 0 0 0 0 0 0 0 
0 0 0 0 0 0 0 0 0 
0 0 0 0 0 0 0 0 0 
0 0 0 0 0 0 0 0 0 
0 0 0 0 0 0 0 0 0 
0 0 0 0 0 0 0 0 0 
0 0 0 0 0 0 0 0 0 
0 0 0 0 0 0 0 0 0 
0 0 0 0 0 0 0 0 0 
0 0 0 0 0 0 0 0 0 
0 0 0 0 0 0 0 0 0 
0 0 0 0 0 0 0 0 0 
0 0 0 0 0 0 0 0 0 
0 0 0 0 0 0 0 0 0 
0 0 0 0 0 0 0 0 0 
0 0 0 0 0 0 0 0 0 
0 0 0 0 0 0 0 0 0 
0 0 0 0 0 0 0 0 0 
0 0 0 20.1734 20.7011 0 19.5356 20.8113 0 
18.9394 20.9142 0 18.4041 21.0067 0 17.9468 21.0857 0 
17.5823 21.1487 0 17.3222 21.1936 0 17.175 21.2191 0 
17.1453 21.2242 0 17.2341 21.2088 0 17.4386 21.1735 0 
17.7522 21.1194 0 18.1647 21.0481 0 18.663 20.962 0 
19.2311 20.8639 0 19.8506 20.7568 0 20.5016 20.6444 0 
21.1633 20.53 0 21.8144 20.4176 0 22.4339 20.3105 0 
23.0019 20.2124 0 23.5002 20.1263 0 23.9128 20.0551 0 
24.2263 20.0009 0 24.4308 19.9656 0 24.5196 19.9502 0 
24.4899 19.9553 0 24.3427 19.9808 0 24.0826 20.0257 0 
23.7181 20.0887 0 23.2608 20.1677 0 22.7255 20.2602 0 
22.1293 20.3632 0 21.4915 20.4734 0 23.6146 36.6914 0 
23.4987 36.0204 0 23.3828 35.3494 0 23.2668 34.6784 0 
23.1509 34.0074 0 23.035 33.3363 0 22.9191 32.6653 0 
22.8031 31.9943 0 22.6872 31.3233 0 22.5713 30.6523 0 
22.4554 29.9813 0 22.3395 29.3103 0 22.2235 28.6393 0 
22.1076 27.9683 0 21.9917 27.2973 0 21.8758 26.6263 0 
21.7598 25.9553 0 21.6439 25.2843 0 21.528 24.6132 0 
21.4121 23.9422 0 21.2962 23.2712 0 21.1802 22.6002 0 
21.0643 21.9292 0 20.9484 21.2582 0 23.0715 37.4762 0 
22.4336 37.5864 0 21.8375 37.6894 0 21.3021 37.7819 0 
20.8449 37.8609 0 20.4804 37.9239 0 20.2203 37.9688 0 
20.073 37.9942 0 20.0434 37.9994 0 20.1322 37.984 0 
20.3367 37.9487 0 20.6502 37.8945 0 21.0628 37.8233 0 
21.5611 37.7372 0 22.1291 37.639 0 22.7486 37.532 0 
23.3997 37.4195 0 24.0614 37.3052 0 24.7124 37.1928 0 
25.3319 37.0857 0 25.9 36.9876 0 26.3983 36.9015 0 
26.8108 36.8302 0 27.1244 36.7761 0 27.3289 36.7407 0 
27.4177 36.7254 0 27.388 36.7305 0 27.2408 36.756 0 
26.9807 36.8009 0 26.6162 36.8639 0 26.1589 36.9429 0 
25.6236 37.0353 0 25.0274 37.1383 0 24.3895 37.2485 0 
20.1779 20.7003 0 19.5484 20.809 0 18.9683 20.9093 0 
18.4599 20.9971 0 18.0426 21.0692 0 17.7325 21.1227 0 
17.5416 21.1557 0 17.4771 21.1669 0 17.5416 21.1557 0 
17.7325 21.1227 0 18.0426 21.0692 0 18.4599 20.9971 0 
18.9683 20.9093 0 19.5484 20.809 0 20.1779 20.7003 0 
20.8325 20.5872 0 21.4871 20.4741 0 22.1165 20.3654 0 
22.6966 20.2652 0 23.2051 20.1773 0 23.6224 20.1052 0 
23.9324 20.0517 0 24.1234 20.0187 0 24.1878 20.0075 0 
24.1234 20.0187 0 23.9324 20.0517 0 23.6224 20.1052 0 
23.2051 20.1773 0 22.6966 20.2652 0 22.1165 20.3654 0 
21.4871 20.4741 0 23.0759 37.4755 0 22.4465 37.5842 0 
21.8664 37.6844 0 21.3579 37.7723 0 20.9406 37.8444 0 
20.6306 37.8979 0 20.4396 37.9309 0 20.3751 37.9421 0 
20.4396 37.9309 0 20.6306 37.8979 0 20.9406 37.8444 0 
21.3579 37.7723 0 21.8664 37.6844 0 22.4465 37.5842 0 
23.0759 37.4755 0 23.7305 37.3624 0 24.3851 37.2493 0 
25.0146 37.1406 0 25.5947 37.0403 0 26.1031 36.9525 0 
26.5204 36.8804 0 26.8305 36.8268 0 27.0214 36.7939 0 
27.0859 36.7827 0 27.0214 36.7939 0 26.8305 36.8268 0 
26.5204 36.8804 0 26.1031 36.9525 0 25.5947 37.0403 0 
25.0146 37.1406 0 24.3851 37.2493 0 23.6146 36.6914 0 
23.4987 36.0204 0 23.3828 35.3494 0 23.2668 34.6784 0 
23.1509 34.0074 0 23.035 33.3363 0 22.9191 32.6653 0 
22.8031 31.9943 0 22.6872 31.3233 0 22.5713 30.6523 0 
22.4554 29.9813 0 22.3395 29.3103 0 22.2235 28.6393 0 
22.1076 27.9683 0 21.9917 27.2973 0 21.8758 26.6263 0 
21.7598 25.9553 0 21.6439 25.2843 0 21.528 24.6132 0 
21.4121 23.9422 0 21.2962 23.2712 0 21.1802 22.6002 0 
21.0643 21.9292 0 20.9484 21.2582 0 0 0 0 
0 0 0 0 0 0 0 0 0 
0 0 0 0 0 0 0 0 0 
0 0 0 0 0 0 0 0 0 
0 0 0 0 0 0 0 0 0 
0 0 0 0 0 0 0 0 0 
0 0 0 0 0 0 0 0 0 
0 0 0 0 0 0 0 0 0 
0 0 0 0 0 0 0 0 0 
0 0 0 0 0 0 0 0 0 
0 0 0 0 0 0 0 0 0 
0 0 0 0 0 0 0 0 0 
0 0 0 0 0 0 0 0 0 
0 0 0 0 0 0 0 0 0 
0 0 0 0 0 0 0 0 0 
0 0 0 0 0 0 0 0 0 
0 0 0 0 0 0 0 0 0 
0 0 0 0 0 0 0 0 0 
0 0 0 0 0 0 0 0 0 
0 0 0 0 0 0 0 0 0 
0 0 0 0 0 0 0 0 0 
0 0 0 0 0 0 0 0 0 
0 0 0 0 0 0 0 0 0 
0 0 0 0 0 0 0 0 0 
0 0 0 0 0 0 0 0 0 
0 0 0 0 0 0 0 0 0 
0 0 0 0 0 0 0 0 0 
0 0 0 0 0 0 0 0 0 
0 0 0 0 0 0 0 0 0 
0 0 0 0 0 0 0 0 0 
0 0 0 0 0 0 0 0 0 
0 0 0 0 0 0 0 0 0 
0 0 0 0 0 0 0 0 0 
0 0 0 0 0 0 0 0 0 
0 0 0 0 0 0 0 0 0 
0 0 0 0 0 0 0 0 0 
0 0 0 0 0 0 0 0 0 
0 0 0 0 0 0 0 0 0 
0 0 0 0 0 0 0 0 0 
0 0 0 0 0 0 0 0 0 
0 0 0 0 0 0 0 0 0 
0 0 0 0 0 0 0 0 0 
0 0 0 0 0 0 0 0 0 
0 0 0 0 0 0 0 0 0 
0 0 0 0 0 0 0 0 0 
0 0 0 0 0 0 0 0 0 
0 0 0 0 0 0 0 0 0 
0 0 0 0 0 0 0 0 0 
0 0 0 0 0 0 0 0 0 
0 0 0 0 0 0 0 0 0 
0 0 0 0 0 0 0 0 0 
0 0 0 0 0 0 0 0 0 
0 0 0 0 0 0 0 0 0 
0 0 0 0 0 0 0 0 0 
0 0 0 0 0 0 0 0 0 
0 0 0 0 0 0 0 0 0 
0 0 0 0 0 0 0 0 0 
0 0 0 0 0 0 0 0 0 
0 0 0 0 0 0 0 0 0 
0 0 0 0 0 0 0 0 0 
0 0 0 0 0 0 0 0 0 
0 0 0 0 0 0 0 0 0 
0 0 0 0 0 0 0 0 0 
0 0 0 0 0 0 0 0 0 
0 0 0 0 0 0 0 0 0 
0 0 0 0 0 0 0 0 0 
0 0 0 0 0 0 0 0 0 
0 0 0 0 0 0 0 0 0 
0 0 0 0 0 0 0 0 0 
0 0 0 0 0 0 0 0 0 
0 0 0 0 0 0 0 0 0 
0 0 0 0 0 0 0 0 0 
0 0 0 0 0 0 0 0 0 
0 0 0 0 0 0 0 0 0 
0 0 0 0 0 0 0 0 0 
0 0 0 0 0 0 0 0 0 
0 0 0 0 0 0 0 0 0 
0 0 0 0 0 0 0 0 0 
0 0 0 0 0 0 0 0 0 
0 0 0 0 0 0 0 0 0 
0 0 0 0 0 0 0 0 0 
0 0 0 0 0 0 0 0 0 
0 0 0 0 0 0 0 0 0 
0 0 0 0 0 0 0 0 0 
0 0 0 0 0 0 0 0 0 
0 0 0 0 0 0 0 0 0 
0 0 0 0 0 0 0 0 0 
0 0 0 0 0 0 0 0 0 
0 0 0 0 0 0 0 0 0 
0 0 0 0 0 0 0 0 0 
0 0 0 0 0 0 0 0 0 
0 0 0 0 0 0 0 0 0 
0 0 0 0 0 0 0 0 0 
0 0 0 0 0 0 0 0 0 
0 0 0 0 0 0 0 0 0 
0 0 0 0 0 0 0 0 0 
0 0 0 0 0 0 0 0 0 
0 0 0 0 0 0 0 0 0 
0 0 0 0 0 0 0 0 0 
0 0 0 0 0 0 0 0 0 
0 0 0 0 0 0 0 0 0 
0 0 0 0 0 0 0 0 0 
0 0 0 0 0 0 0 0 0 
0 0 0 0 0 0 0 0 0 
0 0 0 0 0 0 0 0 0 
0 0 0 0 0 0 0 0 0 
0 0 0 0 0 0 0 0 0 
0 0 0 0 0 0 0 0 0 
0 0 0 0 0 0 0 0 0 
0 0 0 0 0 0 0 0 0 
0 0 0 0 0 0 0 0 0 
0 0 0 0 0 0 0 0 0 
0 0 0 0 0 0 0 0 0 
0 0 0 0 0 0 0 0 0 
0 0 0 0 0 0 0 0 0 
0 0 0 0 0 0 0 0 0 
0 0 0 0 0 0 0 0 0 
0 0 0 0 0 0 0 0 0 
0 0 0 0 0 0 0 0 0 
0 0 0 0 0 0 0 0 0 
0 0 0 0 0 0 0 0 0 
0 0 0 0 0 0 0 0 0 
0 0 0 0 0 0 0 0 0 
0 0 0 0 0 0 0 0 0 
0 0 0 0 0 0 0 0 0 
0 0 0 0 0 0 0 0 0 
0 0 0 0 0 0 0 0 0 
0 0 0 0 0 0 0 0 0 
0 0 0 0 0 0 0 0 0 
0 0 0 0 0 0 0 0 0 
0 0 0 0 0 0 0 0 0 
0 0 0 0 0 0 0 0 0 
0 0 0 0 0 0 0 0 0 
0 0 0 0 0 0 0 0 0 
0 0 0 0 0 0 0 0 0 
0 0 0 0 0 0 0 0 0 
0 0 0 0 0 0 0 0 0 
0 0 0 0 0 0 0 0 0 
0 0 0 0 0 0 0 0 0 
0 0 0 0 0 0 0 0 0 
0 0 0 0 0 0 0 0 0 
0 0 0 0 0 0 0 0 0 
0 0 0 0 0 0 0 0 0 
0 0 0 0 0 0 0 0 0 
0 0 0 0 0 0 0 0 0 
0 0 0 0 0 0 0 0 0 
0 0 0 0 0 0 0 0 0 
0 0 0 0 0 0 0 0 0 
0 0 0 0 0 0 0 0 0 
0 0 0 0 0 0 0 0 0 
0 0 0 0 0 0 0 0 0 
0 0 0 0 0 0 0 0 0 
0 0 0 0 0 0 0 0 0 
0 0 0 0 0 0 0 0 0 
0 0 0 0 0 0 0 0 0 
0 0 0 0 0 0 0 0 0 
0 0 0 0 0 0 0 0 0 
0 0 0 0 0 0 0 0 0 
0 0 0 0 0 0 0 0 0 
0 0 0 0 0 0 0 0 0 
0 0 0 0 0 0 0 0 0 
0 0 0 0 0 0 0 0 0 
0 0 0 0 0 0 0 0 0 
0 0 0 0 0 0 0 0 0 
0 0 0 0 0 0 0 0 0 
0 0 0 0 0 0 0 0 0 
0 0 0 0 0 0 0 0 0 
0 0 0 0 0 0 0 0 0 
0 0 0 0 0 0 0 0 0 
0 0 0 0 0 0 0 0 0 
0 0 0 0 0 0 0 0 0 
0 0 0 0 0 0 0 0 0 
0 0 0 0 0 0 0 0 0 
0 0 0 0 0 0 0 0 0 
0 0 0 0 0 0 0 0 0 
0 0 0 0 0 0 0 0 0 
0 0 0 0 0 0 0 0 0 
0 0 0 0 0 0 0 0 0 
0 0 0 0 0 0 0 0 0 
0 0 0 0 0 0 0 0 0 
0 0 0 0 0 0 0 0 0 
0 0 0 0 0 0 0 0 0 
0 0 0 0 0 0 0 0 0 
0 0 0 0 0 0 0 0 0 
0 0 0 0 0 0 0 0 0 
0 0 0 0 0 0 0 0 0 
0 0 0 0 0 0 0 0 0 
0 0 0 0 0 0 0 0 0 
0 0 0 0 0 0 0 0 0 
0 0 0 0 0 0 0 0 0 
0 0 0 0 0 0 0 0 0 
0 0 0 0 0 0 0 0 0 
0 0 0 0 0 0 0 0 0 
0 0 0 0 0 0 0 0 0 
0 0 0 0 0 0 0 0 0 
0 0 0 0 0 0 0 0 0 
0 0 0 0 0 0 0 0 0 
0 0 0 0 0 0 0 0 0 
0 0 0 0 0 0 0 0 0 
0 0 0 0 0 0 0 0 0 
0 0 0 0 0 0 0 0 0 
0 0 0 0 0 0 0 0 0 
0 0 0 0 0 0 0 0 0 
0 0 0 0 0 0 0 0 0 
0 0 0 0 0 0 0 0 0 
0 0 0 0 0 0 0 0 0 
0 0 0 0 0 0 0 0 0 
0 0 0 0 0 0 0 0 0 
0 0 0 0 0 0 0 0 0 
0 0 0 0 0 0 0 0 0 
0 0 0 0 0 0 0 0 0 
0 0 0 0 0 0 0 0 0 
0 0 0 0 0 0 0 0 0 
0 0 0 0 0 0 0 0 0 
0 0 0 0 0 0 0 0 0 
0 0 0 0 0 0 0 0 0 
0 0 0 0 0 0 0 0 0 
0 0 0 0 0 0 0 0 0 
0 0 0 0 0 0 0 0 0 
0 0 0 0 0 0 0 0 0 
0 0 0 0 0 0 0 0 0 
0 0 0 0 0 0 0 0 0 
0 0 0 0 0 0 0 0 0 
0 0 0 0 0 0 0 0 0 
0 0 0 0 0 0 0 0 0 
0 0 0 0 0 0 0 0 0 
0 0 0 0 0 0 0 0 0 
0 0 0 0 0 0 0 0 0 
0 0 0 0 0 0 0 0 0 
0 0 0 0 0 0 0 0 0 
0 0 0 0 0 0 0 0 0 
0 0 0 0 0 0 0 0 0 
0 0 0 0 0 0 0 0 0 
0 0 0 0 0 0 0 0 0 
0 0 0 0 0 0 0 0 0 
0 0 0 0 0 0 0 0 0 
0 0 0 0 0 0 0 0 0 
0 0 0 0 0 0 0 0 0 
0 0 0 0 0 0 0 0 0 
0 0 0 0 0 0 0 0 0 
0 0 0 0 0 0 0 0 0 
0 0 0 0 0 0 0 0 0 
0 0 0 0 0 0 0 0 0 
0 0 0 0 0 0 0 0 0 
0 0 0 0 0 0 0 0 0 
0 0 0 0 0 0 0 0 0 
0 0 0 0 0 0 0 0 0 
0 0 0 0 0 0 0 0 0 
0 0 0 0 0 0 0 0 0 
0 0 0 0 0 0 0 0 0 
0 0 0 0 0 0 0 0 0 
0 0 0 0 0 0 0 0 0 
0 0 0 0 0 0 0 0 0 
0 0 0 0 0 0 0 0 0 
0 0 0 0 0 0 0 0 0 
0 0 0 0 0 0 0 0 0 
0 0 0 0 0 0 0 0 0 
0 0 0 0 0 0 0 0 0 
0 0 0 0 0 0 0 0 0 
0 0 0 0 0 0 0 0 0 
0 0 0 0 0 0 0 0 0 
0 0 0 0 0 0 0 0 0 
0 0 0 0 0 0 0 0 0 
0 0 0 0 0 0 0 0 0 
0 0 0 0 0 0 0 0 0 
0 0 0 0 0 0 0 0 0 
0 0 0 0 0 0 0 0 0 
0 0 0 0 0 0 0 0 0 
0 0 0 0 0 0 0 0 0 
0 0 0 0 0 0 0 0 0 
0 0 0 0 0 0 0 0 0 
0 0 0 0 0 0 0 0 0 
0 0 0 0 0 0 0 0 0 
0 0 0 0 0 0 0 0 0 
0 0 0 0 0 0 0 0 0 
0 0 0 0 0 0 0 0 0 
0 0 0 0 0 0 0 0 0 
0 0 0 0 0 0 0 0 0 
0 0 0 0 0 0 0 0 0 
0 0 0 0 0 0 0 0 0 
0 0 0 0 0 0 0 0 0 
0 0 0 0 0 0 0 0 0 
0 0 0 0 0 0 0 0 0 
0 0 0 0 0 0 0 0 0 
0 0 0 0 0 0 0 0 0 
0 0 0 0 0 0 0 0 0 
0 0 0 0 0 0 0 0 0 
0 0 0 0 0 0 0 0 0 
0 0 0 0 0 0 0 0 0 
0 0 0 0 0 0 0 0 0 
0 0 0 0 0 0 0 0 0 
0 0 0 0 0 0 0 0 0 
0 0 0 0 0 0 0 0 0 
0 0 0 0 0 0 0 0 0 
0 0 0 0 0 0 0 0 0 
0 0 0 0 0 0 0 0 0 
0 0 0 0 0 0 0 0 0 
0 0 0 0 0 0 0 0 0 
0 0 0 0 0 0 0 0 0 
0 0 0 0 0 0 0 0 0 
0 0 0 0 0 0 0 0 0 
0 0 0 0 0 0 0 0 0 
0 0 0 0 0 0 0 0 0 
0 0 0 0 0 0 0 0 0 
0 0 0 0 0 0 0 0 0 
0 0 0 0 0 0 0 0 0 
0 0 0 0 0 0 0 0 0 
0 0 0 0 0 0 0 0 0 
0 0 0 0 0 0 0 0 0 
0 0 0 0 0 0 0 0 0 
0 0 0 0 0 0 0 0 0 
0 0 0 0 0 0 0 0 0 
0 0 0 0 0 0 0 0 0 
0 0 0 0 0 0 0 0 0 
0 0 0 0 0 0 0 0 0 
0 0 0 0 0 0 0 0 0 
0 0 0 0 0 0 0 0 0 
0 0 0 0 0 0 0 0 0 
0 0 0 0 0 0 0 0 0 
0 0 0 0 0 0 0 0 0 
0 0 0 0 0 0 0 0 0 
0 0 0 0 0 0 0 0 0 
0 0 0 0 0 0 0 0 0 
0 0 0 0 0 0 0 0 0 
0 0 0 0 0 0 0 0 0 
0 0 0 0 0 0 0 0 0 
0 0 0 0 0 0 0 0 0 
0 0 0 0 0 0 0 0 0 
0 0 0 0 0 0 0 0 0 
0 0 0 0 0 0 0 0 0 
0 0 0 0 0 0 0 0 0 
0 0 0 0 0 0 0 0 0 
0 0 0 0 0 0 0 0 0 
0 0 0 0 0 0 0 0 0 
0 0 0 0 0 0 0 0 0 
0 0 0 0 0 0 0 0 0 
0 0 0 0 0 0 0 0 0 
0 0 0 0 0 0 0 0 0 
0 0 0 0 0 0 0 0 0 
0 0 0 0 0 0 0 0 0 
0 0 0 0 0 0 0 0 0 
0 0 0 0 0 0 0 0 0 
0 0 0 0 0 0 0 0 0 
0 0 0 0 0 0 0 0 0 
0 0 0 0 0 0 0 0 0 
0 0 0 0 0 0 0 0 0 
0 0 0 0 0 0 0 0 0 
0 0 0 0 0 0 0 0 0 
0 0 0 0 0 0 0 0 0 
0 0 0 0 0 0 0 0 0 
0 0 0 0 0 0 0 0 0 
0 0 0 0 0 0 0 0 0 
0 0 0 0 0 0 0 0 0 
0 0 0 0 0 0 0 0 0 
0 0 0 0 0 0 0 0 0 
0 0 0 0 0 0 0 0 0 
0 0 0 0 0 0 0 0 0 
0 0 0 0 0 0 0 0 0 
0 0 0 0 0 0 0 0 0 
0 0 0 0 0 0 0 0 0 
0 0 0 0 0 0 0 0 0 
0 0 0 0 0 0 0 0 0 
0 0 0 0 0 0 0 0 0 
0 0 0 0 0 0 0 0 0 
0 0 0 0 0 0 0 0 0 
0 0 0 0 0 0 0 0 0 
0 0 0 0 0 0 0 0 0 
0 0 0 0 0 0 0 0 0 
0 0 0 0 0 0 0 0 0 
0 0 0 0 0 0 0 0 0 
0 0 0 0 0 0 0 0 0 
0 0 0 0 0 0 0 0 0 
0 0 0 0 0 0 0 0 0 
0 0 0 0 0 0 0 0 0 
0 0 0 0 0 0 0 0 0 
0 0 0 0 0 0 0 0 0 
0 0 0 0 0 0 0 0 0 
0 0 0 0 0 0 0 0 0 
0 0 0 0 0 0 0 0 0 
0 0 0 0 0 0 0 0 0 
0 0 0 0 0 0 0 0 0 
0 0 0 0 0 0 0 0 0 
0 0 0 0 0 0 0 0 0 
0 0 0 0 0 0 0 0 0 
0 0 0 0 0 0 0 0 0 
0 0 0 0 0 0 0 0 0 
0 0 0 0 0 0 0 0 0 
0 0 0 0 0 0 0 0 0 
0 0 0 0 0 0 0 0 0 
0 0 0 0 0 0 0 0 0 
0 0 0 0 0 0 0 0 0 
0 0 0 0 0 0 0 0 0 
0 0 0 0 0 0 0 0 0 
0 0 0 0 0 0 0 0 0 
0 0 0 0 0 0 0 0 0 
0 0 0 0 0 0 0 0 0 
0 0 0 0 0 0 0 0 0 
0 0 0 0 0 0 0 0 0 
0 0 0 0 0 0 0 0 0 
0 0 0 0 0 0 0 0 0 
0 0 0 0 0 0 0 0 0 
0 0 0 0 0 0 0 0 0 
0 0 0 0 0 0 0 0 0 
0 0 0 0 0 0 0 0 0 
0 0 0 0 0 0 0 0 0 
0 0 0 0 0 0 0 0 0 
0 0 0 0 0 0 0 0 0 
0 0 0 0 0 0 0 0 0 
0 0 0 0 0 0 0 0 0 
0 0 0 0 0 0 0 0 0 
0 0 0 0 0 0 0 0 0 
0 0 0 0 0 0 0 0 0 
0 0 0 0 0 0 0 0 0 
0 0 0 0 0 0 0 0 0 
0 0 0 0 0 0 0 0 0 
0 0 0 0 0 0 0 0 0 
0 0 0 0 0 0 0 0 0 
0 0 0 0 0 0 0 0 0 
0 0 0 0 0 0 0 0 0 
0 0 0 0 0 0 0 0 0 
0 0 0 0 0 0 0 0 0 
0 0 0 0 0 0 0 0 0 
0 0 0 0 0 0 0 0 0 
0 0 0 0 0 0 0 0 0 
0 0 0 0 0 0 0 0 0 
0 0 0 0 0 0 0 0 0 
0 0 0 0 0 0 0 0 0 
0 0 0 0 0 0 0 0 0 
0 0 0 0 0 0 0 0 0 
0 0 0 0 0 0 0 0 0 
0 0 0 0 0 0 0 0 0 
0 0 0 0 0 0 0 0 0 
0 0 0 0 0 0 0 0 0 
0 0 0 0 0 0 0 0 0 
0 0 0 0 0 0 0 0 0 
0 0 0 0 0 0 0 0 0 
0 0 0 0 0 0 0 0 0 
0 0 0 0 0 0 0 0 0 
0 0 0 0 0 0 0 0 0 
0 0 0 0 0 0 0 0 0 
0 0 0 0 0 0 0 0 0 
0 0 0 0 0 0 0 0 0 
0 0 0 0 0 0 0 0 0 
0 0 0 0 0 0 0 0 0 
0 0 0 0 0 0 0 0 0 
0 0 0 0 0 0 0 0 0 
0 0 0 0 0 0 0 0 0 
0 0 0 0 0 0 0 0 0 
0 0 0 0 0 0 0 0 0 
0 0 0 0 0 0 0 0 0 
0 0 0 0 0 0 0 0 0 
0 0 0 0 0 0 0 0 0 
0 0 0 0 0 0 0 0 0 
0 0 0 0 0 0 0 0 0 
0 0 0 0 0 0 0 0 0 
0 0 0 0 0 0 0 0 0 
0 0 0 0 0 0 0 0 0 
0 0 0 0 0 0 0 0 0 
0 0 0 0 0 0 0 0 0 
0 0 0 0 0 0 0 0 0 
0 0 0 0 0 0 0 0 0 
0 0 0 0 0 0 0 0 0 
0 0 0 0 0 0 0 0 0 
0 0 0 0 0 0 0 0 0 
0 0 0 0 0 0 0 0 0 
0 0 0 0 0 0 0 0 0 
0 0 0 0 0 0 0 0 0 
0 0 0 0 0 0 0 0 0 
0 0 0 0 0 0 0 0 0 
0 0 0 0 0 0 0 0 0 
0 0 0 0 0 0 0 0 0 
0 0 0 0 0 0 0 0 0 
0 0 0 0 0 0 0 0 0 
0 0 0 0 0 0 0 0 0 
0 0 0 0 0 0 0 0 0 
0 0 0 0 0 0 0 0 0 
0 0 0 0 0 0 0 0 0 
0 0 0 0 0 0 0 0 0 
0 0 0 0 0 0 0 0 0 
0 0 0 0 0 0 0 0 0 
0 0 0 0 0 0 0 0 0 
0 0 0 0 0 0 0 0 0 
0 0 0 0 0 0 0 0 0 
0 0 0 0 0 0 0 0 0 
0 0 0 0 0 0 0 0 0 
0 0 0 0 0 0 0 0 0 
0 0 0 0 0 0 0 0 0 
0 0 0 0 0 0 0 0 0 
0 0 0 0 0 0 0 0 0 
0 0 0 0 0 0 0 0 0 
0 0 0 0 0 0 0 0 0 
0 0 0 0 0 0 0 0 0 
0 0 0 0 0 0 0 0 0 
0 0 0 0 0 0 0 0 0 
0 0 0 0 0 0 0 0 0 
0 0 0 0 0 0 0 0 0 
0 0 0 0 0 0 0 0 0 
0 0 0 0 0 0 0 0 0 
0 0 0 0 0 0 0 0 0 
0 0 0 0 0 0 0 0 0 
0 0 0 0 0 0 0 0 0 
0 0 0 0 0 0 0 0 0 
0 0 0 0 0 0 0 0 0 
0 0 0 0 0 0 0 0 0 
0 0 0 0 0 0 0 0 0 
0 0 0 0 0 0 0 0 0 
0 0 0 0 0 0 0 0 0 
0 0 0 0 0 0 0 0 0 
0 0 0 0 0 0 0 0 0 
0 0 0 0 0 0 0 0 0 
0 0 0 0 0 0 0 0 0 
0 0 0 0 0 0 0 0 0 
0 0 0 0 0 0 0 0 0 
0 0 0 0 0 0 0 0 0 
0 0 0 0 0 0 0 0 0 
0 0 0 0 0 0 0 0 0 
0 0 0 0 0 0 0 0 0 
0 0 0 0 0 0 0 0 0 
0 0 0 0 0 0 0 0 0 
0 0 0 0 0 0 0 0 0 
0 0 0 0 0 0 0 0 0 
0 0 0 0 0 0 0 0 0 
0 0 0 0 0 0 0 0 0 
0 0 0 0 0 0 0 0 0 
0 0 0 0 0 0 0 0 0 
0 0 0 0 0 0 0 0 0 
0 0 0 0 0 0 0 0 0 
0 0 0 0 0 0 0 0 0 
0 0 0 0 0 0 0 0 0 
0 0 0 0 0 0 0 0 0 
0 0 0 0 0 0 0 0 0 
0 0 0 0 0 0 0 0 0 
0 0 0 0 0 0 0 0 0 
0 0 0 0 0 0 0 0 0 
0 0 0 0 0 0 0 0 0 
0 0 0 0 0 0 0 0 0 
0 0 0 0 0 0 0 0 0 
0 0 0 0 0 0 0 0 0 
0 0 0 0 0 0 0 0 0 
0 0 0 0 0 0 0 0 0 
0 0 0 0 0 0 0 0 0 
0 0 0 0 0 0 0 0 0 
0 0 0 0 0 0 0 0 0 
0 0 0 0 0 0 0 0 0 
0 0 0 0 0 0 0 0 0 
0 0 0 0 0 0 0 0 0 
0 0 0 0 0 0 0 0 0 
0 0 0 0 0 0 0 0 0 
0 0 0 0 0 0 0 0 0 
0 0 0 0 0 0 0 0 0 
0 0 0 0 0 0 0 0 0 
0 0 0 0 0 0 0 0 0 
0 0 0 0 0 0 0 0 0 
0 0 0 0 0 0 0 0 0 
0 0 0 0 0 0 0 0 0 
0 0 0 0 0 0 0 0 0 
0 0 0 0 0 0 0 0 0 
0 0 0 0 0 0 0 0 0 
0 0 0 0 0 0 0 0 0 
0 0 0 0 0 0 0 0 0 
0 0 0 0 0 0 0 0 0 
0 0 0 0 0 0 0 0 0 
0 0 0 0 0 0 0 0 0 
0 0 0 0 0 0 0 0 0 
0 0 0 0 0 0 0 0 0 
0 0 0 0 0 0 0 0 0 
0 0 0 0 0 0 0 0 0 
0 0 0 0 0 0 0 0 0 
0 0 0 0 0 0 0 0 0 
0 0 0 0 0 0 0 0 0 
0 0 0 0 0 0 0 0 0 
0 0 0 0 0 0 0 0 0 
0 0 0 0 0 0 0 0 0 
0 0 0 0 0 0 0 0 0 
0 0 0 0 0 0 0 0 0 
0 0 0 0 0 0 0 0 0 
0 0 0 0 0 0 0 0 0 
0 0 0 0 0 0 0 0 0 
0 0 0 0 0 0 0 0 0 
0 0 0 0 0 0 0 0 0 
0 0 0 0 0 0 0 0 0 
0 0 0 0 0 0 0 0 0 
0 0 0 0 0 0 0 0 0 
0 0 0 0 0 0 0 0 0 
0 0 0 0 0 0 0 0 0 
0 0 0 0 0 0 0 0 0 
0 0 0 0 0 0 0 0 0 
0 0 0 -0.959864 -5.46291 0 -1.25461 -4.22894 0 
10.5288 57.9109 0 10.2337 59.1437 0 -1.03219 -6.03601 0 
-1.06883 -4.85445 0 -0.426898 -3.92822 0 -0.537097 -3.25582 0 
-0.334353 -2.55891 0 -0.394244 -1.88348 0 -0.342278 -1.20561 0 
-0.240989 -0.542641 0 -0.120853 0.124297 0 -0.0119951 0.790911 0 
0.112564 1.46268 0 0.222022 2.13322 0 0.344382 2.80608 0 
0.452636 3.47681 0 0.5748 4.14974 0 0.683341 4.82047 0 
0.805827 5.49172 0 0.914209 6.16105 0 1.03793 6.83167 0 
1.14806 7.49967 0 1.27139 8.17391 0 1.38302 8.84357 0 
1.50468 9.51503 0 1.61369 10.1856 0 1.73558 10.8583 0 
1.84404 11.5291 0 1.9659 12.2018 0 2.07529 12.8707 0 
2.19874 13.5424 0 2.30802 14.211 0 2.43038 14.8849 0 
2.53797 15.5553 0 2.65995 16.2273 0 2.7682 16.8976 0 
2.8913 17.5683 0 3.00107 18.2357 0 3.12628 18.9087 0 
3.23714 19.5796 0 3.35855 20.2516 0 3.46773 20.9212 0 
3.59008 21.5945 0 3.69869 22.2653 0 3.82088 22.9376 0 
3.92982 23.6065 0 4.05349 24.279 0 4.1621 24.9471 0 
4.28561 25.6204 0 4.39588 26.29 0 4.51707 26.9622 0 
4.62638 27.631 0 4.74898 28.3038 0 4.85994 28.974 0 
4.98132 29.646 0 5.09061 30.3154 0 5.21298 30.9886 0 
5.3216 31.6595 0 5.44379 32.3317 0 5.55227 33.001 0 
5.67582 33.6737 0 5.78345 34.3431 0 5.90727 35.0143 0 
6.01716 35.6832 0 6.14031 36.3564 0 6.24973 37.0266 0 
6.37235 37.6989 0 6.48077 38.3671 0 6.60412 39.0405 0 
6.7149 39.7105 0 6.83612 40.3822 0 6.94576 41.051 0 
7.06765 41.7248 0 7.17741 42.3942 0 7.29915 43.0657 0 
7.40859 43.7338 0 7.53137 44.4084 0 7.64289 45.078 0 
7.76449 45.7494 0 7.87349 46.42 0 7.99539 47.0927 0 
8.10373 47.7627 0 8.22555 48.436 0 8.33455 49.1058 0 
8.45722 49.7785 0 8.56666 50.4479 0 8.68975 51.119 0 
8.7984 51.7868 0 8.92208 52.4601 0 9.03126 53.1264 0 
9.15097 53.7978 0 9.27171 54.4652 0 9.40679 55.1332 0 
9.50861 55.7519 0 9.63267 56.3536 0 9.85697 56.9666 0 
9.85958 57.6128 0 10.3427 58.5353 0 10.306 59.7166 0 
-4.3127 -5.75892 0 2.26026 -6.60764 0 13.5865 59.4395 0 
7.01352 60.2882 0 -4.32452 -5.79146 0 13.5983 59.4721 0 
-4.17596 -5.77226 0 2.09297 -6.92361 0 13.4497 59.4529 0 
7.18081 60.6042 0 -3.25135 -5.97588 0 1.18356 -6.69813 0 
12.5251 59.6565 0 8.09022 60.3787 0 2.30295 -6.22276 0 
13.5369 58.79 0 6.97082 59.9033 0 -4.26315 -5.10945 0 
2.45412 -5.75012 0 2.47651 -5.03456 0 2.70956 -4.20439 0 
2.59886 -4.9505 0 2.79584 -3.7342 0 2.91408 -2.98695 0 
2.88303 -3.30897 0 2.99968 -2.63289 0 3.034 -2.30065 0 
3.14983 -1.6304 0 3.11581 -1.96038 0 3.23188 -1.28836 0 
3.26645 -0.956525 0 3.34825 -0.614683 0 3.38288 -0.280415 0 
3.46435 0.0573509 0 3.49881 0.390572 0 3.58013 0.727473 0 
3.61419 1.05727 0 3.72944 1.72479 0 3.6957 1.39621 0 
3.81136 2.06581 0 3.84546 2.396 0 3.96121 3.06628 0 
3.92721 2.73637 0 4.04315 3.40751 0 4.0773 3.73797 0 
4.19312 4.40855 0 4.15908 4.07854 0 4.27517 4.75063 0 
4.30975 5.08251 0 4.39154 5.42436 0 4.42618 5.75865 0 
4.50765 6.09642 0 4.5421 6.42964 0 4.62343 6.76657 0 
4.6575 7.09639 0 4.77281 7.76407 0 4.73902 7.43547 0 
4.8548 8.10576 0 4.8893 8.43731 0 4.97093 8.77805 0 
5.00518 9.10898 0 5.1205 9.77669 0 5.08662 9.44753 0 
5.2024 10.1178 0 5.23652 10.4481 0 5.35228 11.1184 0 
5.31827 10.7884 0 5.43421 11.4596 0 5.46837 11.7901 0 
5.58418 12.4606 0 5.55014 12.1306 0 5.66619 12.8025 0 
5.70074 13.1343 0 5.78239 13.4751 0 5.81664 13.8061 0 
5.93203 14.4741 0 5.89821 14.1453 0 6.01406 14.8161 0 
6.04859 15.1477 0 6.13039 15.4896 0 6.16501 15.8238 0 
6.24652 16.1618 0 6.281 16.495 0 6.36248 16.833 0 
6.39694 17.1661 0 6.47837 17.5038 0 6.5128 17.8368 0 
6.59412 18.1737 0 6.62818 18.5035 0 6.74349 19.1712 0 
6.7097 18.8426 0 6.82548 19.5129 0 6.85998 19.8444 0 
6.94161 20.1852 0 6.97586 20.5161 0 7.09118 21.1838 0 
7.05729 20.8547 0 7.17308 21.5249 0 7.2072 21.8552 0 
7.32296 22.5255 0 7.28895 22.1956 0 7.40489 22.8667 0 
7.43904 23.1972 0 7.55485 23.8677 0 7.52081 23.5377 0 
7.63687 24.2096 0 7.67142 24.5414 0 7.75307 24.8823 0 
7.78732 25.2132 0 7.9027 25.8813 0 7.86889 25.5524 0 
7.98473 26.2231 0 8.01926 26.5548 0 8.10103 26.8964 0 
8.13563 27.2306 0 8.21698 27.5676 0 8.25108 27.8976 0 
8.36639 28.5653 0 8.33261 28.2367 0 8.44839 28.907 0 
8.48289 29.2385 0 8.56452 29.5793 0 8.59877 29.9102 0 
8.71409 30.5779 0 8.68021 30.2488 0 8.79599 30.919 0 
8.83011 31.2493 0 8.94587 31.9196 0 8.91186 31.5897 0 
9.0278 32.2608 0 9.06196 32.5913 0 9.17778 33.2619 0 
9.14373 32.9319 0 9.25982 33.6039 0 9.29439 33.9358 0 
9.37616 34.2775 0 9.41077 34.6117 0 9.49212 34.9486 0 
9.52621 35.2786 0 9.64148 35.9462 0 9.60773 35.6175 0 
9.7234 36.2872 0 9.7575 36.6174 0 9.8733 37.2879 0 
9.83927 36.9579 0 9.95532 37.6297 0 9.98987 37.9616 0 
10.0715 38.3024 0 10.1058 38.6333 0 10.2211 39.3014 0 
10.1873 38.9726 0 10.3031 39.6431 0 10.3376 39.9747 0 
10.4193 40.3155 0 10.4535 40.6464 0 10.5689 41.3144 0 
10.5351 40.9856 0 10.6509 41.6563 0 10.6855 41.988 0 
10.7672 42.3296 0 10.8018 42.6638 0 10.8832 43.0007 0 
10.9173 43.3307 0 11.0326 43.9985 0 10.9988 43.6698 0 
11.1146 44.3402 0 11.1491 44.6717 0 11.2307 45.0124 0 
11.265 45.3434 0 11.3803 46.0111 0 11.3464 45.6819 0 
11.4622 46.3522 0 11.4963 46.6825 0 11.6121 47.3528 0 
11.5781 47.0228 0 11.694 47.694 0 11.7282 48.0244 0 
11.8439 48.6948 0 11.8099 48.3648 0 11.9259 49.036 0 
11.96 49.3665 0 12.0758 50.037 0 12.0418 49.707 0 
12.1579 50.3791 0 12.1924 50.711 0 12.2742 51.0526 0 
12.3088 51.3869 0 12.3902 51.7238 0 12.4243 52.0538 0 
12.5396 52.7216 0 12.5058 52.3929 0 12.6216 53.0633 0 
12.6561 53.3948 0 12.7377 53.7355 0 12.772 54.0668 0 
12.8873 54.7343 0 12.8533 54.4046 0 12.9684 55.0702 0 
13.0066 55.4227 0 13.073 55.6772 0 13.1445 56.1424 0 
13.3047 57.0136 0 13.385 57.4999 0 13.5343 58.3736 0 
6.81966 59.4307 0 6.79735 58.7169 0 6.56297 57.8775 0 
6.67496 58.6313 0 6.4728 57.3846 0 6.33928 56.64 0 
6.38758 56.9684 0 6.24199 55.9833 0 6.27352 56.308 0 
6.15789 55.6412 0 6.12668 55.3116 0 6.01417 54.6452 0 
6.04215 54.9722 0 5.89621 53.9735 0 5.92602 54.3005 0 
5.81033 53.6305 0 5.78193 53.3005 0 5.66449 52.6324 0 
5.69452 52.9602 0 5.55113 51.9629 0 5.57887 52.2909 0 
5.43258 51.2896 0 5.46243 51.6171 0 5.34663 50.9464 0 
5.31813 50.6168 0 5.20018 49.9458 0 5.23056 50.2745 0 
5.1147 49.6039 0 5.08622 49.2747 0 4.96832 48.6037 0 
4.99869 48.9324 0 4.88286 48.2618 0 4.85438 47.9326 0 
4.7365 47.2618 0 4.76685 47.5904 0 4.65103 46.9199 0 
4.62264 46.5902 0 4.50519 45.922 0 4.53516 46.2493 0 
4.39135 45.2514 0 4.41958 45.5803 0 4.3034 44.9077 0 
4.27259 44.5773 0 4.15463 43.9003 0 4.1873 44.2355 0 
4.04194 43.2392 0 4.07117 43.5639 0 3.9277 42.5674 0 
3.95591 42.8965 0 3.83971 42.2237 0 3.80889 41.8932 0 
3.69083 41.2161 0 3.72359 41.5513 0 3.57766 40.553 0 
3.60738 40.879 0 3.49183 40.2101 0 3.46346 39.8803 0 
3.34598 39.212 0 3.37595 39.5393 0 3.23214 38.5413 0 
3.26036 38.8703 0 3.14418 38.1977 0 3.11345 37.8673 0 
2.99977 37.1968 0 3.02817 37.5261 0 2.91219 36.8547 0 
2.88147 36.5249 0 2.76355 35.8482 0 2.7962 36.1832 0 
2.65088 35.1871 0 2.6801 35.5118 0 2.53665 34.5153 0 
2.56484 34.8444 0 2.44865 34.1717 0 2.41793 33.8413 0 
2.30423 33.1707 0 2.33264 33.5001 0 2.21666 32.8288 0 
2.18602 32.499 0 2.07238 31.8287 0 2.10076 32.1579 0 
1.9848 31.4866 0 1.95407 31.1568 0 1.83606 30.4799 0 
1.8688 30.8149 0 1.72291 29.8169 0 1.75261 30.1429 0 
1.6371 29.474 0 1.60871 29.1442 0 1.49129 28.4761 0 
1.52132 28.8039 0 1.37793 27.8067 0 1.40567 28.1347 0 
1.25939 27.1334 0 1.28923 27.4609 0 1.17344 26.7903 0 
1.14504 26.4602 0 1.02754 25.7919 0 1.05751 26.1193 0 
0.913694 25.1212 0 0.941921 25.4502 0 0.825736 24.7775 0 
0.795011 24.4472 0 0.681314 23.7766 0 0.709725 24.106 0 
0.593752 23.4346 0 0.563106 23.1049 0 0.449465 22.4346 0 
0.47785 22.7638 0 0.361892 22.0925 0 0.331156 21.7627 0 
0.213149 21.0858 0 0.245887 21.4208 0 0.0999957 20.4228 0 
0.129704 20.7488 0 0.0141849 20.0799 0 -0.0141962 19.7501 0 
-0.131599 19.0821 0 -0.101589 19.4098 0 -0.244837 18.4128 0 
-0.217205 18.7408 0 -0.362835 17.7416 0 -0.333518 18.0679 0 
-0.476624 17.0709 0 -0.448997 17.3992 0 -0.594753 16.3994 0 
-0.565384 16.7258 0 -0.709156 15.7272 0 -0.680917 16.0566 0 
-0.797167 15.3834 0 -0.827992 15.0529 0 -0.946059 14.3758 0 
-0.913301 14.711 0 -1.05924 13.7127 0 -1.02951 14.0388 0 
-1.14507 13.3696 0 -1.17354 13.0403 0 -1.29147 12.3693 0 
-1.26109 12.6981 0 -1.37694 12.0274 0 -1.40542 11.6983 0 
-1.5233 11.0274 0 -1.49294 11.356 0 -1.60877 10.6855 0 
-1.63716 10.3558 0 -1.75461 9.68765 0 -1.72464 10.0149 0 
-1.86845 9.01697 0 -1.84022 9.34594 0 -1.9564 8.67327 0 
-1.9872 8.34286 0 -2.10516 7.666 0 -2.07249 8.0011 0 
-2.21779 7.00492 0 -2.18858 7.32983 0 -2.33154 6.3345 0 
-2.30384 6.66253 0 -2.45012 5.66115 0 -2.42026 5.98874 0 
-2.53608 5.31794 0 -2.56458 4.98834 0 -2.68253 4.31727 0 
-2.65215 4.64605 0 -2.76801 3.97535 0 -2.79649 3.64617 0 
-2.91437 2.97528 0 -2.88401 3.30393 0 -2.99982 2.63354 0 
-3.02821 2.30381 0 -3.14559 1.63584 0 -3.11558 1.96358 0 
-3.25883 0.966572 0 -3.23119 1.29454 0 -3.37692 0.295155 0 
-3.34755 0.62146 0 -3.49142 -0.377456 0 -3.46311 -0.04795 0 
-3.57964 -0.722827 0 -3.61051 -1.05369 0 -3.72696 -1.73671 0 
-3.69689 -1.40139 0 -3.79891 -1.99303 0 -3.87057 -2.46104 0 
-4.03094 -3.333 0 -4.11121 -3.81935 0 -4.26051 -4.69302 0 
2.66173 -4.56589 0 2.77961 -3.90056 0 13.2212 56.5655 0 
13.45 57.922 0 6.61204 58.2465 0 6.49417 57.5812 0 
-3.94736 -2.88481 0 -4.17623 -4.24146 0 2.15195 -7.00368 0 
7.12182 60.6843 0 0.406 -6.54785 0 11.9076 59.7103 0 
8.86778 60.2284 0 -2.63387 -6.02971 0 -4.42917 -5.83616 0 
2.2405 -6.89304 0 13.703 59.5168 0 7.03328 60.5736 0 
0.774962 -6.19136 0 -2.79765 -5.54835 0 12.0714 59.2289 0 
8.49882 59.872 0 1.69472 -6.1156 0 -3.65409 -5.12951 0 
12.9279 58.8101 0 7.57909 59.7964 0 1.41354 -5.65718 0 
7.86023 59.3378 0 1.85595 -4.90076 0 7.41783 58.5814 0 
12.3177 56.7661 0 12.6029 57.5969 0 -3.04392 -3.08553 0 
-3.32912 -3.91632 0 1.38991 -5.26355 0 7.88387 58.9441 0 
12.6739 58.5089 0 -3.4001 -4.82829 0 -2.74576 -4.03239 0 
12.0195 57.7135 0 1.48804 -4.35251 0 1.84519 -3.67339 0 
1.65165 -3.07569 0 1.75443 -2.51025 0 1.87088 -1.86268 0 
1.98482 -1.19661 0 2.09778 -0.525737 0 2.21148 0.14538 0 
2.32662 0.816484 0 2.44223 1.48781 0 2.55696 2.15875 0 
2.67257 2.83008 0 2.78826 3.50133 0 2.90298 4.1723 0 
3.01945 4.84344 0 3.13655 5.51456 0 3.25493 6.18643 0 
3.36996 6.85832 0 3.48793 7.5286 0 3.60233 8.20029 0 
3.71995 8.8706 0 3.83421 9.5423 0 3.95181 10.2126 0 
4.06606 10.8843 0 4.18389 11.5545 0 4.30067 12.2252 0 
4.41688 12.8961 0 4.53251 13.5672 0 4.64882 14.2381 0 
4.7643 14.9093 0 4.87974 15.5808 0 4.99228 16.2498 0 
5.10851 16.9216 0 5.22415 17.5919 0 5.34094 18.2632 0 
5.45734 18.9352 0 5.57218 19.6049 0 5.68886 20.2763 0 
5.80516 20.9482 0 5.91996 21.618 0 6.03663 22.2894 0 
6.15293 22.9612 0 6.26773 23.631 0 6.3844 24.3024 0 
6.50069 24.9743 0 6.61549 25.644 0 6.73216 26.3154 0 
6.84846 26.9873 0 6.96326 27.657 0 7.07993 28.3284 0 
7.19623 29.0003 0 7.31103 29.67 0 7.4277 30.3415 0 
7.54399 31.0133 0 7.65879 31.6831 0 7.77546 32.3545 0 
7.89176 33.0263 0 8.00656 33.6961 0 8.12323 34.3675 0 
8.23953 35.0394 0 8.35433 35.7091 0 8.471 36.3805 0 
8.58729 37.0524 0 8.70209 37.7221 0 8.81876 38.3935 0 
8.93506 39.0654 0 9.04986 39.7352 0 9.16653 40.4066 0 
9.28283 41.0784 0 9.39763 41.7482 0 9.5143 42.4196 0 
9.63059 43.0915 0 9.74539 43.7612 0 9.86206 44.4326 0 
9.97836 45.1045 0 10.0932 45.7742 0 10.2098 46.4456 0 
10.3261 47.1175 0 10.4409 47.7872 0 10.5576 48.4587 0 
10.6739 49.1305 0 10.7887 49.8003 0 10.9054 50.4717 0 
11.0216 51.1436 0 11.1362 51.8133 0 11.252 52.4847 0 
11.3655 53.1559 0 11.4758 53.8237 0 11.5824 54.4875 0 
11.6793 55.1457 0 11.7424 55.8489 0 11.8148 56.5299 0 
12.3127 57.3198 0 12.2095 57.8305 0 7.78574 58.0331 0 
7.42859 57.354 0 7.62213 56.7563 0 7.51935 56.1908 0 
7.4029 55.5433 0 7.28896 54.8772 0 7.176 54.2063 0 
7.0623 53.5352 0 6.94716 52.8641 0 6.83155 52.1928 0 
6.71682 51.5218 0 6.6012 50.8505 0 6.48552 50.1793 0 
6.37079 49.5083 0 6.25433 48.8372 0 6.13723 48.166 0 
6.01885 47.4942 0 5.90382 46.8223 0 5.78585 46.152 0 
5.67145 45.4803 0 5.55382 44.81 0 5.43957 44.1383 0 
5.32196 43.468 0 5.20772 42.7963 0 5.09012 42.126 0 
4.97587 41.4543 0 4.85804 40.784 0 4.74126 40.1134 0 
4.62506 39.4425 0 4.50942 38.7714 0 4.39312 38.1005 0 
4.27764 37.4292 0 4.16219 36.7578 0 4.04965 36.0887 0 
3.93342 35.4169 0 3.81778 34.7467 0 3.701 34.0753 0 
3.58459 33.4034 0 3.46976 32.7336 0 3.35308 32.0622 0 
3.23677 31.3904 0 3.12197 30.7206 0 3.0053 30.0492 0 
2.88901 29.3773 0 2.77421 28.7076 0 2.65754 28.0362 0 
2.54124 27.3643 0 2.42644 26.6946 0 2.30977 26.0232 0 
2.19347 25.3513 0 2.07867 24.6816 0 1.962 24.0101 0 
1.84571 23.3383 0 1.73091 22.6685 0 1.61424 21.9971 0 
1.49794 21.3253 0 1.38314 20.6555 0 1.26647 19.9841 0 
1.15017 19.3122 0 1.03537 18.6425 0 0.918704 17.9711 0 
0.802407 17.2992 0 0.687608 16.6295 0 0.570938 15.9581 0 
0.454641 15.2862 0 0.339841 14.6164 0 0.223171 13.945 0 
0.106874 13.2732 0 -0.00792558 12.6034 0 -0.124596 11.932 0 
-0.240893 11.2601 0 -0.355692 10.5904 0 -0.472362 9.91899 0 
-0.58866 9.24712 0 -0.703459 8.57737 0 -0.820129 7.90597 0 
-0.936426 7.2341 0 -1.05123 6.56435 0 -1.1679 5.89295 0 
-1.28419 5.22108 0 -1.39899 4.55133 0 -1.51566 3.87992 0 
-1.63196 3.20806 0 -1.74663 2.53833 0 -1.86283 1.8671 0 
-1.97737 1.19605 0 -2.0916 0.524722 0 -2.20267 -0.143378 0 
-2.30625 -0.805004 0 -2.40587 -1.46525 0 -2.46861 -2.16829 0 
-2.54102 -2.84925 0 -3.03895 -3.6392 0 -2.93577 -4.14987 0 
-2.97921 -3.46335 0 1.28878 -4.75534 0 -3.49115 -3.98818 0 
1.84534 -2.4347 0 -2.62248 -2.1747 0 -2.75704 -2.76698 0 
-2.43166 -0.863769 0 1.93142 -1.94558 0 -2.69328 -1.34769 0 
-2.46805 0.013295 0 -2.20573 0.487306 0 2.44258 0.933384 0 
-2.23621 1.35531 0 2.62803 2.07208 0 -2.00436 2.69732 0 
2.53755 1.48287 0 -1.97389 1.82932 0 2.85321 3.39942 0 
-1.77252 4.03934 0 2.74227 2.73403 0 -1.74204 3.17134 0 
-1.54067 5.38135 0 2.95784 4.07083 0 -1.5102 4.51335 0 
-1.27835 5.85537 0 -1.30883 6.72337 0 3.48588 6.97245 0 
-1.04651 7.19738 0 -0.808753 8.53034 0 3.55746 7.45015 0 
-1.07022 8.04684 0 3.83364 8.98549 0 -0.845139 9.4074 0 
4.01903 10.1241 0 -0.613295 10.7494 0 3.92826 9.53469 0 
-0.582821 9.88141 0 4.24427 11.4515 0 -0.38145 12.0914 0 
4.13331 10.7861 0 -0.350977 11.2234 0 -0.149606 13.4334 0 
4.34891 12.1229 0 -0.119133 12.5654 0 4.64509 13.6825 0 
0.112712 13.9075 0 0.350469 15.2404 0 4.71668 14.1602 0 
0.0890019 14.7569 0 0.314083 16.1175 0 0.576401 16.5915 0 
0.545927 17.4595 0 0.808245 17.9335 0 5.45656 18.3796 0 
0.777772 18.8015 0 1.00962 20.1435 0 5.52814 18.8573 0 
1.04009 19.2755 0 5.80432 20.3926 0 1.27193 20.6175 0 
5.98971 21.5312 0 1.50969 21.9505 0 5.89894 20.9418 0 
1.24822 21.467 0 6.21494 22.8586 0 1.74154 23.2925 0 
6.10399 22.1932 0 1.48007 22.809 0 1.97338 24.6345 0 
6.31958 23.53 0 1.71191 24.151 0 6.61577 25.0897 0 
1.93699 25.5116 0 2.16884 26.8536 0 6.68736 25.5674 0 
2.19931 25.9856 0 2.43116 27.3276 0 7.07947 27.7737 0 
2.40068 28.1956 0 2.63253 29.5376 0 7.15105 28.2514 0 
2.663 28.6696 0 7.42723 29.7867 0 2.89485 30.0116 0 
7.61262 30.9254 0 3.1326 31.3446 0 7.52185 30.3359 0 
2.87114 30.8611 0 7.83786 32.2527 0 3.36445 32.6866 0 
7.7269 31.5873 0 3.10298 32.2031 0 3.59629 34.0286 0 
7.94249 32.9241 0 3.33482 33.5451 0 3.55991 34.9057 0 
8.35461 35.1548 0 3.82222 35.3797 0 8.53966 36.296 0 
4.05998 36.7126 0 8.44946 35.7046 0 3.79851 36.2291 0 
4.29182 38.0547 0 8.63816 36.9503 0 4.03036 37.5712 0 
8.93422 38.5098 0 4.25544 38.9317 0 4.48728 40.2737 0 
9.0058 38.9875 0 4.51776 39.4057 0 9.28198 40.5228 0 
4.7496 40.7477 0 4.98736 42.0807 0 9.35357 41.0005 0 
4.72589 41.5972 0 4.95097 42.9578 0 9.74568 43.2069 0 
5.21329 43.4318 0 5.45105 44.7647 0 9.81726 43.6845 0 
5.18958 44.2812 0 10.0934 45.2199 0 5.41466 45.6418 0 
10.2788 46.3585 0 5.64651 46.9838 0 10.1881 45.7691 0 
5.67698 46.1158 0 10.5045 47.6833 0 5.87835 48.3258 0 
10.3932 47.0201 0 5.90882 47.4578 0 10.7358 49.0276 0 
6.11019 49.6678 0 10.6234 48.358 0 6.14067 48.7998 0 
6.34204 51.0099 0 10.8405 49.6993 0 6.37251 50.1419 0 
6.60436 51.4839 0 11.2527 51.93 0 6.57388 52.3519 0 
6.80573 53.6939 0 11.3243 52.4076 0 6.8362 52.8259 0 
11.6004 53.943 0 7.06805 54.1679 0 11.8321 55.285 0 
7.30637 55.5015 0 11.672 54.4207 0 7.04443 55.0175 0 
11.9303 55.831 0 7.30229 56.324 0 12.2527 57.1463 0 
12.0437 56.4348 0 12.7649 57.6691 0 7.98499 58.4359 0 
2.02528 -4.43066 0 -3.46699 -3.33871 0 2.19992 -3.89243 0 
-3.44432 -2.71903 0 2.44229 -3.31361 0 -3.34259 -2.13812 0 
2.53408 -2.6172 0 -3.07358 -1.32989 0 2.64868 -1.94473 0 
-3.16375 -0.837538 0 2.76438 -1.27348 0 -2.84514 0.0193424 0 
2.88026 -0.602434 0 -2.93234 0.508728 0 2.99618 0.0685805 0 
-2.61349 1.36161 0 3.1121 0.739589 0 -2.70085 1.85016 0 
3.22802 1.4106 0 -2.38183 2.70327 0 3.34394 2.0816 0 
-2.46926 3.19169 0 3.45986 2.75261 0 -2.14999 4.0453 0 
3.57579 3.42362 0 -2.23739 4.53377 0 3.69171 4.09463 0 
-1.91804 5.38754 0 3.80763 4.76563 0 -2.00529 5.87648 0 
3.92355 5.43664 0 -1.68571 6.71997 0 4.03947 6.10765 0 
-1.78188 7.22256 0 4.1554 6.77866 0 -1.48164 8.13414 0 
4.27132 7.44966 0 -1.49411 8.612 0 4.38724 8.12067 0 
-1.22237 9.41321 0 4.50316 8.79168 0 -1.30984 9.90203 0 
4.61909 9.46269 0 -0.990767 10.7554 0 4.73501 10.1337 0 
-1.07819 11.2438 0 4.85093 10.8047 0 -0.758961 12.0974 0 
4.96685 11.4757 0 -0.846469 12.5858 0 5.08278 12.1467 0 
-0.52664 13.4298 0 5.1987 12.8177 0 -0.622883 13.9322 0 
5.31462 13.4887 0 -0.32242 14.8442 0 5.43054 14.1597 0 
-0.334885 15.3221 0 5.54646 14.8307 0 -0.062993 16.1235 0 
5.66239 15.5018 0 -0.150171 16.613 0 5.77831 16.1728 0 
0.168789 17.466 0 5.89423 16.8438 0 0.0816877 17.9552 0 
6.01015 17.5148 0 0.400461 18.8078 0 6.12608 18.1858 0 
0.31301 19.2963 0 6.242 18.8568 0 0.63259 20.1398 0 
6.35792 19.5278 0 0.536345 20.6422 0 6.47384 20.1988 0 
0.836825 21.5542 0 6.58976 20.8698 0 0.824337 22.0321 0 
6.70569 21.5408 0 1.09753 22.8271 0 6.82161 22.2118 0 
1.00906 23.3184 0 6.93753 22.8828 0 1.32935 24.1695 0 
7.05345 23.5538 0 1.24092 24.6617 0 7.16938 24.2248 0 
1.55978 25.5174 0 7.2853 24.8959 0 1.47233 26.0063 0 
7.40122 25.5669 0 1.79151 26.8598 0 7.51714 26.2379 0 
1.70434 27.3488 0 7.63306 26.9089 0 2.02337 28.2019 0 
7.74899 27.5799 0 1.93592 28.6904 0 7.86491 28.2509 0 
2.2555 29.5339 0 7.98083 28.9219 0 2.15926 30.0363 0 
8.09675 29.5929 0 2.45974 30.9483 0 8.21268 30.2639 0 
2.44725 31.4262 0 8.3286 30.9349 0 2.72044 32.2212 0 
8.44452 31.6059 0 2.63197 32.7125 0 8.56044 32.2769 0 
2.95223 33.5636 0 8.67636 32.9479 0 2.86371 34.0557 0 
8.79229 33.619 0 3.18309 34.9018 0 8.90821 34.29 0 
3.08681 35.4047 0 9.02413 34.961 0 3.38711 36.3163 0 
9.14005 35.632 0 3.37463 36.7943 0 9.25598 36.303 0 
3.64779 37.5897 0 9.3719 36.974 0 3.55936 38.0818 0 
9.48782 37.645 0 3.87818 38.9375 0 9.60374 38.316 0 
3.79063 39.4263 0 9.71966 38.987 0 4.11026 40.2701 0 
9.83559 39.658 0 4.01401 40.7725 0 9.95151 40.329 0 
4.31447 41.6845 0 10.0674 41 0 4.302 42.1624 0 
10.1834 41.671 0 4.57415 42.9539 0 10.2993 42.342 0 
4.47788 43.4568 0 10.4152 43.0131 0 4.77816 44.3685 0 
10.5311 43.6841 0 4.76569 44.8464 0 10.647 44.3551 0 
5.03743 45.6476 0 10.763 45.0261 0 4.94996 46.1364 0 
10.8789 45.6971 0 5.26903 46.9898 0 10.9948 46.3681 0 
5.18161 47.4782 0 11.1107 47.0391 0 5.50087 48.3318 0 
11.2267 47.7101 0 5.41345 48.8202 0 11.3426 48.3811 0 
5.73272 49.6738 0 11.4585 49.0521 0 5.64532 50.1623 0 
11.5744 49.7231 0 5.9647 51.0161 0 11.6903 50.3941 0 
5.87754 51.505 0 11.8063 51.0651 0 6.1966 52.3582 0 
11.9222 51.7362 0 6.10925 52.8468 0 12.0381 52.4072 0 
6.42839 53.6999 0 12.154 53.0782 0 6.34113 54.1887 0 
12.27 53.7492 0 6.6666 55.039 0 12.3859 54.4202 0 
6.63257 55.6385 0 12.5018 55.0912 0 6.79787 56.2621 0 
12.612 55.7684 0 6.85077 57.0788 0 12.7189 56.3853 0 
7.05866 57.6379 0 12.7352 57.0159 0 7.24409 58.1294 0 
-3.15479 -4.35519 0 12.4286 58.0359 0 12.6235 58.052 0 
-3.34976 -4.37141 0 1.72809 -5.3899 0 7.54569 59.0705 0 
1.60757 -4.4395 0 1.74493 -3.93544 0 7.49718 57.6848 0 
7.65921 58.1223 0 12.1522 59.1946 0 -2.87837 -5.51398 0 
0.87243 -6.41588 0 8.40135 60.0965 0 0.138666 -6.41127 0 
-2.25715 -5.95213 0 11.5309 59.6327 0 9.13511 60.0919 0 
-3.45028 -5.39347 0 1.40889 -6.2309 0 12.7241 59.0741 0 
7.86489 59.9115 0 -4.08475 -5.83392 0 2.00743 -6.93949 0 
13.3585 59.5145 0 7.26635 60.6201 0 -3.7114 -5.87382 0 
1.64504 -6.76274 0 12.9852 59.5544 0 7.62874 60.4433 0 
-4.42783 -5.65596 0 2.25226 -6.90455 0 13.7016 59.3366 0 
7.02152 60.5851 0 -2.93574 -5.99148 0 0.626486 -6.6662 0 
12.2095 59.6721 0 8.64729 60.3468 0 -4.41545 -5.65974 0 
13.6892 59.3403 0 -0.517533 -6.33709 0 -1.59107 -6.06118 0 
10.8649 59.7418 0 9.79131 60.0177 0 -4.3448 -5.47592 0 
2.21999 -6.58627 0 13.6186 59.1565 0 7.05378 60.2669 0 
-4.02101 -5.90035 0 1.8863 -6.91711 0 13.2948 59.5809 0 
7.38748 60.5977 0 -3.89753 -5.8778 0 1.70081 -6.83857 0 
13.1713 59.5584 0 7.57297 60.5192 0 -0.0960396 -6.32095 0 
11.3753 59.7199 0 9.36982 60.0015 0 -2.10149 -6.0393 0 
13.5017 58.6987 0 -4.2279 -5.01809 0 2.26918 -6.20555 0 
7.0046 59.8861 0 0.780148 -5.00655 0 8.49363 58.6871 0 
-2.63552 -4.54801 0 11.9093 58.2286 0 2.58975 -3.57591 0 
2.72766 -2.93401 0 2.84161 -2.26635 0 2.95712 -1.596 0 
3.07297 -0.925112 0 3.18888 -0.254124 0 3.3048 0.41688 0 
3.42072 1.08789 0 3.53664 1.75889 0 3.65256 2.4299 0 
3.76848 3.10091 0 3.88441 3.77192 0 4.00033 4.44292 0 
4.11625 5.11393 0 4.23217 5.78494 0 4.3481 6.45595 0 
4.46402 7.12695 0 4.57994 7.79796 0 4.69586 8.46897 0 
4.81178 9.13998 0 4.92771 9.81098 0 5.04363 10.482 0 
5.15955 11.153 0 5.27547 11.824 0 5.3914 12.495 0 
5.50732 13.166 0 5.62324 13.837 0 5.73916 14.508 0 
5.85508 15.179 0 5.97101 15.85 0 6.08693 16.5211 0 
6.20285 17.1921 0 6.31877 17.8631 0 6.4347 18.5341 0 
6.55062 19.2051 0 6.66654 19.8761 0 6.78246 20.5471 0 
6.89838 21.2181 0 7.01431 21.8891 0 7.13023 22.5601 0 
7.24615 23.2311 0 7.36207 23.9021 0 7.478 24.5731 0 
7.59392 25.2442 0 7.70984 25.9152 0 7.82576 26.5862 0 
7.94168 27.2572 0 8.05761 27.9282 0 8.17353 28.5992 0 
8.28945 29.2702 0 8.40537 29.9412 0 8.5213 30.6122 0 
8.63722 31.2832 0 8.75314 31.9542 0 8.86906 32.6252 0 
8.98498 33.2962 0 9.10091 33.9673 0 9.21683 34.6383 0 
9.33275 35.3093 0 9.44867 35.9803 0 9.5646 36.6513 0 
9.68052 37.3223 0 9.79644 37.9933 0 9.91236 38.6643 0 
10.0283 39.3353 0 10.1442 40.0063 0 10.2601 40.6773 0 
10.3761 41.3483 0 10.492 42.0193 0 10.6079 42.6903 0 
10.7238 43.3614 0 10.8397 44.0324 0 10.9557 44.7034 0 
11.0716 45.3744 0 11.1875 46.0454 0 11.3034 46.7164 0 
11.4194 47.3874 0 11.5353 48.0584 0 11.6512 48.7294 0 
11.7671 49.4004 0 11.883 50.0714 0 11.999 50.7424 0 
12.1149 51.4134 0 12.2308 52.0844 0 12.3467 52.7555 0 
12.4627 53.4265 0 12.5786 54.0975 0 12.6897 54.8077 0 
12.8845 55.4144 0 12.93 56.1171 0 12.9981 56.7456 0 
13.1421 57.3445 0 6.68402 57.2566 0 6.54611 56.6146 0 
6.43216 55.9469 0 6.31666 55.2766 0 6.20081 54.6057 0 
6.0849 53.9347 0 5.96898 53.2637 0 5.85306 52.5927 0 
5.73714 51.9217 0 5.62122 51.2507 0 5.50529 50.5797 0 
5.38937 49.9087 0 5.27345 49.2377 0 5.15753 48.5667 0 
5.0416 47.8957 0 4.92568 47.2246 0 4.80976 46.5536 0 
4.69384 45.8826 0 4.57792 45.2116 0 4.46199 44.5406 0 
4.34607 43.8696 0 4.23015 43.1986 0 4.11423 42.5276 0 
3.99831 41.8566 0 3.88238 41.1856 0 3.76646 40.5146 0 
3.65054 39.8436 0 3.53462 39.1726 0 3.41869 38.5015 0 
3.30277 37.8305 0 3.18685 37.1595 0 3.07093 36.4885 0 
2.955 35.8175 0 2.83908 35.1465 0 2.72316 34.4755 0 
2.60724 33.8045 0 2.49132 33.1335 0 2.37539 32.4625 0 
2.25947 31.7915 0 2.14355 31.1205 0 2.02763 30.4495 0 
1.9117 29.7785 0 1.79578 29.1074 0 1.67986 28.4364 0 
1.56394 27.7654 0 1.44802 27.0944 0 1.33209 26.4234 0 
1.21617 25.7524 0 1.10025 25.0814 0 0.984327 24.4104 0 
0.868405 23.7394 0 0.752483 23.0684 0 0.63656 22.3974 0 
0.520638 21.7264 0 0.404716 21.0554 0 0.288794 20.3843 0 
0.172872 19.7133 0 0.0569493 19.0423 0 -0.0589729 18.3713 0 
-0.174895 17.7003 0 -0.290817 17.0293 0 -0.40674 16.3583 0 
-0.522662 15.6873 0 -0.638584 15.0163 0 -0.754506 14.3453 0 
-0.870429 13.6743 0 -0.986351 13.0033 0 -1.10227 12.3323 0 
-1.2182 11.6613 0 -1.33412 10.9902 0 -1.45004 10.3192 0 
-1.56596 9.64823 0 -1.68188 8.97722 0 -1.79781 8.30622 0 
-1.91373 7.63521 0 -2.02965 6.9642 0 -2.14557 6.29319 0 
-2.2615 5.62219 0 -2.37742 4.95118 0 -2.49334 4.28017 0 
-2.60926 3.60917 0 -2.72518 2.93816 0 -2.84111 2.26715 0 
-2.95703 1.59614 0 -3.07295 0.925136 0 -3.18887 0.254128 0 
-3.3048 -0.416879 0 -3.41586 -1.12756 0 -3.61069 -1.73235 0 
-3.65626 -2.43655 0 -3.72432 -3.06496 0 -3.8683 -3.66386 0 
2.36719 -5.3529 0 6.90659 59.0335 0 2.54337 -4.89162 0 
6.73041 58.5722 0 0.099592 -4.7724 0 9.17426 58.4532 0 
0.861836 -4.53144 0 8.41194 58.212 0 1.0027 -4.00184 0 
0.8608 -3.14467 0 0.967248 -2.47888 0 1.08888 -1.80687 0 
1.17472 -1.13139 0 1.28458 -0.458416 0 1.39847 0.213231 0 
1.51456 0.884616 0 1.63081 1.55579 0 1.74552 2.22657 0 
1.86218 2.89774 0 1.97855 3.56884 0 2.09328 4.2396 0 
2.20994 4.91076 0 2.32623 5.58183 0 2.4453 6.25349 0 
2.56123 6.92446 0 2.67715 7.59546 0 2.79307 8.26647 0 
2.909 8.93748 0 3.02492 9.60848 0 3.14084 10.2795 0 
3.25676 10.9505 0 3.37269 11.6215 0 3.48861 12.2925 0 
3.60453 12.9635 0 3.72045 13.6345 0 3.83637 14.3055 0 
3.9523 14.9765 0 4.06323 15.6462 0 4.17957 16.3173 0 
4.2957 16.9885 0 4.41203 17.6596 0 4.52914 18.3311 0 
4.64355 19.0016 0 4.75992 19.6727 0 4.8769 20.3441 0 
4.99132 21.0146 0 5.10769 21.6857 0 5.22467 22.3571 0 
5.33908 23.0276 0 5.45546 23.6987 0 5.57244 24.3701 0 
5.68685 25.0406 0 5.80322 25.7117 0 5.9202 26.3832 0 
6.03462 27.0537 0 6.15099 27.7248 0 6.26797 28.3962 0 
6.38238 29.0667 0 6.49876 29.7378 0 6.61574 30.4092 0 
6.73015 31.0797 0 6.84652 31.7508 0 6.9635 32.4222 0 
7.07792 33.0927 0 7.19429 33.7638 0 7.31127 34.4352 0 
7.42568 35.1058 0 7.54206 35.7769 0 7.65904 36.4483 0 
7.77345 37.1188 0 7.88982 37.7899 0 8.0068 38.4613 0 
8.12122 39.1318 0 8.23759 39.8029 0 8.35457 40.4743 0 
8.46898 41.1448 0 8.58536 41.8159 0 8.70234 42.4873 0 
8.81675 43.1578 0 8.93312 43.8289 0 9.0501 44.5004 0 
9.16452 45.1709 0 9.28089 45.842 0 9.39787 46.5134 0 
9.51229 47.1839 0 9.62866 47.855 0 9.74564 48.5264 0 
9.86005 49.1969 0 9.97642 49.868 0 10.0934 50.5394 0 
10.2078 51.2099 0 10.3242 51.881 0 10.4412 52.5524 0 
10.5549 53.2227 0 10.6693 53.8926 0 10.7812 54.5576 0 
10.9015 55.2097 0 11.1847 55.8755 0 11.267 56.6338 0 
11.5542 57.0583 0 8.27108 57.6824 0 8.41298 56.8253 0 
8.30653 56.1595 0 8.1849 55.4875 0 8.09905 54.812 0 
7.9892 54.139 0 7.87531 53.4674 0 7.75922 52.796 0 
7.64297 52.1248 0 7.52826 51.454 0 7.4116 50.7829 0 
7.29523 50.1118 0 7.1805 49.441 0 7.06384 48.7698 0 
6.94755 48.0988 0 6.82848 47.4271 0 6.71255 46.7561 0 
6.59663 46.0851 0 6.4807 45.4141 0 6.36478 44.7431 0 
6.24886 44.0721 0 6.13294 43.4011 0 6.01701 42.7301 0 
5.90109 42.0591 0 5.78517 41.3881 0 5.66925 40.7171 0 
5.55333 40.0461 0 5.4374 39.3751 0 5.32148 38.7041 0 
5.20556 38.033 0 5.08964 37.362 0 4.9787 36.6924 0 
4.86237 36.0213 0 4.74623 35.3501 0 4.6299 34.679 0 
4.5128 34.0075 0 4.39838 33.337 0 4.28201 32.6659 0 
4.16503 31.9945 0 4.05062 31.324 0 3.93424 30.6529 0 
3.81726 29.9815 0 3.70285 29.311 0 3.58648 28.6399 0 
3.4695 27.9684 0 3.35508 27.2979 0 3.23871 26.6268 0 
3.12173 25.9554 0 3.00732 25.2849 0 2.89094 24.6138 0 
2.77396 23.9424 0 2.65955 23.2719 0 2.54318 22.6008 0 
2.4262 21.9294 0 2.31178 21.2589 0 2.19541 20.5878 0 
2.07843 19.9164 0 1.96402 19.2458 0 1.84764 18.5747 0 
1.73066 17.9033 0 1.61625 17.2328 0 1.49988 16.5617 0 
1.3829 15.8903 0 1.26848 15.2198 0 1.15211 14.5487 0 
1.03513 13.8773 0 0.920716 13.2068 0 0.804344 12.5357 0 
0.687365 11.8643 0 0.572949 11.1938 0 0.456577 10.5227 0 
0.339598 9.85124 0 0.225182 9.18074 0 0.10881 8.50964 0 
-0.00816862 7.83822 0 -0.122585 7.16772 0 -0.238956 6.49661 0 
-0.355935 5.8252 0 -0.470351 5.15469 0 -0.586723 4.48359 0 
-0.703702 3.81218 0 -0.818118 3.14167 0 -0.93449 2.47057 0 
-1.05147 1.79916 0 -1.16578 1.12864 0 -1.28187 0.45757 0 
-1.39704 -0.212706 0 -1.50701 -0.876851 0 -1.62775 -1.52915 0 
-1.91096 -2.19493 0 -1.99318 -2.9532 0 -2.28038 -3.37769 0 
2.18132 -5.81815 0 7.09245 59.4987 0 2.4586 -4.17127 0 
6.81517 57.8519 0 -2.43549 -5.12293 0 11.7093 58.8035 0 
0.826957 -5.59083 0 8.44684 59.2715 0 11.4127 58.5459 0 
-2.13887 -4.86533 0 0.541137 -5.5318 0 8.73264 59.2124 0 
1.10986 -4.08889 0 8.15455 57.7762 0 11.7818 58.8455 0 
-2.50801 -5.16491 0 2.08121 -5.3763 0 7.19257 59.0569 0 
1.25079 -3.47019 0 1.24548 -2.8094 0 1.3598 -2.16312 0 
1.47056 -1.49145 0 1.56706 -0.81965 0 1.67841 -0.146821 0 
1.79008 0.524339 0 1.91119 1.19691 0 2.02351 1.86718 0 
2.13726 2.53773 0 2.25887 3.21003 0 2.37125 3.88023 0 
2.48502 4.55075 0 2.60663 5.22305 0 2.7186 5.89308 0 
2.8534 6.56846 0 2.95047 7.23491 0 3.08525 7.91047 0 
3.18233 8.5769 0 3.31709 9.25249 0 3.41418 9.91892 0 
3.54894 10.5945 0 3.64602 11.2609 0 3.78078 11.9365 0 
3.87787 12.6029 0 4.01263 13.2785 0 4.10971 13.945 0 
4.24447 14.6205 0 4.34156 15.287 0 4.45264 15.9556 0 
4.57536 16.6296 0 4.68548 17.2985 0 4.80916 17.9722 0 
4.92294 18.6427 0 5.03383 19.3116 0 5.15692 19.9852 0 
5.27071 20.6557 0 5.3816 21.3247 0 5.50469 21.9982 0 
5.61848 22.6688 0 5.72937 23.3377 0 5.85246 24.0113 0 
5.96624 24.6818 0 6.07713 25.3507 0 6.20022 26.0243 0 
6.31401 26.6948 0 6.4249 27.3637 0 6.54799 28.0373 0 
6.66178 28.7078 0 6.77267 29.3768 0 6.89576 30.0503 0 
7.00954 30.7208 0 7.12043 31.3898 0 7.24352 32.0633 0 
7.35731 32.7339 0 7.4682 33.4028 0 7.59129 34.0764 0 
7.70508 34.7469 0 7.81597 35.4158 0 7.93906 36.0894 0 
8.05284 36.7599 0 8.16373 37.4288 0 8.28682 38.1024 0 
8.40061 38.7729 0 8.5115 39.4419 0 8.63459 40.1154 0 
8.74838 40.786 0 8.85927 41.4549 0 8.98236 42.1285 0 
9.09614 42.799 0 9.20704 43.4679 0 9.33012 44.1415 0 
9.44391 44.812 0 9.5548 45.4809 0 9.67789 46.1545 0 
9.79168 46.825 0 9.90257 47.494 0 10.0257 48.1675 0 
10.1394 48.838 0 10.2503 49.507 0 10.3734 50.1805 0 
10.4872 50.8511 0 10.5981 51.52 0 10.7212 52.1936 0 
10.8349 52.8641 0 10.9427 53.5315 0 11.0593 54.2007 0 
11.1607 54.8456 0 11.2844 55.4277 0 11.4637 56.2348 0 
11.8297 57.5124 0 8.02299 57.1508 0 8.0283 56.49 0 
7.91398 55.8437 0 7.80322 55.172 0 7.70672 54.5002 0 
7.59537 53.8274 0 7.4837 53.1563 0 7.36259 52.4837 0 
7.25027 51.8134 0 7.13652 51.1429 0 7.01491 50.4706 0 
6.90253 49.8004 0 6.78876 49.1298 0 6.66714 48.4575 0 
6.55518 47.7875 0 6.42037 47.1121 0 6.3233 46.4457 0 
6.18853 45.7701 0 6.09145 45.1037 0 5.95669 44.4281 0 
5.8596 43.7617 0 5.72484 43.0861 0 5.62775 42.4197 0 
5.493 41.7441 0 5.39591 41.0776 0 5.26115 40.4021 0 
5.16407 39.7356 0 5.02931 39.06 0 4.93222 38.3936 0 
4.79746 37.718 0 4.70038 37.0516 0 4.58929 36.383 0 
4.46658 35.709 0 4.35646 35.0401 0 4.23278 34.3664 0 
4.11899 33.6959 0 4.0081 33.0269 0 3.88501 32.3534 0 
3.77122 31.6828 0 3.66033 31.0139 0 3.53724 30.3403 0 
3.42346 29.6698 0 3.31257 29.0009 0 3.18948 28.3273 0 
3.07569 27.6568 0 2.9648 26.9879 0 2.84171 26.3143 0 
2.72792 25.6438 0 2.61703 24.9748 0 2.49394 24.3013 0 
2.38016 23.6308 0 2.26927 22.9618 0 2.14618 22.2883 0 
2.03239 21.6177 0 1.9215 20.9488 0 1.79841 20.2752 0 
1.68462 19.6047 0 1.57373 18.9358 0 1.45064 18.2622 0 
1.33686 17.5917 0 1.22597 16.9228 0 1.10288 16.2492 0 
0.98909 15.5787 0 0.878199 14.9097 0 0.75511 14.2362 0 
0.641323 13.5656 0 0.530432 12.8967 0 0.407343 12.2231 0 
0.293556 11.5526 0 0.182665 10.8837 0 0.0595766 10.2101 0 
-0.0542105 9.5396 0 -0.165101 8.87067 0 -0.28819 8.1971 0 
-0.401977 7.52657 0 -0.512868 6.85765 0 -0.635957 6.18407 0 
-0.749744 5.51355 0 -0.860635 4.84462 0 -0.983723 4.17105 0 
-1.09751 3.50053 0 -1.2084 2.8316 0 -1.33149 2.15803 0 
-1.44528 1.48751 0 -1.55569 0.818562 0 -1.67791 0.14515 0 
-1.78392 -0.519769 0 -1.88629 -1.16467 0 -2.01062 -1.74712 0 
-2.18988 -2.55417 0 -2.55597 -3.83185 0 2.27949 -5.5028 0 
6.99429 59.1834 0 0.673098 -5.05057 0 8.60068 58.7312 0 
12.9433 57.7401 0 -3.66953 -4.05948 0 12.9907 58.2725 0 
-3.71689 -4.59192 0 11.6061 58.0507 0 -2.33232 -4.37015 0 
-2.34968 -3.09218 0 -2.24213 -2.52675 0 1.3237 -2.46628 0 
1.55515 -1.61944 0 1.63631 -1.04067 0 1.74756 -0.387229 0 
1.86287 0.280537 0 1.9937 0.86183 0 2.17625 1.79139 0 
2.25224 2.42489 0 2.37107 3.0883 0 2.47231 3.76208 0 
2.57845 4.38948 0 2.6799 4.99794 0 2.79091 5.65176 0 
2.90617 6.31959 0 3.03701 6.9009 0 3.18001 7.77155 0 
3.25955 8.35291 0 3.38552 8.91767 0 3.56723 9.84361 0 
3.64326 10.477 0 3.76212 11.1404 0 3.86337 11.8142 0 
3.96952 12.4416 0 4.07097 13.05 0 4.19697 13.6147 0 
4.33921 14.4817 0 4.41876 15.063 0 4.52975 15.7169 0 
4.64501 16.3847 0 4.76084 17.0551 0 4.87675 17.726 0 
5.00767 18.3079 0 5.15069 19.1787 0 5.23022 19.76 0 
5.35619 20.3248 0 5.5379 21.2507 0 5.61394 21.8841 0 
5.7328 22.5475 0 5.83405 23.2213 0 5.9402 23.8487 0 
6.04165 24.4572 0 6.16764 25.0219 0 6.30989 25.8888 0 
6.38944 26.4701 0 6.50043 27.124 0 6.63068 27.7027 0 
6.7736 28.5728 0 6.85313 29.1541 0 6.9791 29.7189 0 
7.16081 30.6448 0 7.23685 31.2782 0 7.35571 31.9416 0 
7.45696 32.6154 0 7.56311 33.2428 0 7.66456 33.8513 0 
7.77557 34.5051 0 7.90583 35.0838 0 8.08811 36.0136 0 
8.16001 36.6524 0 8.25908 37.2702 0 8.36009 37.8773 0 
8.48609 38.442 0 8.62833 39.309 0 8.70789 39.8903 0 
8.83386 40.455 0 8.9761 41.322 0 9.05565 41.9033 0 
9.16664 42.5572 0 9.29689 43.1359 0 9.43981 44.006 0 
9.51935 44.5873 0 9.64532 45.1521 0 9.82703 46.078 0 
9.90308 46.7113 0 10.0221 47.3739 0 10.1272 48.0417 0 
10.2521 48.7138 0 10.3547 49.39 0 10.4612 50.0179 0 
10.5626 50.6264 0 10.6736 51.2803 0 10.8039 51.859 0 
10.9468 52.7291 0 11.0263 53.3104 0 11.1523 53.8752 0 
11.2945 54.7421 0 11.3888 55.2121 0 11.5568 56.1523 0 
11.6199 56.7796 0 -2.30895 -3.63674 0 11.5823 57.32 0 
-1.77742 -3.35347 0 0.672126 -3.52925 0 8.43853 56.6153 0 
11.051 57.0378 0 8.62154 57.2143 0 0.812669 -2.39048 0 
-1.71947 -2.2959 0 -1.77361 -2.82174 0 1.12046 -1.20338 0 
-1.52237 -1.03913 0 1.04882 -1.89376 0 1.22258 -0.548716 0 
1.33557 0.115572 0 -1.28735 0.29963 0 1.4551 0.767635 0 
1.70635 2.12982 0 1.63606 1.44428 0 -1.0554 1.64165 0 
1.93792 3.47233 0 1.81719 2.81873 0 -0.823552 2.98366 0 
2.16563 4.8314 0 2.04667 4.16746 0 -0.591707 4.32568 0 
2.26632 5.48938 0 -0.359863 5.66769 0 2.37896 6.15444 0 
2.49842 6.80666 0 -0.128018 7.00971 0 2.74552 8.18594 0 
0.103826 8.35172 0 2.67936 7.48334 0 2.85014 8.82724 0 
3.09737 10.182 0 3.02698 9.49663 0 0.335671 9.69374 0 
3.32898 11.5244 0 3.20824 10.8708 0 0.567515 11.0358 0 
3.5567 12.8835 0 3.43773 12.2195 0 0.79936 12.3778 0 
3.66153 13.5244 0 1.0312 13.7198 0 3.9047 14.8961 0 
1.26305 15.0618 0 3.83844 14.1937 0 4.00521 15.5544 0 
4.11781 16.2195 0 1.49489 16.4038 0 4.23311 16.8888 0 
4.34892 17.5594 0 1.72674 17.7458 0 4.46898 18.2133 0 
4.7162 19.5931 0 4.65004 18.8905 0 1.95858 19.0878 0 
4.82082 20.2344 0 2.19043 20.4299 0 5.06805 21.5891 0 
2.42227 21.7719 0 4.99766 20.9038 0 5.29966 22.9315 0 
2.65412 23.1139 0 5.17892 22.278 0 5.52738 24.2906 0 
2.88596 24.4559 0 5.40841 23.6267 0 5.63221 24.9315 0 
5.87538 26.3032 0 5.80911 25.6008 0 3.1178 25.7979 0 
5.97588 26.9615 0 3.34965 27.1399 0 6.09263 27.6096 0 
6.33911 28.9872 0 6.27293 28.2846 0 3.58149 28.4819 0 
6.44373 29.6285 0 3.81334 29.824 0 6.69096 30.9832 0 
4.04518 31.166 0 6.62057 30.2979 0 6.92257 32.3256 0 
4.27703 32.508 0 6.80183 31.6721 0 7.15029 33.6847 0 
4.50887 33.85 0 7.03132 33.0208 0 7.25098 34.3427 0 
7.36777 34.9907 0 4.74072 35.192 0 7.61838 36.3512 0 
4.97256 36.534 0 7.54808 35.6657 0 7.84582 37.7108 0 
5.2044 37.876 0 7.72742 37.0483 0 7.95066 38.3517 0 
8.19382 39.7234 0 8.12756 39.021 0 5.43625 39.2181 0 
8.29848 40.3646 0 5.66809 40.5601 0 8.54159 41.7364 0 
5.89994 41.9021 0 8.47533 41.034 0 8.6421 42.3947 0 
8.75885 43.0428 0 6.13178 43.2441 0 9.00532 44.4203 0 
6.36363 44.5861 0 8.93914 43.7178 0 9.10994 45.0616 0 
9.35717 46.4164 0 9.28678 45.731 0 6.59547 45.9281 0 
9.58878 47.7588 0 9.46804 47.1052 0 6.82732 47.2702 0 
9.82063 49.1008 0 9.69934 48.4458 0 7.05916 48.6122 0 
10.0483 50.4599 0 9.92936 49.7959 0 7.291 49.9542 0 
10.149 51.1179 0 7.52285 51.2962 0 10.2658 51.7659 0 
10.5123 53.1434 0 10.4461 52.4409 0 7.75469 52.6382 0 
10.6169 53.7847 0 7.98654 53.9802 0 10.8672 55.1064 0 
8.22471 55.322 0 10.7938 54.4541 0 11.0838 55.7439 0 
11.0812 56.4382 0 13.1042 59.1875 0 -3.83045 -5.50686 0 
1.80014 -6.45545 0 7.47365 60.1361 0 1.79041 -4.90223 0 
7.48451 58.5895 0 13.1761 58.0372 0 -3.9023 -4.35664 0 
1.99371 -3.42289 0 2.12384 -2.84635 0 2.26653 -2.23792 0 
2.32844 -1.55168 0 2.49731 -0.811797 0 2.62197 -0.129299 0 
2.7425 0.515192 0 2.85519 1.12109 0 2.96747 1.76585 0 
3.07684 2.45023 0 3.19233 3.08801 0 3.30844 3.79194 0 
3.37188 4.48637 0 3.54062 5.22711 0 3.66527 5.90974 0 
3.7858 6.55426 0 3.89849 7.16016 0 3.95302 7.84327 0 
4.12367 8.55402 0 4.24461 9.17098 0 4.35819 9.81751 0 
4.46787 10.5023 0 4.58338 11.1401 0 4.69951 11.844 0 
4.76294 12.5385 0 4.93488 13.2508 0 5.05602 13.868 0 
5.11199 14.553 0 5.27966 15.2925 0 5.40414 15.9749 0 
5.52148 16.6478 0 5.63764 17.3191 0 5.75676 17.9618 0 
5.86921 18.5673 0 5.9237 19.2504 0 6.09435 19.9612 0 
6.21529 20.5781 0 6.32887 21.2246 0 6.43855 21.9094 0 
6.55406 22.5472 0 6.67019 23.2512 0 6.73362 23.9456 0 
6.90555 24.6579 0 7.0267 25.2751 0 7.08267 25.9602 0 
7.25034 26.6996 0 7.37798 27.3536 0 7.49184 27.9611 0 
7.54657 28.6445 0 7.71725 29.3552 0 7.8382 29.9722 0 
7.95178 30.6187 0 8.06146 31.3035 0 8.17697 31.9413 0 
8.2931 32.6453 0 8.35653 33.3397 0 8.52527 34.0804 0 
8.65309 34.7346 0 8.76698 35.3421 0 8.8794 35.9877 0 
8.98887 36.6716 0 9.0521 37.3658 0 9.224 38.078 0 
9.34515 38.6953 0 9.40112 39.3803 0 9.57197 40.0913 0 
9.69295 40.7083 0 9.74889 41.3933 0 9.91655 42.1328 0 
10.0442 42.7868 0 10.1581 43.3942 0 10.2128 44.0776 0 
10.3835 44.7884 0 10.5044 45.4054 0 10.618 46.0519 0 
10.7277 46.7367 0 10.8432 47.374 0 10.9593 48.0784 0 
11.0747 48.7157 0 11.1911 49.4204 0 11.2546 50.1149 0 
11.4233 50.8556 0 11.5511 51.5098 0 11.665 52.1173 0 
11.7198 52.8007 0 11.8905 53.5115 0 12.0114 54.1285 0 
12.0702 54.7891 0 12.236 55.4715 0 12.3514 56.0796 0 
7.26695 57.1389 0 7.06712 56.6872 0 7.05623 55.8428 0 
6.90453 55.4065 0 6.76183 54.5302 0 6.65555 54.065 0 
6.52901 53.1912 0 6.42352 52.7236 0 6.29716 51.8491 0 
6.19167 51.3816 0 6.06532 50.5071 0 5.95983 50.0396 0 
5.83347 49.1651 0 5.72798 48.6976 0 5.60163 47.8231 0 
5.49614 47.3556 0 5.36978 46.4811 0 5.26429 46.0135 0 
5.13865 45.1377 0 5.03489 44.6652 0 4.90706 43.794 0 
4.80079 43.3289 0 4.67496 42.4537 0 4.5712 41.9812 0 
4.44337 41.11 0 4.33711 40.6449 0 4.21056 39.771 0 
4.10507 39.3035 0 3.97943 38.4277 0 3.87567 37.9551 0 
3.74855 37.0826 0 3.64401 36.6125 0 3.51599 35.742 0 
3.40973 35.2768 0 3.2839 34.4016 0 3.18014 33.9291 0 
3.05301 33.0566 0 2.94848 32.5865 0 2.82117 31.7146 0 
2.71664 31.2445 0 2.58861 30.3739 0 2.48235 29.9088 0 
2.35581 29.0349 0 2.25032 28.5674 0 2.12396 27.6929 0 
2.01847 27.2253 0 1.89212 26.3509 0 1.78663 25.8833 0 
1.66098 25.0075 0 1.55722 24.535 0 1.4301 23.6625 0 
1.32557 23.1924 0 1.19826 22.3205 0 1.09372 21.8504 0 
0.965704 20.9798 0 0.859439 20.5147 0 0.732895 19.6408 0 
0.627406 19.1732 0 0.501051 18.2988 0 0.395561 17.8312 0 
0.269207 16.9568 0 0.163717 16.4892 0 0.0380726 15.6134 0 
-0.065687 15.1409 0 -0.193518 14.2697 0 -0.299784 13.8046 0 
-0.426327 12.9307 0 -0.531817 12.4632 0 -0.658171 11.5887 0 
-0.763661 11.1212 0 -0.890016 10.2467 0 -0.995506 9.77914 0 
-1.12115 8.90334 0 -1.22491 8.4308 0 -1.35274 7.55965 0 
-1.45901 7.09451 0 -1.58555 6.22064 0 -1.69104 5.7531 0 
-1.81739 4.87862 0 -1.92288 4.41108 0 -2.04924 3.53661 0 
-2.15473 3.06907 0 -2.28108 2.19459 0 -2.38657 1.72705 0 
-2.51293 0.852577 0 -2.61842 0.38504 0 -2.74406 -0.49077 0 
-2.84785 -0.963401 0 -2.96573 -1.83411 0 -3.07111 -2.42499 0 
12.4398 56.609 0 -3.16073 -2.94009 0 -2.10163 -4.17794 0 
11.3753 57.859 0 -0.0857832 -6.02923 0 9.35956 59.7098 0 
13.0788 57.3607 0 -3.80575 -3.68062 0 2.09129 -6.01609 0 
7.18249 59.6967 0 13.257 58.6588 0 -3.98321 -4.97821 0 
2.36104 -6.3249 0 6.91274 60.0055 0 13.6241 58.8728 0 
-4.3503 -5.19224 0 -3.35542 -5.55336 0 12.6292 59.234 0 
2.06017 -6.53452 0 7.21361 60.2151 0 -4.12327 -5.43256 0 
13.397 59.1132 0 0.421704 -6.087 0 8.85207 59.7676 0 
11.6303 59.3254 0 -2.35655 -5.64479 0 -3.47583 -5.93022 0 
1.26698 -6.53732 0 12.7496 59.6108 0 8.0068 60.2179 0 
-3.92214 -5.46957 0 13.1959 59.1502 0 0.268269 -5.32672 0 
9.00555 59.0074 0 0.356902 -3.99468 0 8.78284 57.6928 0 
2.02 -6.44387 0 7.25378 60.1245 0 -1.24595 -3.06552 0 
10.5243 56.764 0 13.2716 58.6507 0 -3.99778 -4.97014 0 
11.1769 57.5798 0 -1.90313 -3.89919 0 0.419345 -4.14908 0 
8.85443 57.8297 0 0.590354 -3.60964 0 0.790521 -2.80863 0 
0.911617 -2.1411 0 1.02843 -1.46457 0 1.14068 -0.788603 0 
1.25607 -0.116888 0 1.37191 0.55422 0 1.48782 1.22524 0 
1.60374 1.89625 0 1.71967 2.56726 0 1.83559 3.23827 0 
1.95151 3.90927 0 2.06743 4.58028 0 2.18335 5.25129 0 
2.29928 5.9223 0 2.4152 6.5933 0 2.53112 7.26431 0 
2.64704 7.93532 0 2.76297 8.60633 0 2.87889 9.27733 0 
2.99481 9.94834 0 3.11073 10.6193 0 3.22665 11.2904 0 
3.34258 11.9614 0 3.4585 12.6324 0 3.57442 13.3034 0 
3.69034 13.9744 0 3.80627 14.6454 0 3.92219 15.3164 0 
4.03811 15.9874 0 4.15403 16.6584 0 4.26995 17.3294 0 
4.38588 18.0004 0 4.5018 18.6714 0 4.61772 19.3424 0 
4.73364 20.0135 0 4.84957 20.6845 0 4.96549 21.3555 0 
5.08141 22.0265 0 5.19733 22.6975 0 5.31325 23.3685 0 
5.42918 24.0395 0 5.5451 24.7105 0 5.66102 25.3815 0 
5.77694 26.0525 0 5.89287 26.7235 0 6.00879 27.3945 0 
6.12471 28.0655 0 6.24063 28.7365 0 6.35655 29.4076 0 
6.47248 30.0786 0 6.5884 30.7496 0 6.70432 31.4206 0 
6.82024 32.0916 0 6.93617 32.7626 0 7.05209 33.4336 0 
7.16801 34.1046 0 7.28393 34.7756 0 7.39985 35.4466 0 
7.51578 36.1176 0 7.6317 36.7886 0 7.74762 37.4596 0 
7.86354 38.1306 0 7.97947 38.8017 0 8.09539 39.4727 0 
8.21131 40.1437 0 8.32723 40.8147 0 8.44316 41.4857 0 
8.55908 42.1567 0 8.675 42.8277 0 8.79092 43.4987 0 
8.90684 44.1697 0 9.02277 44.8407 0 9.13869 45.5117 0 
9.25461 46.1827 0 9.37053 46.8537 0 9.48645 47.5248 0 
9.60238 48.1958 0 9.7183 48.8668 0 9.83422 49.5378 0 
9.95014 50.2088 0 10.0661 50.8798 0 10.182 51.5508 0 
10.2979 52.2218 0 10.4138 52.8928 0 10.5298 53.5638 0 
10.6457 54.2348 0 10.7569 54.9038 0 10.8743 55.5699 0 
10.9848 56.2786 0 11.0215 57.049 0 8.68342 57.2902 0 
8.48326 56.4892 0 8.36216 55.8217 0 8.24535 55.1452 0 
8.1331 54.4692 0 8.01771 53.7975 0 7.90187 53.1264 0 
7.78595 52.4554 0 7.67003 51.7843 0 7.55411 51.1133 0 
7.43819 50.4423 0 7.32227 49.7713 0 7.20635 49.1003 0 
7.09042 48.4293 0 6.9745 47.7583 0 6.85858 47.0873 0 
6.74266 46.4163 0 6.62673 45.7453 0 6.51081 45.0743 0 
6.39489 44.4033 0 6.27897 43.7323 0 6.16305 43.0612 0 
6.04712 42.3902 0 5.9312 41.7192 0 5.81528 41.0482 0 
5.69936 40.3772 0 5.58343 39.7062 0 5.46751 39.0352 0 
5.35159 38.3642 0 5.23567 37.6932 0 5.11975 37.0222 0 
5.00382 36.3512 0 4.8879 35.6802 0 4.77198 35.0092 0 
4.65606 34.3382 0 4.54013 33.6671 0 4.42421 32.9961 0 
4.30829 32.3251 0 4.19237 31.6541 0 4.07645 30.9831 0 
3.96052 30.3121 0 3.8446 29.6411 0 3.72868 28.9701 0 
3.61276 28.2991 0 3.49683 27.6281 0 3.38091 26.9571 0 
3.26499 26.2861 0 3.14907 25.6151 0 3.03315 24.944 0 
2.91722 24.273 0 2.8013 23.602 0 2.68538 22.931 0 
2.56946 22.26 0 2.45353 21.589 0 2.33761 20.918 0 
2.22169 20.247 0 2.10577 19.576 0 1.98985 18.905 0 
1.87392 18.234 0 1.758 17.563 0 1.64208 16.892 0 
1.52616 16.2209 0 1.41023 15.5499 0 1.29431 14.8789 0 
1.17839 14.2079 0 1.06247 13.5369 0 0.946545 12.8659 0 
0.830623 12.1949 0 0.714701 11.5239 0 0.598779 10.8529 0 
0.482857 10.1819 0 0.366934 9.51087 0 0.251012 8.83987 0 
0.13509 8.16886 0 0.0191677 7.49785 0 -0.0967546 6.82685 0 
-0.212677 6.15584 0 -0.328599 5.48483 0 -0.444521 4.81382 0 
-0.560443 4.14282 0 -0.676366 3.47181 0 -0.792288 2.8008 0 
-0.90821 2.12979 0 -1.02413 1.45879 0 -1.14005 0.787778 0 
-1.25598 0.116771 0 -1.3719 -0.554237 0 -1.48308 -1.22325 0 
-1.60054 -1.88926 0 -1.71105 -2.59798 0 -1.74772 -3.36844 0 
-1.34538 -2.62702 0 10.5779 56.1596 0 -1.7898 -5.42635 0 
11.0636 59.1069 0 -1.82785 -4.7761 0 11.1017 58.457 0 
0.0564475 -3.56532 0 9.24373 57.3635 0 -1.71045 -3.79694 0 
10.9846 57.4806 0 2.52057 -5.36412 0 6.75321 59.0447 0 
1.31958 -5.03755 0 7.9542 58.7181 0 2.54487 -4.42306 0 
6.72675 58.1107 0 2.68709 -3.50067 0 6.61117 57.1733 0 
2.77868 -2.9575 0 2.89495 -2.29226 0 3.00952 -1.62541 0 
3.12653 -0.951287 0 3.24264 -0.279727 0 3.35859 0.391364 0 
3.47452 1.06238 0 3.5891 1.72962 0 3.70613 2.40376 0 
3.82092 3.07154 0 3.93797 3.74576 0 4.05276 4.41355 0 
4.16982 5.08777 0 4.28594 5.75934 0 4.40189 6.43043 0 
4.51782 7.10145 0 4.6324 7.76868 0 4.74943 8.44282 0 
4.86555 9.11438 0 4.98017 9.78169 0 5.0972 10.4558 0 
5.21198 11.1236 0 5.32904 11.7978 0 5.44383 12.4656 0 
5.56088 13.1399 0 5.677 13.8114 0 5.79162 14.4787 0 
5.90865 15.1529 0 6.02477 15.8245 0 6.14072 16.4955 0 
6.25665 17.1666 0 6.37257 17.8376 0 6.48849 18.5086 0 
6.60308 19.1758 0 6.72011 19.8499 0 6.83623 20.5215 0 
6.95084 21.1888 0 7.06788 21.863 0 7.18266 22.5308 0 
7.29972 23.205 0 7.4145 23.8728 0 7.53156 24.547 0 
7.64768 25.2186 0 7.7623 25.8859 0 7.87933 26.56 0 
7.99545 27.2316 0 8.1114 27.9027 0 8.22599 28.5699 0 
8.34302 29.2441 0 8.45914 29.9156 0 8.57376 30.5829 0 
8.69079 31.2571 0 8.80557 31.9249 0 8.92263 32.5991 0 
9.03742 33.2669 0 9.15447 33.9411 0 9.27059 34.6127 0 
9.38655 35.2837 0 9.50114 35.951 0 9.61817 36.6251 0 
9.73295 37.2929 0 9.85001 37.9671 0 9.96613 38.6387 0 
10.0807 39.306 0 10.1978 39.9802 0 10.3139 40.6517 0 
10.4285 41.319 0 10.5455 41.9932 0 10.6617 42.6647 0 
10.7776 43.3358 0 10.8922 44.0031 0 11.0092 44.6772 0 
11.1253 45.3488 0 11.24 46.0161 0 11.357 46.6902 0 
11.4718 47.358 0 11.5888 48.0322 0 11.7036 48.7 0 
11.8207 49.3743 0 11.9355 50.0421 0 12.0525 50.7163 0 
12.1686 51.3878 0 12.2846 52.0589 0 12.3992 52.7262 0 
12.5162 53.4003 0 12.6323 54.0719 0 12.747 54.7392 0 
12.8651 55.4212 0 12.974 56.0888 0 6.5658 56.6374 0 
6.39151 55.9752 0 6.25436 55.327 0 6.16371 54.6339 0 
6.0168 53.9656 0 5.93179 53.2893 0 5.78514 52.6238 0 
5.70079 51.9496 0 5.55326 51.2816 0 5.46808 50.6053 0 
5.32075 49.9378 0 5.23613 49.2631 0 5.08889 48.5957 0 
5.00429 47.9211 0 4.85706 47.2537 0 4.77249 46.579 0 
4.62578 45.9133 0 4.54095 45.2379 0 4.41949 44.5708 0 
4.28044 43.8687 0 4.15889 43.2295 0 4.07688 42.5536 0 
3.9558 41.8867 0 3.81675 41.1846 0 3.69463 40.5439 0 
3.61288 39.8687 0 3.46649 39.2032 0 3.38173 38.5278 0 
3.23417 37.8589 0 3.14937 37.1841 0 3.0284 36.5186 0 
2.88937 35.8165 0 2.76782 35.1774 0 2.68582 34.5015 0 
2.53858 33.8328 0 2.45383 33.158 0 2.30669 32.4903 0 
2.22198 31.816 0 2.10102 31.1505 0 1.96199 30.4485 0 
1.83987 29.8078 0 1.75813 29.1326 0 1.61186 28.4675 0 
1.52758 27.7934 0 1.38007 27.1253 0 1.29492 26.449 0 
1.14813 25.7831 0 1.06329 25.1077 0 0.915731 24.4387 0 
0.830921 23.7639 0 0.683779 23.0962 0 0.599065 22.4219 0 
0.478114 21.7564 0 0.339077 21.0544 0 0.216961 20.4137 0 
0.135219 19.7385 0 -0.0110363 19.0734 0 -0.0952931 18.3993 0 
-0.24211 17.7332 0 -0.327028 17.0575 0 -0.474072 16.3908 0 
-0.559518 15.7138 0 -0.681089 15.0465 0 -0.820141 14.3443 0 
-0.942272 13.7036 0 -1.02405 13.0284 0 -1.17098 12.3613 0 
-1.25552 11.6867 0 -1.40275 11.0193 0 -1.48731 10.3446 0 
-1.63402 9.6789 0 -1.71885 9.00348 0 -1.84031 8.33637 0 
-1.97936 7.63426 0 -2.10078 6.99547 0 -2.1823 6.32089 0 
-2.32951 5.65305 0 -2.41464 4.97683 0 -2.56196 4.30929 0 
-2.64658 3.63458 0 -2.79381 2.96722 0 -2.87838 2.29251 0 
-3.02495 1.62723 0 -3.10927 0.953103 0 -3.25624 0.28659 0 
-3.34168 -0.390451 0 -3.48949 -1.06185 0 -3.57508 -1.74219 0 
-3.69515 -2.41429 0 13.021 56.7359 0 -3.74634 -3.05697 0 
-3.60239 -4.64255 0 12.8762 58.3231 0 1.87448 -5.5043 0 
7.39946 59.1859 0 12.0169 57.066 0 -2.74309 -3.38538 0 
10.9259 58.1926 0 -1.65209 -4.51204 0 2.69861 -3.86272 0 
6.57451 57.5207 0 2.82121 -3.38097 0 2.95756 -2.63192 0 
3.07299 -1.9635 0 3.18905 -1.29193 0 3.30682 -0.613956 0 
3.42282 0.0573531 0 3.53874 0.728384 0 3.65264 1.39165 0 
3.76866 2.0631 0 3.8844 2.73334 0 4.0005 3.4051 0 
4.11624 4.07535 0 4.23234 4.74711 0 4.35011 5.42511 0 
4.46612 6.09642 0 4.58204 6.76745 0 4.69594 7.43072 0 
4.81196 8.10217 0 4.92973 8.78015 0 5.0437 9.44371 0 
5.15973 10.1152 0 5.27546 10.7854 0 5.39157 11.4572 0 
5.50731 12.1274 0 5.62341 12.7992 0 5.74118 13.4772 0 
5.85515 14.1408 0 5.97118 14.8122 0 6.08895 15.4902 0 
6.20495 16.1615 0 6.32088 16.8326 0 6.4368 17.5036 0 
6.55272 18.1746 0 6.66662 18.8378 0 6.78264 19.5093 0 
6.9004 20.1873 0 7.01437 20.8508 0 7.1304 21.5223 0 
7.24614 22.1926 0 7.36224 22.8643 0 7.47798 23.5346 0 
7.59409 24.2063 0 7.71186 24.8843 0 7.82583 25.5479 0 
7.94186 26.2194 0 8.05963 26.8973 0 8.17563 27.5687 0 
8.28953 28.2319 0 8.40555 28.9034 0 8.52331 29.5814 0 
8.63729 30.2449 0 8.75332 30.9164 0 8.86905 31.5867 0 
8.98516 32.2584 0 9.1009 32.9287 0 9.217 33.6004 0 
9.33477 34.2784 0 9.45077 34.9497 0 9.56467 35.613 0 
9.68069 36.2845 0 9.79643 36.9547 0 9.91253 37.6265 0 
10.0303 38.3045 0 10.1443 38.968 0 10.2603 39.6395 0 
10.3781 40.3175 0 10.492 40.9811 0 10.6081 41.6525 0 
10.7258 42.3305 0 10.8418 43.0018 0 10.9557 43.6651 0 
11.0718 44.3366 0 11.1895 45.0145 0 11.3035 45.6781 0 
11.4195 46.3496 0 11.5353 47.0198 0 11.6514 47.6916 0 
11.7671 48.3618 0 11.8832 49.0336 0 11.999 49.7039 0 
12.1151 50.3756 0 12.2328 51.0536 0 12.3488 51.7249 0 
12.4627 52.3882 0 12.5787 53.0597 0 12.6965 53.7376 0 
12.8105 54.4012 0 12.9268 55.0745 0 13.0481 55.7654 0 
6.43636 56.9592 0 6.32406 56.3223 0 6.20293 55.6458 0 
6.08994 54.9771 0 5.97596 54.3116 0 5.85808 53.6331 0 
5.74232 52.9628 0 5.62821 52.2985 0 5.51231 51.6276 0 
5.39439 50.9491 0 5.27863 50.2788 0 5.16252 49.607 0 
5.04678 48.9367 0 4.93068 48.265 0 4.81494 47.5947 0 
4.69883 46.923 0 4.58309 46.2527 0 4.46899 45.5884 0 
4.35106 44.9098 0 4.2353 44.2394 0 4.12122 43.5753 0 
4.00532 42.9045 0 3.88738 42.2258 0 3.77161 41.5554 0 
3.65753 40.8913 0 3.53963 40.213 0 3.42387 39.5426 0 
3.30976 38.8783 0 3.19184 38.1998 0 3.07607 37.5294 0 
2.95997 36.8576 0 2.84423 36.1873 0 2.73015 35.5232 0 
2.61425 34.8524 0 2.49631 34.1737 0 2.38054 33.5033 0 
2.26443 32.8315 0 2.14869 32.1613 0 2.03259 31.4895 0 
1.91685 30.8193 0 1.80277 30.1552 0 1.68488 29.4768 0 
1.56912 28.8065 0 1.45501 28.1422 0 1.33911 27.4713 0 
1.22119 26.7928 0 1.10543 26.1225 0 0.991319 25.4582 0 
0.873394 24.7796 0 0.75763 24.1092 0 0.641522 23.4374 0 
0.525782 22.7672 0 0.409677 22.0954 0 0.293938 21.4252 0 
0.17986 20.7611 0 0.0619664 20.0827 0 -0.0537942 19.4124 0 
-0.167903 18.7481 0 -0.2838 18.0772 0 -0.399719 17.4062 0 
-0.515641 16.7352 0 -0.631563 16.0642 0 -0.749513 15.3855 0 
-0.86528 14.7151 0 -0.979361 14.051 0 -1.09726 13.3727 0 
-1.21302 12.7023 0 -1.32912 12.0306 0 -1.44486 11.3603 0 
-1.56097 10.6886 0 -1.67671 10.0183 0 -1.79081 9.35401 0 
-1.90874 8.67544 0 -2.0245 8.00504 0 -2.13858 7.34091 0 
-2.25448 6.67007 0 -2.3704 5.99908 0 -2.48832 5.3206 0 
-2.60408 4.65026 0 -2.72019 3.97848 0 -2.83593 3.30823 0 
-2.95204 2.63647 0 -3.06778 1.96621 0 -3.18188 1.30193 0 
-3.29778 0.631015 0 -3.4137 -0.0399913 0 -3.53165 -0.718654 0 
-3.64769 -1.3909 0 -3.76819 -2.07779 0 13.1945 56.5994 0 
-3.92033 -2.91982 0 2.62129 -4.71305 0 6.65258 58.3945 0 
-0.0784408 -5.64943 0 9.35226 59.3301 0 13.3433 57.477 0 
-4.06953 -3.79644 0 11.0458 59.1956 0 -1.77199 -5.51498 0 
-0.000896195 -5.67813 0 9.27467 59.3587 0 -0.518004 -4.54855 0 
9.79268 58.2308 0 2.44749 -5.44877 0 6.82629 59.1294 0 
13.4202 58.2916 0 -4.14644 -4.61097 0 13.4528 57.9591 0 
-4.17903 -4.2785 0 2.04866 -4.34037 0 7.22512 58.021 0 
2.90332 -2.94752 0 3.01891 -2.28011 0 3.13467 -1.60971 0 
3.25034 -0.937581 0 3.36631 -0.265537 0 3.48221 0.405371 0 
3.59835 1.07511 0 3.71422 1.74505 0 3.83013 2.41584 0 
3.94605 3.08682 0 4.06197 3.75783 0 4.17792 4.42914 0 
4.29363 5.10145 0 4.40961 5.77352 0 4.52551 6.44444 0 
4.64165 7.11417 0 4.75754 7.78442 0 4.87321 8.45621 0 
4.9894 9.12696 0 5.10528 9.7971 0 5.22119 10.4679 0 
5.33711 11.1389 0 5.45304 11.8099 0 5.56899 12.4812 0 
5.68467 13.1532 0 5.80086 13.824 0 5.91677 14.4945 0 
6.03246 15.1666 0 6.14844 15.8386 0 6.26437 16.5099 0 
6.3803 17.1809 0 6.49619 17.8516 0 6.61233 18.5213 0 
6.72822 19.1915 0 6.84389 19.8633 0 6.96008 20.5341 0 
7.07596 21.2042 0 7.19187 21.8751 0 7.30779 22.546 0 
7.42371 23.217 0 7.53966 23.8884 0 7.65534 24.5604 0 
7.77154 25.2311 0 7.88744 25.9016 0 8.00314 26.5737 0 
8.11909 27.2455 0 8.23524 27.9154 0 8.35113 28.5856 0 
8.4668 29.2574 0 8.58299 29.9282 0 8.69887 30.5983 0 
8.81478 31.2692 0 8.9307 31.9401 0 9.04662 32.6111 0 
9.16257 33.2825 0 9.27828 33.9548 0 9.39423 34.6265 0 
9.51038 35.2965 0 9.62625 35.9664 0 9.74216 36.6372 0 
9.85811 37.3085 0 9.97379 37.9805 0 10.09 38.6513 0 
10.2059 39.3217 0 10.3216 39.9936 0 10.4377 40.6643 0 
10.5537 41.3348 0 10.6694 42.0069 0 10.7853 42.6786 0 
10.9015 43.3485 0 11.0173 44.0188 0 11.133 44.6906 0 
11.2492 45.3614 0 11.3651 46.0315 0 11.481 46.7023 0 
11.5969 47.3733 0 11.7128 48.0443 0 11.8288 48.7153 0 
11.9447 49.3863 0 12.0606 50.0576 0 12.1763 50.73 0 
12.2923 51.4017 0 12.4084 52.0716 0 12.5243 52.7419 0 
12.64 53.4137 0 12.7562 54.0845 0 12.8701 54.7577 0 
12.995 55.4311 0 13.1235 56.146 0 6.37024 56.6218 0 
6.25527 55.9583 0 6.13893 55.2912 0 6.02255 54.6219 0 
5.90693 53.9505 0 5.791 53.2789 0 5.67475 52.6093 0 
5.55884 51.9389 0 5.44324 51.2666 0 5.32727 50.5945 0 
5.21134 49.9233 0 5.09541 49.2523 0 4.97949 48.5813 0 
4.86357 47.9103 0 4.74765 47.2393 0 4.63176 46.5687 0 
4.51548 45.8988 0 4.39987 45.2274 0 4.28393 44.5559 0 
4.16774 43.8862 0 4.05184 43.2158 0 3.93619 42.5435 0 
3.82025 41.8718 0 3.70402 41.2017 0 3.58847 40.5303 0 
3.47255 39.8588 0 3.35626 39.1887 0 3.24065 38.5173 0 
3.12467 37.8454 0 3.00874 37.1742 0 2.89285 36.5036 0 
2.77667 35.834 0 2.66078 35.1637 0 2.54512 34.4914 0 
2.42914 33.8194 0 2.31321 33.1482 0 2.19728 32.4771 0 
2.08136 31.8061 0 1.96547 31.1355 0 1.84926 30.4656 0 
1.73371 29.7942 0 1.61779 29.1227 0 1.50155 28.453 0 
1.38564 27.7827 0 1.27004 27.1103 0 1.15411 26.4387 0 
1.03782 25.7686 0 0.922203 25.0972 0 0.806229 24.4252 0 
0.690294 23.7541 0 0.57437 23.083 0 0.458448 22.412 0 
0.342562 21.7414 0 0.226346 21.0715 0 0.110803 20.4001 0 
-0.00511847 19.7286 0 -0.121366 19.0589 0 -0.237238 18.389 0 
-0.353149 17.7181 0 -0.46907 17.0471 0 -0.58503 16.3758 0 
-0.700696 15.7033 0 -0.816643 15.0315 0 -0.932873 14.3614 0 
-1.04842 13.69 0 -1.16438 13.0181 0 -1.28031 12.3469 0 
-1.39623 11.6759 0 -1.51215 11.0049 0 -1.62804 10.3343 0 
-1.74432 9.66438 0 -1.85993 8.99297 0 -1.97587 8.32145 0 
-2.09206 7.65175 0 -2.20792 6.98182 0 -2.32386 6.31062 0 
-2.43947 5.63813 0 -2.55544 4.96604 0 -2.67137 4.29484 0 
-2.7873 3.62381 0 -2.90322 2.9528 0 -3.01911 2.28218 0 
-3.13534 1.61268 0 -3.25122 0.942757 0 -3.36716 0.271555 0 
-3.48283 -0.400925 0 -3.59754 -1.07821 0 -3.72109 -1.74759 0 
-3.84964 -2.46455 0 2.8135 -3.58916 0 6.46156 57.2675 0 
2.35207 -5.82156 0 6.92171 59.5021 0 1.03489 -5.42325 0 
8.23889 59.1038 0 2.40003 -5.82548 0 6.87375 59.5061 0 
2.22982 -4.88111 0 7.04372 58.5677 0 12.7481 57.1462 0 
-3.47435 -3.46566 0 2.27878 -3.84741 0 6.995 57.528 0 
2.35387 -3.25665 0 2.48556 -2.59119 0 2.60127 -1.92635 0 
2.73466 -1.25406 0 2.85164 -0.58224 0 2.96721 0.0895104 0 
3.08291 0.760929 0 3.19875 1.43208 0 3.31465 2.10313 0 
3.43057 2.77415 0 3.54648 3.44516 0 3.66239 4.11617 0 
3.77819 4.78716 0 3.89341 5.4581 0 4.00922 6.12909 0 
4.1258 6.80017 0 4.24195 7.4712 0 4.35793 8.14221 0 
4.47386 8.81322 0 4.58979 9.48423 0 4.70571 10.1552 0 
4.82163 10.8262 0 4.93755 11.4973 0 5.05348 12.1683 0 
5.1694 12.8393 0 5.28532 13.5103 0 5.40124 14.1813 0 
5.51717 14.8523 0 5.63309 15.5233 0 5.74901 16.1943 0 
5.86493 16.8653 0 5.98085 17.5363 0 6.09678 18.2073 0 
6.2127 18.8783 0 6.32862 19.5493 0 6.44454 20.2203 0 
6.56047 20.8914 0 6.67639 21.5624 0 6.79231 22.2334 0 
6.90823 22.9044 0 7.02416 23.5754 0 7.14008 24.2464 0 
7.256 24.9174 0 7.37192 25.5884 0 7.48784 26.2594 0 
7.60377 26.9304 0 7.71969 27.6014 0 7.83561 28.2724 0 
7.95153 28.9434 0 8.06746 29.6145 0 8.18338 30.2855 0 
8.2993 30.9565 0 8.41522 31.6275 0 8.53114 32.2985 0 
8.64707 32.9695 0 8.76299 33.6405 0 8.87891 34.3115 0 
8.99483 34.9825 0 9.11075 35.6535 0 9.22668 36.3245 0 
9.3426 36.9955 0 9.45852 37.6665 0 9.57444 38.3375 0 
9.69037 39.0086 0 9.80629 39.6796 0 9.92221 40.3506 0 
10.0381 41.0216 0 10.1541 41.6926 0 10.27 42.3636 0 
10.3859 43.0346 0 10.5018 43.7056 0 10.6177 44.3766 0 
10.7337 45.0476 0 10.8496 45.7186 0 10.9655 46.3896 0 
11.0814 47.0606 0 11.1974 47.7317 0 11.3133 48.4027 0 
11.4292 49.0737 0 11.5451 49.7447 0 11.661 50.4157 0 
11.777 51.0867 0 11.8929 51.7577 0 12.0088 52.4287 0 
12.124 53.1003 0 12.2462 53.7715 0 12.3474 54.4401 0 
12.3972 55.0811 0 12.5351 55.7704 0 6.91991 56.9373 0 
6.78822 56.2718 0 6.6725 55.6069 0 6.53912 54.9347 0 
6.42214 54.2628 0 6.30657 53.5911 0 6.19087 52.9197 0 
6.07503 52.2485 0 5.95913 51.5775 0 5.84321 50.9064 0 
5.72729 50.2354 0 5.61139 49.5644 0 5.49559 48.8934 0 
5.38037 48.2225 0 5.26456 47.5515 0 5.14797 46.8804 0 
5.03183 46.2094 0 4.91585 45.5384 0 4.79992 44.8674 0 
4.68399 44.1964 0 4.56807 43.5254 0 4.45215 42.8544 0 
4.33622 42.1833 0 4.2203 41.5123 0 4.10438 40.8413 0 
3.98846 40.1703 0 3.87253 39.4993 0 3.75661 38.8283 0 
3.64069 38.1573 0 3.52477 37.4863 0 3.40885 36.8153 0 
3.29292 36.1443 0 3.177 35.4733 0 3.06108 34.8023 0 
2.94516 34.1313 0 2.82923 33.4602 0 2.71331 32.7892 0 
2.59739 32.1182 0 2.48147 31.4472 0 2.36555 30.7762 0 
2.24962 30.1052 0 2.1337 29.4342 0 2.01778 28.7632 0 
1.90186 28.0922 0 1.78593 27.4212 0 1.67001 26.7502 0 
1.55409 26.0792 0 1.43817 25.4082 0 1.32225 24.7372 0 
1.20632 24.0661 0 1.0904 23.3951 0 0.974479 22.7241 0 
0.858556 22.0531 0 0.742634 21.3821 0 0.626712 20.7111 0 
0.51079 20.0401 0 0.394867 19.3691 0 0.278945 18.6981 0 
0.163023 18.0271 0 0.0471008 17.3561 0 -0.0688215 16.6851 0 
-0.184744 16.0141 0 -0.300666 15.343 0 -0.416588 14.672 0 
-0.53251 14.001 0 -0.648433 13.33 0 -0.764355 12.659 0 
-0.880277 11.988 0 -0.996199 11.317 0 -1.11212 10.646 0 
-1.22804 9.97499 0 -1.34397 9.30398 0 -1.45989 8.63297 0 
-1.57581 7.96196 0 -1.69173 7.29096 0 -1.80765 6.61995 0 
-1.92358 5.94894 0 -2.0395 5.27793 0 -2.15542 4.60693 0 
-2.27134 3.93592 0 -2.38727 3.26491 0 -2.50319 2.5939 0 
-2.61911 1.9229 0 -2.73503 1.25189 0 -2.85025 0.58026 0 
-2.97244 -0.0909027 0 -3.07306 -0.758759 0 -3.12341 -1.40051 0 
-3.26136 -2.08976 0 12.6598 56.4402 0 -3.38601 -2.75961 0 
12.1256 58.3381 0 -2.85178 -4.65746 0 2.3203 -4.80731 0 
6.95348 58.4879 0 0.588616 -4.48118 0 8.68549 58.1626 0 
0.28108 -4.71756 0 8.9927 58.3982 0 -0.0552522 -3.81303 0 
9.32903 57.4936 0 0.384828 -3.01822 0 0.394755 -2.4274 0 
0.515822 -1.7598 0 0.631044 -1.08648 0 0.746086 -0.41414 0 
0.86177 0.257201 0 0.977642 0.928276 0 1.09355 1.5993 0 
1.20947 2.27031 0 1.3254 2.94131 0 1.44132 3.61232 0 
1.55724 4.28333 0 1.67316 4.95434 0 1.78909 5.62534 0 
1.90501 6.29635 0 2.02093 6.96736 0 2.13685 7.63837 0 
2.25277 8.30937 0 2.3687 8.98038 0 2.48462 9.65139 0 
2.60054 10.3224 0 2.71646 10.9934 0 2.83239 11.6644 0 
2.94831 12.3354 0 3.06423 13.0064 0 3.18015 13.6774 0 
3.29607 14.3484 0 3.412 15.0194 0 3.52792 15.6905 0 
3.64384 16.3615 0 3.75976 17.0325 0 3.87569 17.7035 0 
3.99161 18.3745 0 4.10753 19.0455 0 4.22345 19.7165 0 
4.33937 20.3875 0 4.4553 21.0585 0 4.57122 21.7295 0 
4.68714 22.4005 0 4.80306 23.0715 0 4.91899 23.7425 0 
5.03491 24.4135 0 5.15083 25.0846 0 5.26675 25.7556 0 
5.38267 26.4266 0 5.4986 27.0976 0 5.61452 27.7686 0 
5.73044 28.4396 0 5.84636 29.1106 0 5.96229 29.7816 0 
6.07821 30.4526 0 6.19413 31.1236 0 6.31005 31.7946 0 
6.42597 32.4656 0 6.5419 33.1366 0 6.65782 33.8077 0 
6.77374 34.4787 0 6.88966 35.1497 0 7.00559 35.8207 0 
7.12151 36.4917 0 7.23743 37.1627 0 7.35335 37.8337 0 
7.46927 38.5047 0 7.5852 39.1757 0 7.70112 39.8467 0 
7.81704 40.5177 0 7.93296 41.1887 0 8.04889 41.8597 0 
8.16481 42.5308 0 8.28073 43.2018 0 8.39665 43.8728 0 
8.51258 44.5438 0 8.6285 45.2148 0 8.74442 45.8858 0 
8.86034 46.5568 0 8.97626 47.2278 0 9.09219 47.8988 0 
9.20811 48.5698 0 9.32403 49.2408 0 9.43995 49.9118 0 
9.55587 50.5828 0 9.6718 51.2538 0 9.78772 51.9249 0 
9.90364 52.5959 0 10.0196 53.2669 0 10.1355 53.9379 0 
10.2507 54.6086 0 10.3646 55.278 0 10.4835 55.9651 0 
10.563 56.6627 0 10.5278 57.3233 0 8.88895 56.6988 0 
8.87902 56.108 0 8.75796 55.4404 0 8.64273 54.7671 0 
8.52769 54.0947 0 8.41201 53.4234 0 8.29614 52.7523 0 
8.18022 52.0813 0 8.0643 51.4103 0 7.94838 50.7393 0 
7.83246 50.0683 0 7.71654 49.3973 0 7.60061 48.7263 0 
7.48469 48.0552 0 7.36877 47.3842 0 7.25285 46.7132 0 
7.13693 46.0422 0 7.021 45.3712 0 6.90508 44.7002 0 
6.78916 44.0292 0 6.67324 43.3582 0 6.55731 42.6872 0 
6.44139 42.0162 0 6.32547 41.3452 0 6.20955 40.6742 0 
6.09363 40.0032 0 5.9777 39.3322 0 5.86178 38.6611 0 
5.74586 37.9901 0 5.62994 37.3191 0 5.51401 36.6481 0 
5.39809 35.9771 0 5.28217 35.3061 0 5.16625 34.6351 0 
5.05033 33.9641 0 4.9344 33.2931 0 4.81848 32.6221 0 
4.70256 31.9511 0 4.58664 31.2801 0 4.47071 30.6091 0 
4.35479 29.938 0 4.23887 29.267 0 4.12295 28.596 0 
4.00703 27.925 0 3.8911 27.254 0 3.77518 26.583 0 
3.65926 25.912 0 3.54334 25.241 0 3.42741 24.57 0 
3.31149 23.899 0 3.19557 23.228 0 3.07965 22.557 0 
2.96373 21.886 0 2.8478 21.215 0 2.73188 20.5439 0 
2.61596 19.8729 0 2.50004 19.2019 0 2.38411 18.5309 0 
2.26819 17.8599 0 2.15227 17.1889 0 2.03635 16.5179 0 
1.92043 15.8469 0 1.8045 15.1759 0 1.68858 14.5049 0 
1.57266 13.8339 0 1.45674 13.1629 0 1.34081 12.4919 0 
1.22489 11.8208 0 1.10897 11.1498 0 0.993048 10.4788 0 
0.877126 9.80783 0 0.761203 9.13682 0 0.645281 8.46581 0 
0.529359 7.79481 0 0.413437 7.1238 0 0.297514 6.45279 0 
0.181592 5.78178 0 0.06567 5.11078 0 -0.0502522 4.43977 0 
-0.166174 3.76876 0 -0.282097 3.09775 0 -0.398019 2.42675 0 
-0.513941 1.75574 0 -0.629863 1.08473 0 -0.745786 0.413724 0 
-0.861708 -0.257284 0 -0.976925 -0.928012 0 -1.09081 -1.5974 0 
-1.2097 -2.28452 0 -1.28927 -2.98208 0 -1.25404 -3.64272 0 
10.742 58.6571 0 -1.46821 -4.97651 0 13.3319 57.6917 0 
-4.05809 -4.01107 0 -0.309458 -5.07956 0 9.58324 58.7602 0 
-3.12688 -4.99095 0 12.4007 58.6715 0 -0.0223337 -4.3421 0 
9.24974 57.9204 0 -1.16457 -3.60381 0 10.4476 57.2951 0 
2.59467 -4.4309 0 6.67911 58.1115 0 13.5161 58.382 0 
-4.24228 -4.70136 0 0.185986 -3.11324 0 9.1304 56.7675 0 
13.2234 56.9344 0 -3.94966 -3.25379 0 2.70654 -3.88113 0 
6.56761 57.5613 0 2.82354 -3.26978 0 2.93724 -2.60627 0 
3.05257 -1.93737 0 3.16849 -1.26552 0 3.28454 -0.592298 0 
3.40047 0.0789119 0 3.51637 0.749646 0 3.63209 1.41763 0 
3.74806 2.0892 0 3.86392 2.75943 0 3.97991 3.43121 0 
4.09576 4.10144 0 4.21177 4.7735 0 4.32784 5.44676 0 
4.44377 6.11798 0 4.55967 6.78871 0 4.67539 7.45669 0 
4.79139 8.12854 0 4.90743 8.80152 0 5.02315 9.46971 0 
5.13913 10.1413 0 5.25499 10.8115 0 5.37098 11.4833 0 
5.48683 12.1535 0 5.60284 12.8256 0 5.71888 13.4986 0 
5.83461 14.1668 0 5.95061 14.8386 0 6.06667 15.5119 0 
6.18261 16.1831 0 6.29853 16.8541 0 6.41445 17.5251 0 
6.53035 18.1958 0 6.64607 18.8638 0 6.76206 19.5357 0 
6.87811 20.2086 0 6.99383 20.8768 0 7.10981 21.5484 0 
7.22566 22.2186 0 7.34165 22.8904 0 7.45751 23.5607 0 
7.57352 24.2327 0 7.68956 24.9057 0 7.80529 25.5739 0 
7.92129 26.2457 0 8.03735 26.919 0 8.15326 27.5899 0 
8.26898 28.2579 0 8.38497 28.9298 0 8.50102 29.6027 0 
8.61674 30.2709 0 8.73272 30.9425 0 8.84858 31.6127 0 
8.96456 32.2845 0 9.08042 32.9548 0 9.19643 33.6268 0 
9.31249 34.3001 0 9.42841 34.971 0 9.54412 35.639 0 
9.6601 36.3106 0 9.77595 36.9808 0 9.89196 37.6529 0 
10.008 38.3258 0 10.1237 38.994 0 10.2397 39.6659 0 
10.3558 40.3389 0 10.4715 41.0071 0 10.5875 41.6789 0 
10.7036 42.3522 0 10.8195 43.0231 0 10.9352 43.6911 0 
11.0512 44.3629 0 11.1672 45.0359 0 11.283 45.7041 0 
11.3989 46.3757 0 11.5148 47.0459 0 11.6308 47.7177 0 
11.7466 48.3879 0 11.8626 49.0597 0 11.9785 49.7299 0 
12.0945 50.402 0 12.2105 51.0753 0 12.3265 51.7462 0 
12.4422 52.4142 0 12.5582 53.086 0 12.6742 53.759 0 
12.7899 54.4272 0 12.906 55.0993 0 13.0226 55.7813 0 
6.45025 56.9507 0 6.33676 56.2899 0 6.22116 55.6174 0 
6.10542 54.9475 0 5.98963 54.2784 0 5.87351 53.6046 0 
5.75767 52.9345 0 5.64189 52.2657 0 5.52596 51.5946 0 
5.40982 50.9206 0 5.29396 50.2502 0 5.17797 49.5784 0 
5.06212 48.9082 0 4.94612 48.2364 0 4.83027 47.5661 0 
4.71428 46.8944 0 4.59845 46.2244 0 4.48265 45.5554 0 
4.36652 44.8815 0 4.25068 44.2114 0 4.1349 43.5426 0 
4.01897 42.8715 0 3.90283 42.1975 0 3.78699 41.5274 0 
3.67119 40.8583 0 3.55507 40.1844 0 3.43923 39.5143 0 
3.32342 38.8453 0 3.2073 38.1714 0 3.09144 37.501 0 
2.97545 36.8293 0 2.85962 36.1593 0 2.74383 35.4905 0 
2.6279 34.8194 0 2.51177 34.1454 0 2.39591 33.475 0 
2.27991 32.8032 0 2.16406 32.133 0 2.04807 31.4612 0 
1.93224 30.7912 0 1.81643 30.1222 0 1.70031 29.4483 0 
1.58447 28.7782 0 1.46869 28.1094 0 1.35275 27.4383 0 
1.23662 26.7643 0 1.12078 26.0942 0 1.00498 25.4251 0 
0.888855 24.7513 0 0.772995 24.0809 0 0.657002 23.4091 0 
0.54115 22.7389 0 0.425157 22.0671 0 0.309327 21.3971 0 
0.193524 20.7281 0 0.0773995 20.0542 0 -0.03844 19.3841 0 
-0.154222 18.7153 0 -0.270135 18.0445 0 -0.386057 17.3735 0 
-0.50198 16.7025 0 -0.617923 16.0312 0 -0.734056 15.3572 0 
-0.849896 14.6871 0 -0.965699 14.018 0 -1.08182 13.3441 0 
-1.19768 12.6738 0 -1.31368 12.002 0 -1.42953 11.3317 0 
-1.54552 10.66 0 -1.66135 9.99001 0 -1.77715 9.32095 0 
-1.89328 8.6471 0 -2.00912 7.97699 0 -2.1249 7.30821 0 
-2.24081 6.63735 0 -2.35676 5.96606 0 -2.47289 5.29206 0 
-2.58875 4.62167 0 -2.70474 3.94989 0 -2.82059 3.27966 0 
-2.93659 2.60788 0 -3.05242 1.93792 0 -3.1682 1.26914 0 
-3.28411 0.598284 0 -3.40006 -0.0730023 0 -3.51619 -0.747015 0 
-3.63207 -1.41767 0 -3.74867 -2.09845 0 13.1258 56.4972 0 
-3.85198 -2.81635 0 1.31413 -5.86843 0 7.95968 59.5492 0 
13.2581 57.1435 0 -3.98422 -3.46344 0 0.321074 -2.58984 0 
0.471613 -2.03313 0 -1.0585 -2.17402 0 0.609081 -1.41182 0 
-0.932815 -1.45606 0 0.720152 -0.757226 0 -0.788402 -0.76613 0 
0.831207 -0.0992842 0 -0.689086 -0.120722 0 0.95121 0.565548 0 
-0.554822 0.57573 0 1.0787 1.2291 0 -0.456818 1.22131 0 
1.19939 1.90583 0 -0.322919 1.91775 0 1.30598 2.58287 0 
-0.22496 2.56333 0 1.4196 3.25609 0 -0.0910731 3.25977 0 
1.53385 3.92988 0 0.00688459 3.90534 0 1.64783 4.60587 0 
0.140771 4.60178 0 1.76302 5.2864 0 0.238729 5.24736 0 
1.87317 5.93948 0 0.372616 5.9438 0 1.99195 6.60387 0 
0.470574 6.58937 0 2.12121 7.2676 0 0.60446 7.28581 0 
2.24151 7.94406 0 0.702418 7.93139 0 2.34992 8.61705 0 
0.836305 8.62783 0 2.47278 9.28226 0 0.934262 9.2734 0 
2.59154 9.95875 0 1.06815 9.96984 0 2.6973 10.6351 0 
1.16611 10.6154 0 2.81048 11.3074 0 1.29999 11.3119 0 
2.9249 11.9799 0 1.39795 11.9574 0 3.04003 12.6526 0 
1.53184 12.6539 0 3.15797 13.318 0 1.6298 13.2994 0 
3.2824 13.9811 0 1.76368 13.9959 0 3.39919 14.6571 0 
1.86164 14.6415 0 3.50171 15.3346 0 1.99553 15.3379 0 
3.61057 16.0025 0 2.09348 15.9835 0 3.7256 16.6746 0 
2.22737 16.6799 0 3.84239 17.3431 0 2.32533 17.3255 0 
3.96441 18.0102 0 2.45922 18.0219 0 4.09218 18.6744 0 
2.55717 18.6675 0 4.21246 19.3524 0 2.69106 19.3639 0 
4.32236 20.0316 0 2.78902 20.0095 0 4.44326 20.6917 0 
2.9229 20.706 0 4.56087 21.365 0 3.02086 21.3515 0 
4.66719 22.0426 0 3.15475 22.048 0 4.7807 22.7147 0 
3.25271 22.6936 0 4.89542 23.3867 0 3.38659 23.39 0 
5.01081 24.0594 0 3.48455 24.0356 0 5.12879 24.7244 0 
3.61844 24.732 0 5.25316 25.3871 0 3.7164 25.3776 0 
5.37039 26.0622 0 3.85028 26.074 0 5.47446 26.7368 0 
3.94824 26.7196 0 5.58828 27.4021 0 4.08213 27.416 0 
5.71564 28.0685 0 4.18008 28.0616 0 5.83549 28.7466 0 
4.31397 28.7581 0 5.94522 29.4259 0 4.41193 29.4036 0 
6.06615 30.0859 0 4.54582 30.1001 0 6.18378 30.7592 0 
4.64377 30.7456 0 6.2901 31.4368 0 4.77766 31.4421 0 
6.40359 32.1092 0 4.87562 32.0877 0 6.51815 32.7823 0 
5.0095 32.7841 0 6.63264 33.4585 0 5.10746 33.4297 0 
6.74754 34.1386 0 5.24135 34.1261 0 6.86168 34.788 0 
5.33931 34.7717 0 6.99066 35.4519 0 5.47319 35.4681 0 
7.11152 36.1281 0 5.57115 36.1137 0 7.2171 36.8052 0 
5.70504 36.8101 0 7.33023 37.4792 0 5.803 37.4557 0 
7.4475 38.1446 0 5.93688 38.1522 0 7.5721 38.8074 0 
6.03484 38.7977 0 7.69068 39.4835 0 6.16873 39.4942 0 
7.8 40.1621 0 6.26669 40.1397 0 7.92108 40.8217 0 
6.40057 40.8362 0 8.0374 41.4962 0 6.49853 41.4818 0 
8.14093 42.1702 0 6.63242 42.1782 0 8.25462 42.8353 0 
6.73037 42.8238 0 8.38212 43.5016 0 6.86426 43.5202 0 
8.50171 44.1784 0 6.96222 44.1658 0 8.60988 44.8515 0 
7.09611 44.8622 0 8.73263 45.5167 0 7.19406 45.5078 0 
8.85135 46.1931 0 7.32795 46.2042 0 8.95741 46.8693 0 
7.42591 46.8498 0 9.07091 47.5413 0 7.55979 47.5463 0 
9.18557 48.2121 0 7.65775 48.1918 0 9.30066 48.8833 0 
7.79164 48.8883 0 9.41575 49.5563 0 7.8896 49.5338 0 
9.53069 50.23 0 8.02348 50.2303 0 9.6461 50.8978 0 
8.12144 50.8759 0 9.76106 51.5602 0 8.25533 51.5723 0 
9.88864 52.2242 0 8.35328 52.2179 0 10.0088 52.8998 0 
8.48717 52.9143 0 10.1198 53.5722 0 8.58513 53.5599 0 
10.2446 54.2302 0 8.71902 54.2563 0 10.3707 54.8873 0 
8.81863 54.9013 0 10.491 55.5236 0 8.95405 55.5948 0 
9.06189 56.1832 0 -1.40213 -5.24782 0 10.6759 58.9286 0 
1.84999 -5.95694 0 7.42378 59.6375 0 -0.390141 -5.20078 0 
9.66409 58.8817 0 13.3132 58.0431 0 -4.03941 -4.3625 0 
-0.904775 -2.74647 0 10.1309 56.433 0 0.0402118 -2.14836 0 
0.113008 -1.61209 0 0.196405 -0.974389 0 0.304805 -0.314423 0 
0.417638 0.346407 0 0.536828 1.01392 0 0.656247 1.68385 0 
0.772469 2.36102 0 0.885606 3.03183 0 1.00171 3.707 0 
1.11416 4.37665 0 1.22865 5.04947 0 1.34306 5.71825 0 
1.45895 6.38383 0 1.57882 7.05116 0 1.69979 7.72292 0 
1.81556 8.39399 0 1.93172 9.06422 0 2.04901 9.7361 0 
2.16403 10.4134 0 2.27688 11.084 0 2.39121 11.7561 0 
2.50573 12.4256 0 2.62223 13.0951 0 2.74062 13.7635 0 
2.85917 14.4361 0 2.97091 15.1076 0 3.08197 15.7799 0 
3.19528 16.4499 0 3.31104 17.1199 0 3.42911 17.7887 0 
3.54987 18.4576 0 3.66995 19.1288 0 3.7863 19.8026 0 
3.902 20.474 0 4.01843 21.148 0 4.13252 21.8212 0 
4.24673 22.4938 0 4.36088 23.1615 0 4.47684 23.8325 0 
4.59311 24.5017 0 4.71178 25.1703 0 4.82925 25.8399 0 
4.94319 26.5119 0 5.05656 27.1824 0 5.17401 27.8514 0 
5.29313 28.5231 0 5.40922 29.1969 0 5.52487 29.8682 0 
5.64133 30.5421 0 5.75543 31.2154 0 5.86965 31.888 0 
5.98383 32.5567 0 6.0997 33.229 0 6.2139 33.9017 0 
6.3296 34.57 0 6.44842 35.2358 0 6.5691 35.9098 0 
6.68328 36.5791 0 6.79661 37.2513 0 6.91208 37.9214 0 
7.03014 38.5899 0 7.14863 39.2604 0 7.26429 39.9333 0 
7.38007 40.6039 0 7.49784 41.2757 0 7.60994 41.9457 0 
7.72307 42.6157 0 7.84053 43.2844 0 7.9605 43.9572 0 
8.07567 44.6284 0 8.19162 45.2986 0 8.30884 45.9705 0 
8.42385 46.6478 0 8.53791 47.3183 0 8.65249 47.9899 0 
8.76592 48.6595 0 8.8813 49.3315 0 8.99658 50.0025 0 
9.11307 50.6735 0 9.22888 51.3412 0 9.34668 52.0079 0 
9.4659 52.6772 0 9.58239 53.3475 0 9.7021 54.0142 0 
9.8275 54.6752 0 9.94881 55.3196 0 10.051 55.9231 0 
1.00666 -5.88153 0 8.26711 59.5621 0 1.55343 -2.07412 0 
-2.15284 -2.02125 0 -2.13695 -1.21765 0 -1.96582 -0.76999 0 
-1.90558 0.126276 0 -1.73482 0.573609 0 2.15684 1.2745 0 
-1.67368 1.46829 0 -1.50294 1.91562 0 -1.44183 2.81031 0 
-1.2711 3.25764 0 -1.20999 4.15232 0 -1.03925 4.59965 0 
-0.978141 5.49433 0 -0.807407 5.94167 0 -0.746297 6.83635 0 
3.20014 7.31357 0 -0.575563 7.28368 0 -0.511911 8.17369 0 
-0.341825 8.62292 0 3.54803 9.32741 0 -0.282608 9.52038 0 
-0.111874 9.96771 0 -0.0507634 10.8624 0 0.11997 11.3097 0 
0.181081 12.2044 0 0.351815 12.6517 0 0.412926 13.5464 0 
4.35948 14.0245 0 0.583659 13.9938 0 0.647311 14.8838 0 
0.817398 15.333 0 0.876614 16.2305 0 1.04735 16.6778 0 
1.10846 17.5725 0 1.27919 18.0198 0 5.17082 18.7207 0 
1.3403 18.9145 0 1.51104 19.3618 0 1.57215 20.2565 0 
5.5187 20.7345 0 1.74288 20.7038 0 1.80653 21.5938 0 
1.97662 22.0431 0 2.03838 22.9359 0 2.20846 23.3851 0 
2.27022 24.2779 0 2.44031 24.7271 0 6.33016 25.4316 0 
2.49953 25.6246 0 2.67026 26.0719 0 2.73137 26.9666 0 
2.9021 27.4139 0 6.79375 28.1149 0 2.96321 28.3086 0 
3.13395 28.7559 0 3.19506 29.6506 0 7.14161 30.1286 0 
3.36579 30.0979 0 3.42944 30.9879 0 3.59953 31.4372 0 
3.66129 32.33 0 3.83138 32.7792 0 3.89313 33.672 0 
4.06322 34.1212 0 4.12244 35.0187 0 8.06889 35.496 0 
4.29317 35.466 0 4.35682 36.356 0 4.52691 36.8052 0 
4.58867 37.698 0 4.75875 38.1472 0 8.6486 38.8517 0 
4.81797 39.0447 0 4.9887 39.492 0 5.04981 40.3867 0 
8.99637 40.8648 0 5.22055 40.8341 0 5.2842 41.7241 0 
5.45429 42.1733 0 5.5135 43.0708 0 9.45996 43.5481 0 
5.68424 43.5181 0 5.74789 44.4081 0 5.91798 44.8573 0 
9.80783 45.5618 0 5.97719 45.7548 0 6.14793 46.2021 0 
6.20904 47.0968 0 6.37977 47.5441 0 6.44088 48.4388 0 
6.61162 48.8861 0 6.67273 49.7808 0 6.84346 50.2282 0 
6.90457 51.1228 0 7.0753 51.5702 0 10.9669 52.2712 0 
7.13641 52.4649 0 7.30715 52.9122 0 7.36826 53.8069 0 
11.3148 54.2849 0 7.53899 54.2542 0 7.60372 55.1443 0 
11.5379 55.63 0 7.78145 55.5948 0 7.82701 56.4541 0 
1.31377 -3.51596 0 7.87022 57.0893 0 -2.32894 -5.5109 0 
11.6027 59.1915 0 1.62551 -3.04316 0 -2.40739 -1.71188 0 
1.91668 -1.41521 0 2.06875 -0.910156 0 -2.17461 -0.367319 0 
2.2013 -0.25709 0 2.32908 0.364271 0 -1.94277 0.974696 0 
-1.71092 2.31671 0 -1.47908 3.65873 0 2.96103 4.62336 0 
-1.24724 5.00074 0 3.1123 5.12854 0 3.24465 5.78187 0 
-1.01539 6.34275 0 3.37239 6.40331 0 -0.783547 7.68477 0 
3.54104 7.97865 0 3.69973 8.43574 0 -0.551703 9.02678 0 
-0.319858 10.3688 0 -0.0880137 11.7108 0 4.3521 12.6754 0 
0.143831 13.0528 0 4.51078 13.1324 0 0.375675 14.3948 0 
4.7002 14.6887 0 4.85147 15.194 0 0.60752 15.7369 0 
4.98359 15.8471 0 5.10396 16.5167 0 0.839364 17.0789 0 
5.22092 17.1877 0 5.34435 17.8105 0 1.07121 18.4209 0 
5.51172 19.3858 0 1.30305 19.7629 0 5.6704 19.8429 0 
1.5349 21.1049 0 1.76674 22.4469 0 1.99859 23.7889 0 
6.32277 24.0826 0 6.48146 24.5395 0 2.23043 25.131 0 
6.67088 26.0958 0 2.46228 26.473 0 6.82215 26.6011 0 
6.96158 27.206 0 2.69412 27.815 0 7.13462 28.7799 0 
2.92596 29.157 0 7.29331 29.237 0 3.15781 30.499 0 
3.38965 31.841 0 3.6215 33.1831 0 7.94569 33.4767 0 
8.09696 33.9819 0 3.85334 34.5251 0 8.23662 34.587 0 
4.08519 35.8671 0 4.31703 37.2091 0 8.64123 37.5027 0 
8.79991 37.9597 0 4.54888 38.5511 0 8.98932 39.516 0 
4.78072 39.8931 0 9.14801 39.973 0 5.01256 41.2351 0 
9.33709 41.529 0 9.48837 42.0343 0 5.24441 42.5772 0 
9.62779 42.6392 0 5.47625 43.9192 0 9.80083 44.213 0 
9.95952 44.6701 0 5.7081 45.2612 0 5.93994 46.6032 0 
6.17179 47.9452 0 6.40363 49.2872 0 10.8437 50.2519 0 
6.63548 50.6292 0 10.995 50.757 0 11.1347 51.3622 0 
6.86732 51.9713 0 11.3078 52.9361 0 7.09916 53.3133 0 
11.4665 53.3932 0 7.33101 54.6553 0 11.6645 54.8875 0 
7.56639 56.0013 0 7.44845 56.7419 0 1.68005 -3.48119 0 
0.316843 -5.8681 0 8.95695 59.5487 0 12.9981 58.7241 0 
-3.72427 -5.04351 0 2.50729 -3.9113 0 6.76921 57.5962 0 
12.3408 58.7639 0 -3.06704 -5.0833 0 2.69944 -4.19807 0 
6.57418 57.8775 0 -1.35667 -5.64288 0 10.6305 59.3235 0 
-0.507818 -5.7864 0 9.78164 59.4671 0 0.0904738 -3.42703 0 
9.1833 57.1076 0 -4.1788 -5.36722 0 13.4526 59.0478 0 
2.54432 -5.20002 0 6.72948 58.8808 0 6.42898 54.6944 0 
6.19692 53.351 0 5.96527 52.0094 0 5.73324 50.667 0 
5.50134 49.3249 0 5.26949 47.9828 0 5.03766 46.6408 0 
4.80602 45.2986 0 4.55256 44.019 0 4.34226 42.6146 0 
4.08887 41.3349 0 3.87836 39.9307 0 3.6468 38.5885 0 
3.41493 37.2443 0 3.16149 35.9668 0 2.95119 34.5625 0 
2.7194 33.2182 0 2.48755 31.8762 0 2.23411 30.5988 0 
2.0236 29.1946 0 1.79207 27.8531 0 1.56005 26.5107 0 
1.32836 25.1684 0 1.09649 23.8241 0 0.864643 22.4821 0 
0.611202 21.2047 0 0.400692 19.8005 0 0.169168 18.459 0 
-0.0626178 17.1171 0 -0.294495 15.7744 0 -0.548019 14.4947 0 
-0.758545 13.0904 0 -0.990311 11.7484 0 -1.22214 10.4064 0 
-1.45378 9.0642 0 -1.70724 7.78458 0 -1.91752 6.38087 0 
-2.14948 5.03848 0 -2.38138 3.69636 0 -2.61321 2.35433 0 
-2.84481 1.01283 0 -3.07664 -0.329811 0 -3.30589 -1.67806 0 
6.81071 56.6458 0 10.5645 57.867 0 -1.29075 -4.1864 0 
0.923492 -2.93937 0 -1.71719 -1.66086 0 -1.49634 -0.373285 0 
-1.26387 0.968479 0 -1.032 2.3105 0 -0.800154 3.65251 0 
-0.568309 4.99453 0 -0.336465 6.33654 0 -0.104213 7.67788 0 
0.127519 9.02017 0 0.359068 10.3626 0 0.590913 11.7046 0 
0.822757 13.0466 0 1.05501 14.388 0 1.28674 15.7302 0 
1.51829 17.0727 0 1.75014 18.4147 0 1.98198 19.7567 0 
2.21423 21.098 0 2.44637 22.4396 0 2.67822 23.7817 0 
2.90965 25.1243 0 3.1412 26.4668 0 3.37305 27.8088 0 
3.60489 29.1508 0 3.83714 30.4921 0 4.06928 31.8337 0 
4.30113 33.1758 0 4.53256 34.5185 0 4.76452 35.8602 0 
4.99666 37.2018 0 5.2281 38.5445 0 5.45965 39.8869 0 
5.6919 41.2283 0 5.92363 42.5705 0 6.15559 43.9123 0 
6.38732 45.2546 0 6.61887 46.597 0 6.85071 47.939 0 
7.08256 49.281 0 7.3144 50.623 0 7.54625 51.965 0 
7.77809 53.3071 0 8.01162 54.6483 0 8.27973 55.9922 0 
-0.503066 -5.80548 0 9.77684 59.4861 0 -3.10732 -3.95726 0 
12.381 57.6387 0 0.179694 -5.18022 0 9.09408 58.8608 0 
1.75419 -6.334 0 7.51959 60.0146 0 -0.190259 -4.41458 0 
9.46404 58.0952 0 2.32427 -4.31166 0 6.94652 58.0122 0 
12.1258 55.4582 0 -2.85211 -1.77765 0 2.07936 -2.90092 0 
7.19442 56.5815 0 2.20984 -2.23075 0 7.06394 55.9113 0 
3.60927 5.81603 0 3.72601 6.48725 0 3.84232 7.1584 0 
3.9586 7.82936 0 4.07448 8.50042 0 4.19055 9.17138 0 
4.30636 9.84243 0 4.4224 10.5134 0 4.53843 11.1844 0 
4.65481 11.8552 0 4.77101 12.526 0 4.88702 13.197 0 
5.00292 13.868 0 5.11844 14.5393 0 5.23404 15.2105 0 
5.34973 15.8809 0 5.46521 16.5517 0 5.5815 17.2232 0 
5.6971 17.8936 0 5.81316 18.5647 0 5.92907 19.2357 0 
6.04489 19.9066 0 6.16096 20.5778 0 6.27685 21.2488 0 
6.39267 21.9196 0 6.50873 22.5908 0 6.62462 23.2618 0 
6.74043 23.9326 0 6.8565 24.6038 0 6.97238 25.2748 0 
7.0882 25.9456 0 7.20426 26.6168 0 7.32015 27.2878 0 
7.43597 27.9587 0 7.55203 28.6298 0 7.66792 29.3009 0 
7.78373 29.9717 0 7.8998 30.6429 0 8.01568 31.3139 0 
8.1315 31.9847 0 8.24756 32.6559 0 8.36345 33.3269 0 
8.47927 33.9977 0 8.59533 34.6689 0 8.71122 35.3399 0 
8.82703 36.0107 0 8.9431 36.6819 0 9.05898 37.3529 0 
9.1748 38.0238 0 9.29086 38.695 0 9.40675 39.366 0 
9.52257 40.0368 0 9.63863 40.708 0 9.75452 41.379 0 
9.87033 42.0498 0 9.9864 42.721 0 10.1023 43.392 0 
10.2181 44.0628 0 10.3342 44.734 0 10.4501 45.405 0 
10.5659 46.0759 0 10.6819 46.747 0 10.7978 47.4181 0 
10.9136 48.0889 0 11.0297 48.7601 0 11.1456 49.4311 0 
11.2614 50.1019 0 11.3774 50.7731 0 11.4933 51.4442 0 
11.6088 52.1151 0 11.7241 52.7873 0 5.66451 47.8646 0 
5.54777 47.1933 0 5.43145 46.5222 0 5.31518 45.8512 0 
5.1993 45.1802 0 5.08323 44.5092 0 4.96742 43.8382 0 
4.85137 43.1672 0 4.73557 42.4961 0 4.61953 41.8252 0 
4.5035 41.1542 0 4.38713 40.4834 0 4.27093 39.8125 0 
4.15491 39.1416 0 4.03901 38.4705 0 3.92349 37.7993 0 
3.8079 37.1281 0 3.6922 36.4576 0 3.57672 35.7869 0 
3.46043 35.1154 0 3.34484 34.445 0 3.22878 33.7738 0 
3.11287 33.1028 0 2.99704 32.432 0 2.88097 31.7608 0 
2.76508 31.0898 0 2.64927 30.419 0 2.5332 29.7478 0 
2.41732 29.0768 0 2.3015 28.406 0 2.18544 27.7348 0 
2.06955 27.0638 0 1.95373 26.3929 0 1.83767 25.7218 0 
1.72178 25.0507 0 1.60597 24.3799 0 1.4899 23.7087 0 
1.37402 23.0377 0 1.2582 22.3669 0 1.14214 21.6957 0 
1.02625 21.0247 0 0.910434 20.3539 0 0.794371 19.6827 0 
0.678483 19.0117 0 0.562667 18.3409 0 0.446604 17.6697 0 
0.330716 16.9987 0 0.2149 16.3278 0 0.0988374 15.6566 0 
-0.0170506 14.9856 0 -0.132866 14.3148 0 -0.248929 13.6436 0 
-0.364817 12.9726 0 -0.480633 12.3018 0 -0.596696 11.6306 0 
-0.712584 10.9596 0 -0.8284 10.2888 0 -0.944463 9.61758 0 
-1.06035 8.94656 0 -1.17617 8.27574 0 -1.29223 7.60455 0 
-1.40812 6.93354 0 -1.52393 6.26272 0 -1.64 5.59153 0 
-1.75588 4.92052 0 -1.8717 4.2497 0 -1.98776 3.57851 0 
-2.10363 2.90748 0 -2.21934 2.23663 0 -2.33533 1.56504 0 
-2.45066 0.892773 0 3.49202 5.1452 0 11.8377 53.4624 0 
5.78176 48.5354 0 -2.5639 0.218204 0 3.3769 4.47369 0 
5.89688 49.2069 0 3.26032 3.80312 0 6.01346 49.8775 0 
3.14563 3.13155 0 6.12815 50.549 0 11.9463 54.1251 0 
-2.67229 -0.444325 0 3.0301 2.46039 0 6.24367 51.2202 0 
2.91454 1.78924 0 6.35924 51.8914 0 2.79897 1.11808 0 
6.47481 52.5625 0 2.68354 0.447018 0 6.59024 53.2336 0 
2.56814 -0.224414 0 6.70564 53.905 0 2.45224 -0.895383 0 
6.82154 54.576 0 2.33237 -1.56435 0 6.94141 55.2449 0 
12.2251 56.1311 0 -2.95136 -2.45055 0 1.40294 -3.92735 0 
7.87084 57.6079 0 12.7004 55.424 0 -3.42665 -1.74314 0 
12.039 54.7902 0 -2.76138 -1.10489 0 10.8556 59.86 0 
-1.58182 -6.17941 0 6.4056 55.0664 0 6.16102 53.6924 0 
-0.330214 16.1166 0 -2.18537 5.37997 0 5.69738 51.0085 0 
1.5242 26.8522 0 -0.0981867 17.4593 0 -3.11237 0.0123578 0 
-0.796104 13.4406 0 3.84081 40.2808 0 4.30481 42.9653 0 
-1.9548 6.73161 0 2.91375 34.9132 0 1.98605 29.5447 0 
0.363139 20.1506 0 5.92947 52.3511 0 -2.41744 4.0374 0 
5.46527 49.6659 0 1.29241 25.5101 0 -1.02642 12.0895 0 
3.6108 38.9302 0 1.75623 28.1948 0 0.133331 18.8007 0 
-2.64927 2.69535 0 5.23342 48.3239 0 -1.25821 10.7474 0 
5.00159 46.9818 0 -2.88061 1.3545 0 -1.48974 9.4059 0 
4.77006 45.6403 0 2.6834 33.5593 0 1.06052 24.1653 0 
3.37897 37.5854 0 -3.34387 -1.33616 0 2.45156 32.217 0 
0.828651 22.8229 0 -0.658431 -6.34023 0 9.93221 60.0208 0 
-3.81082 -6.25199 0 1.49238 -7.16816 0 -3.81082 -6.25199 0 
1.49238 -7.16816 0 7.7814 60.8488 0 13.0846 59.9326 0 
7.7814 60.8488 0 13.0846 59.9326 0 10.4708 58.9897 0 
9.76944 56.6444 0 9.83998 57.1984 0 9.67049 56.0413 0 
9.56209 55.3639 0 9.33068 54.0118 0 9.4485 54.6948 0 
9.12295 52.8101 0 9.22049 53.3751 0 8.86704 51.3305 0 
8.96104 51.8738 0 8.75441 50.6789 0 8.66189 50.1393 0 
8.40339 48.6464 0 8.49774 49.189 0 8.29072 47.9949 0 
8.17361 47.3128 0 7.96377 46.0999 0 8.06196 46.6662 0 
7.70953 44.6303 0 7.80216 45.1657 0 7.59341 43.9568 0 
7.35999 42.6047 0 7.47818 43.2877 0 7.15227 41.403 0 
7.24981 41.9679 0 6.89636 39.9234 0 6.99036 40.4667 0 
6.78202 39.2619 0 6.6684 38.6018 0 6.57546 38.0613 0 
6.3185 36.5781 0 6.41149 37.1128 0 6.22683 36.047 0 
5.96902 34.5552 0 6.06333 35.0979 0 5.85636 33.9037 0 
5.76383 33.3641 0 5.50705 31.8811 0 5.60003 32.4158 0 
5.41537 31.3499 0 5.15756 29.8582 0 5.25187 30.4009 0 
5.0449 29.2067 0 4.95238 28.6671 0 4.69388 27.1741 0 
4.78823 27.7168 0 4.5795 26.5128 0 4.46416 25.8427 0 
4.34839 25.1718 0 4.2342 24.5107 0 4.14114 23.9701 0 
3.88414 22.487 0 3.97713 23.0217 0 3.76798 21.8136 0 
3.53456 20.4614 0 3.65275 21.1445 0 3.30268 19.1195 0 
3.42035 19.8013 0 3.09499 17.9177 0 3.19253 18.4827 0 
2.8408 16.448 0 2.93343 16.9834 0 2.74915 15.9168 0 
2.49306 14.4349 0 2.586 14.9697 0 2.40139 13.9037 0 
2.14359 12.412 0 2.2379 12.9547 0 2.03092 11.7605 0 
1.9384 11.2209 0 1.68161 9.73785 0 1.7746 10.2726 0 
1.56546 9.06443 0 1.3562 7.85253 0 1.45425 8.4187 0 
1.10196 6.38289 0 1.19459 6.91828 0 1.01032 5.85167 0 
0.754231 4.3698 0 0.847171 4.90459 0 0.662561 3.83863 0 
0.406464 2.35677 0 0.499404 2.89157 0 0.314794 1.82561 0 
0.0586976 0.343752 0 0.151637 0.878548 0 -0.0329729 -0.187414 0 
-0.290866 -1.68159 0 -0.196489 -1.13694 0 -0.387484 -2.3429 0 
-0.569986 -3.37822 0 -0.373922 -2.87827 0 -1.197 -5.30914 0 
10.2459 59.5466 0 9.99477 58.5326 0 9.90286 57.6432 0 
-0.625472 -3.87816 0 -0.721144 -4.85211 0 -0.972084 -5.86601 0 
12.9839 59.4754 0 1.54561 -6.76214 0 -3.70981 -5.79403 0 
7.72816 60.4427 0 12.9817 59.4563 0 1.53647 -6.7786 0 
-3.70761 -5.77404 0 7.73731 60.4592 0 10.7782 59.9076 0 
-0.653991 -6.35792 0 -1.50444 -6.22702 0 9.92777 60.0385 0 
12.8508 58.5075 0 12.6162 57.0813 0 12.3617 55.6903 0 
12.2488 55.1429 0 12.1013 54.4185 0 12.0061 53.7595 0 
11.8676 53.0707 0 11.774 52.4165 0 11.6357 51.7284 0 
11.5418 51.0733 0 11.4345 50.4591 0 11.3204 49.7987 0 
11.1736 49.0539 0 11.0784 48.3909 0 10.9708 47.7753 0 
10.8567 47.1147 0 10.7099 46.37 0 10.615 45.708 0 
10.4765 45.0185 0 10.3826 44.3633 0 10.2755 43.7501 0 
10.1301 43.0136 0 10.0353 42.3528 0 9.89692 41.6636 0 
9.80328 41.0094 0 9.66499 40.3212 0 9.57113 39.6662 0 
9.46379 39.0519 0 9.34946 38.3904 0 9.23412 37.7222 0 
9.08703 36.976 0 8.99179 36.3128 0 8.88452 35.6983 0 
8.73898 34.9614 0 8.64398 34.2995 0 8.53645 33.6841 0 
8.42238 33.0236 0 8.27553 32.2787 0 8.18033 31.6157 0 
8.07306 31.0013 0 7.92752 30.2643 0 7.83252 29.6024 0 
7.725 28.987 0 7.61093 28.3265 0 7.46408 27.5816 0 
7.36887 26.9186 0 7.26132 26.3031 0 7.14694 25.6414 0 
7.0313 24.9719 0 6.91543 24.3012 0 6.79981 23.6313 0 
6.65267 22.8849 0 6.55743 22.2216 0 6.45016 21.6072 0 
6.30466 20.8704 0 6.20991 20.2095 0 6.07148 19.5204 0 
5.97784 18.8662 0 5.83961 18.1782 0 5.74599 17.5241 0 
5.60771 16.836 0 5.51385 16.1809 0 5.40681 15.5678 0 
5.2613 14.8311 0 5.16631 14.1693 0 5.05908 13.555 0 
4.91354 12.8181 0 4.81854 12.1563 0 4.71102 11.5409 0 
4.59695 10.8803 0 4.4501 10.1354 0 4.3549 9.47245 0 
4.24763 8.85801 0 4.10213 8.12125 0 4.00739 7.46039 0 
3.86891 6.77106 0 3.77502 6.11586 0 3.66798 5.50271 0 
3.52247 4.76601 0 3.42748 4.10416 0 3.32025 3.48991 0 
3.17471 2.75302 0 3.07971 2.09114 0 2.97248 1.47689 0 
2.82694 0.739995 0 2.73194 0.0781211 0 2.62471 -0.536134 0 
2.47918 -1.27303 0 2.38418 -1.9349 0 2.27524 -2.55417 0 
2.16363 -3.18804 0 2.04613 -3.80331 0 1.9592 -4.65706 0 
1.75434 -5.80129 0 -3.57563 -4.82657 0 -3.31516 -3.31166 0 
-3.20318 -2.77902 0 -3.05775 -2.07619 0 -2.96471 -1.42225 0 
-2.85686 -0.806659 0 -2.71109 -0.0691478 0 -2.61604 0.592851 0 
-2.50879 1.20713 0 -2.36325 1.94403 0 -2.26826 2.60591 0 
-2.16102 3.22016 0 -2.01549 3.95706 0 -1.92049 4.61893 0 
-1.81326 5.23319 0 -1.66777 5.96991 0 -1.57302 6.63077 0 
-1.43455 7.3201 0 -1.34065 7.9753 0 -1.23361 8.58844 0 
-1.08815 9.32498 0 -0.993411 9.98581 0 -0.854983 10.675 0 
-0.761342 11.3292 0 -0.62306 12.0173 0 -0.529191 12.6724 0 
-0.422152 13.2855 0 -0.276648 14.0222 0 -0.181655 14.684 0 
-0.0744245 15.2983 0 0.0710668 16.035 0 0.16581 16.6959 0 
0.304239 17.385 0 0.39788 18.0392 0 0.536116 18.7272 0 
0.62973 19.3813 0 0.768008 20.0694 0 0.861875 20.7245 0 
0.968914 21.3376 0 1.11442 22.0743 0 1.20941 22.7361 0 
1.31664 23.3504 0 1.46213 24.0871 0 1.55688 24.748 0 
1.69531 25.4371 0 1.78895 26.0913 0 1.92718 26.7793 0 
2.0208 27.4334 0 2.15903 28.1213 0 2.25264 28.7754 0 
2.39092 29.4635 0 2.48479 30.1186 0 2.59183 30.7317 0 
2.73728 31.4682 0 2.83202 32.1291 0 2.97045 32.8182 0 
3.06409 33.4724 0 3.20237 34.1606 0 3.29624 34.8156 0 
3.40328 35.4287 0 3.54879 36.1654 0 3.64378 36.8273 0 
3.75101 37.4415 0 3.8965 38.1783 0 3.99124 38.8391 0 
4.12967 39.5283 0 4.22331 40.1825 0 4.36155 40.8705 0 
4.45516 41.5245 0 4.59344 42.2127 0 4.68731 42.8677 0 
4.79435 43.4808 0 4.93981 44.2174 0 5.03454 44.8782 0 
5.17297 45.5673 0 5.26661 46.2215 0 5.40485 46.9095 0 
5.49846 47.5636 0 5.63669 48.2516 0 5.73031 48.9056 0 
5.86854 49.5936 0 5.96215 50.2476 0 6.10038 50.9356 0 
6.194 51.5896 0 6.33223 52.2776 0 6.42584 52.9316 0 
6.56407 53.6196 0 6.65769 54.2737 0 6.79592 54.9616 0 
6.88953 55.6157 0 7.02908 56.307 0 7.11931 56.9347 0 
7.23154 57.5076 0 7.31463 58.3379 0 7.51944 59.4819 0 
12.7846 58.0078 0 12.5259 56.5509 0 1.86536 -5.18915 0 
-3.50504 -4.29965 0 7.40842 58.8698 0 1.39631 -6.27198 0 
7.87747 59.9526 0 1.339 -6.70247 0 -3.47847 -5.75544 0 
7.93478 60.3831 0 12.7522 59.436 0 1.57979 -6.85501 0 
-3.77981 -5.87915 0 7.69399 60.5356 0 13.0538 59.5609 0 
-1.09017 -6.31038 0 10.364 59.991 0 12.0838 59.251 0 
8.44794 59.743 0 0.825843 -6.06243 0 -2.81 -5.57042 0 
12.3732 58.7066 0 8.04608 59.4488 0 1.22769 -5.76821 0 
-3.09942 -5.02603 0 11.835 58.3022 0 -2.54497 -4.59453 0 
0.667131 -5.37149 0 8.60665 59.0521 0 12.546 58.7536 0 
1.33999 -5.83116 0 -3.26853 -5.07437 0 7.93378 59.5118 0 
8.41137 59.2106 0 0.862413 -5.53004 0 1.22035 -5.20601 0 
8.05343 58.8866 0 7.84306 59.0017 0 1.43072 -5.32108 0 
12.0164 57.4824 0 11.815 56.884 0 11.6948 56.2811 0 
11.5774 55.6287 0 11.4605 54.9641 0 11.3444 54.2946 0 
11.2284 53.6239 0 11.1125 52.953 0 10.9965 52.282 0 
10.8806 51.611 0 10.7647 50.94 0 10.6488 50.269 0 
10.5328 49.5979 0 10.4169 48.9269 0 10.301 48.2559 0 
10.1851 47.5849 0 10.0692 46.9139 0 9.95323 46.2429 0 
9.83731 45.5719 0 9.72139 44.9009 0 9.60546 44.2299 0 
9.48954 43.5589 0 9.37362 42.8879 0 9.2577 42.2169 0 
9.14178 41.5459 0 9.02585 40.8749 0 8.90993 40.2038 0 
8.79401 39.5328 0 8.67809 38.8618 0 8.56217 38.1908 0 
8.44624 37.5198 0 8.33032 36.8488 0 8.2144 36.1778 0 
8.09848 35.5068 0 7.98255 34.8358 0 7.86663 34.1648 0 
7.75071 33.4938 0 7.63479 32.8228 0 7.51887 32.1518 0 
7.40294 31.4807 0 7.28702 30.8097 0 7.1711 30.1387 0 
7.05518 29.4677 0 6.93925 28.7967 0 6.82333 28.1257 0 
6.70741 27.4547 0 6.59149 26.7837 0 6.47556 26.1127 0 
6.35964 25.4417 0 6.24372 24.7707 0 6.1278 24.0997 0 
6.01188 23.4287 0 5.89595 22.7577 0 5.78003 22.0866 0 
5.66411 21.4156 0 5.54819 20.7446 0 5.43227 20.0736 0 
5.31634 19.4026 0 5.20042 18.7316 0 5.0845 18.0606 0 
4.96858 17.3896 0 4.85265 16.7186 0 4.73673 16.0476 0 
4.62081 15.3766 0 4.50489 14.7056 0 4.38897 14.0346 0 
4.27304 13.3635 0 4.15712 12.6925 0 4.0412 12.0215 0 
3.92528 11.3505 0 3.80935 10.6795 0 3.69343 10.0085 0 
3.57751 9.3375 0 3.46159 8.6665 0 3.34566 7.99549 0 
3.22974 7.32448 0 3.11382 6.65347 0 2.9979 5.98247 0 
2.88198 5.31146 0 2.76605 4.64045 0 2.65013 3.96944 0 
2.53421 3.29844 0 2.41829 2.62743 0 2.30237 1.95642 0 
2.18644 1.28541 0 2.07052 0.614407 0 1.9546 -0.0566001 0 
1.83868 -0.727607 0 1.72275 -1.39861 0 1.60683 -2.06962 0 
1.49151 -2.74182 0 1.34404 -3.47976 0 1.33746 -4.33163 0 
-2.72964 -3.85215 0 -2.54466 -3.26824 0 -2.42094 -2.61858 0 
-2.30372 -1.95361 0 -2.1868 -1.28475 0 -2.0706 -0.61427 0 
-1.95461 0.0566269 0 -1.83868 0.727613 0 -1.72275 1.39862 0 
-1.60683 2.06962 0 -1.49091 2.74063 0 -1.37499 3.41164 0 
-1.25906 4.08264 0 -1.14314 4.75365 0 -1.02722 5.42466 0 
-0.911298 6.09567 0 -0.795376 6.76667 0 -0.679454 7.43768 0 
-0.563532 8.10869 0 -0.447609 8.7797 0 -0.331687 9.4507 0 
-0.215765 10.1217 0 -0.0998427 10.7927 0 0.0160796 11.4637 0 
0.132002 12.1347 0 0.247924 12.8057 0 0.363846 13.4767 0 
0.479768 14.1478 0 0.595691 14.8188 0 0.711613 15.4898 0 
0.827535 16.1608 0 0.943457 16.8318 0 1.05938 17.5028 0 
1.1753 18.1738 0 1.29122 18.8448 0 1.40715 19.5158 0 
1.52307 20.1868 0 1.63899 20.8578 0 1.75491 21.5288 0 
1.87084 22.1998 0 1.98676 22.8709 0 2.10268 23.5419 0 
2.2186 24.2129 0 2.33452 24.8839 0 2.45045 25.5549 0 
2.56637 26.2259 0 2.68229 26.8969 0 2.79821 27.5679 0 
2.91414 28.2389 0 3.03006 28.9099 0 3.14598 29.5809 0 
3.2619 30.2519 0 3.37782 30.9229 0 3.49375 31.5939 0 
3.60967 32.265 0 3.72559 32.936 0 3.84151 33.607 0 
3.95744 34.278 0 4.07336 34.949 0 4.18928 35.62 0 
4.3052 36.291 0 4.42112 36.962 0 4.53705 37.633 0 
4.65297 38.304 0 4.76889 38.975 0 4.88481 39.646 0 
5.00074 40.317 0 5.11666 40.9881 0 5.23258 41.6591 0 
5.3485 42.3301 0 5.46442 43.0011 0 5.58035 43.6721 0 
5.69627 44.3431 0 5.81219 45.0141 0 5.92811 45.6851 0 
6.04404 46.3561 0 6.15996 47.0271 0 6.27588 47.6981 0 
6.3918 48.3691 0 6.50772 49.0401 0 6.62365 49.7111 0 
6.73957 50.3822 0 6.85549 51.0532 0 6.97141 51.7242 0 
7.08734 52.3952 0 7.20326 53.0662 0 7.31918 53.7372 0 
7.4351 54.4082 0 7.55102 55.0792 0 7.66695 55.7502 0 
7.78227 56.4224 0 7.92973 57.1604 0 7.93631 58.0122 0 
11.8031 57.8915 0 -2.51865 -4.22252 0 0.965232 -5.74962 0 
8.30855 59.4302 0 8.28935 58.6317 0 0.984517 -4.95112 0 
12.0541 58.6979 0 12.2856 58.0384 0 -2.77848 -5.01764 0 
-2.99739 -4.37299 0 7.80625 58.5354 0 7.81513 57.0585 0 
8.37201 57.7832 0 7.73203 56.5067 0 7.55038 55.7093 0 
11.3455 53.6712 0 7.31933 54.3675 0 11.3928 54.2128 0 
7.50255 55.1614 0 11.1132 52.3284 0 7.08734 53.0261 0 
11.1609 52.8708 0 7.27071 53.8194 0 10.7817 50.8542 0 
6.85549 51.6841 0 10.9254 51.5213 0 7.03886 52.4773 0 
10.6747 50.2508 0 6.80702 51.1353 0 10.6481 49.6759 0 
6.62355 50.3424 0 10.3181 48.1711 0 6.39196 48.9995 0 
10.4617 48.8373 0 6.57517 49.7933 0 10.2111 47.5672 0 
6.34333 48.4513 0 10.1847 46.9924 0 6.15987 47.6583 0 
9.95408 45.6185 0 5.92828 46.3155 0 10.0017 46.1607 0 
6.11149 47.1093 0 9.64189 44.1971 0 5.69624 44.9739 0 
9.76616 44.8112 0 5.87964 45.7673 0 9.60058 43.6333 0 
5.6478 44.4253 0 9.37469 42.264 0 5.42854 43.0411 0 
9.42209 42.8057 0 5.4683 43.6045 0 9.14249 40.9213 0 
5.11729 41.6197 0 9.19025 41.4637 0 5.30373 42.4197 0 
8.80791 39.4305 0 4.88482 40.277 0 8.9547 40.1142 0 
5.06819 41.0702 0 8.68544 38.7922 0 4.83634 39.7282 0 
8.58617 38.1824 0 4.65284 38.9352 0 8.56237 37.5985 0 
4.6045 38.3862 0 8.25092 36.1451 0 4.3853 37.0017 0 
8.37509 36.7591 0 4.42516 37.5648 0 8.20929 35.5808 0 
4.26043 36.3807 0 7.88362 34.0797 0 4.03767 34.9892 0 
8.02732 34.7461 0 4.07787 35.5531 0 7.77665 33.4759 0 
3.91266 34.3677 0 7.75007 32.9008 0 3.72613 33.5679 0 
7.43945 31.448 0 3.49389 32.2243 0 7.56364 32.0621 0 
3.67712 33.0181 0 7.39784 30.8837 0 3.44527 31.6761 0 
7.07217 29.3827 0 3.22602 30.2919 0 7.21587 30.0491 0 
3.26578 30.8553 0 6.9652 28.7788 0 3.10121 29.6706 0 
6.93861 28.2037 0 2.91467 28.8709 0 6.60483 26.6764 0 
2.68246 27.5273 0 6.75218 27.365 0 2.86566 28.3211 0 
6.47903 26.0191 0 2.63382 26.9791 0 6.36117 25.3616 0 
2.45035 26.1861 0 6.24805 24.7135 0 2.40197 25.6371 0 
6.15132 24.0968 0 2.21864 24.8435 0 6.12818 23.5075 0 
2.17013 24.295 0 5.8166 22.054 0 1.95094 22.9105 0 
5.94072 22.668 0 1.9908 23.4736 0 5.77518 21.4901 0 
1.82606 22.2895 0 5.54925 20.1207 0 1.6033 20.898 0 
5.59666 20.6625 0 1.64351 21.462 0 5.3173 18.7786 0 
1.29186 19.4764 0 5.36482 19.3204 0 1.4783 20.2765 0 
5.08521 17.436 0 1.05939 18.1337 0 5.13297 17.9784 0 
1.24275 18.927 0 4.7731 16.0147 0 0.827501 16.7916 0 
4.89742 16.6289 0 1.01091 17.585 0 4.7316 15.4505 0 
0.779063 16.2429 0 4.42544 14.0018 0 0.559781 14.8587 0 
4.54966 14.6159 0 0.599555 15.4221 0 4.38385 13.4375 0 
0.434998 14.2374 0 4.05819 11.9365 0 0.212236 12.8459 0 
4.20189 12.6029 0 0.252437 13.4099 0 3.95122 11.3326 0 
0.0872315 12.2244 0 3.92464 10.7575 0 -0.0993077 11.4247 0 
3.61407 9.30488 0 -0.331545 10.081 0 3.7382 9.91883 0 
-0.148315 10.8749 0 3.57265 8.741 0 -0.380159 9.53287 0 
3.34648 7.37108 0 -0.599417 8.14868 0 3.39414 7.91332 0 
-0.559652 8.71209 0 3.03427 5.94961 0 -0.910701 6.72722 0 
3.15859 6.56379 0 -0.724224 7.52736 0 2.99276 5.38538 0 
-0.959771 6.17784 0 2.68661 3.93671 0 -1.17905 4.79362 0 
2.81082 4.55077 0 -1.13927 5.35705 0 2.64502 3.37241 0 
-1.30384 4.17232 0 2.33884 1.92368 0 -1.52662 2.7808 0 
2.46306 2.53775 0 -1.48641 3.34474 0 2.29725 1.35939 0 
-1.6516 2.1593 0 1.99108 -0.0893379 0 -1.87439 0.767775 0 
2.11529 0.524728 0 -1.83417 1.33171 0 1.94948 -0.653635 0 
-1.99937 0.14628 0 1.62568 -2.16478 0 -2.22778 -1.25562 0 
1.76752 -1.48829 0 -2.182 -0.681381 0 1.51798 -2.77537 0 
-2.37366 -1.90675 0 0.901771 -4.10266 0 1.45378 -3.34102 0 
1.46753 -4.85484 0 12.4913 58.2775 0 -3.21813 -4.6046 0 
11.5846 57.7543 0 -2.31448 -4.06134 0 11.8618 57.1098 0 
7.9368 58.1272 0 11.8107 56.4127 0 11.6337 55.6686 0 
11.5895 55.066 0 7.52637 56.1154 0 11.6071 54.6319 0 
7.2958 54.7728 0 11.3687 53.2642 0 7.0638 53.4314 0 
11.1355 51.9193 0 6.83195 52.0894 0 6.59999 50.7478 0 
10.6721 49.2535 0 6.36843 49.4048 0 6.1363 48.0638 0 
10.2097 46.5722 0 5.90474 46.7207 0 9.97634 45.2094 0 
5.67271 45.3792 0 9.62881 43.2144 0 5.44126 44.0226 0 
9.39795 41.857 0 5.09479 42.0272 0 9.16481 40.5122 0 
4.86129 40.6823 0 4.62928 39.3406 0 8.58581 37.1759 0 
4.39812 37.9829 0 8.23652 35.1597 0 4.05187 35.9734 0 
3.7036 33.9755 0 7.77408 32.4783 0 3.47036 32.6294 0 
7.42506 30.4627 0 3.23874 31.2734 0 2.89215 29.2785 0 
6.96262 27.7813 0 2.65893 27.9325 0 2.42679 26.5915 0 
2.19508 25.2488 0 6.15151 23.0848 0 1.96376 23.8917 0 
5.80339 21.0712 0 1.6175 21.8822 0 5.57252 19.7138 0 
1.26936 19.8839 0 5.34062 18.3716 0 1.03585 18.539 0 
5.10753 17.0269 0 0.803967 17.1969 0 4.75884 15.0294 0 
0.572518 15.8402 0 4.41108 13.0165 0 0.226432 13.8301 0 
-0.12183 11.8323 0 3.94865 10.3351 0 -0.355076 10.4862 0 
3.60087 8.32209 0 -0.58669 9.13018 0 3.36875 6.96197 0 
-0.933196 7.13465 0 3.02 4.96434 0 -1.1663 5.77515 0 
2.67225 2.95135 0 -1.51241 3.765 0 2.32448 0.938331 0 
-1.86017 1.75198 0 1.97671 -1.07469 0 -2.208 -0.261109 0 
-2.58509 -2.62367 0 1.33752 -4.44654 0 -2.6153 -3.44491 0 
11.8101 59.1461 0 0.538816 -5.91648 0 -2.53248 -5.45819 0 
8.73496 59.5971 0 11.7664 59.6104 0 0.357619 -6.4275 0 
-2.49254 -5.92983 0 8.91616 60.1081 0 0.480658 -6.54783 0 
-2.62606 -5.99371 0 8.79312 60.2284 0 11.8997 59.6748 0 
12.9633 59.0373 0 1.66278 -6.36872 0 -3.68895 -5.35327 0 
7.611 60.0493 0 9.05875 59.8703 0 0.215033 -6.1897 0 
10.7985 59.3764 0 -0.395504 -5.82378 0 -1.5217 -5.68645 0 
9.66928 59.5044 0 12.29 59.3747 0 0.980389 -6.38139 0 
-3.01516 -5.69436 0 8.29339 60.062 0 12.7621 59.3994 0 
1.3569 -6.68951 0 -3.48744 -5.71892 0 7.91688 60.3701 0 
-0.0977594 -6.47775 0 -2.06434 -6.07531 0 9.37154 60.1583 0 
11.338 59.7564 0 12.8591 58.971 0 1.58744 -6.28958 0 
-3.58459 -5.29056 0 7.68634 59.9702 0 1.55506 -6.39862 0 
7.71872 60.0792 0 12.4071 59.6268 0 0.964147 -6.61637 0 
-3.13331 -5.94619 0 8.30963 60.297 0 -0.676868 -6.36561 0 
-1.52677 -6.19454 0 10.8005 59.8751 0 9.95065 60.0462 0 
11.4013 58.1691 0 -2.07945 -4.3322 0 0.332256 -5.06053 0 
8.94152 58.7411 0 12.3292 56.2813 0 12.2256 55.6554 0 
12.1232 54.9445 0 11.9579 54.231 0 11.8305 53.5538 0 
11.7059 52.8761 0 11.5867 52.1973 0 11.4698 51.5271 0 
11.3543 50.857 0 11.2388 50.1863 0 11.123 49.5147 0 
11.0072 48.843 0 10.8915 48.1717 0 10.7754 47.5006 0 
10.6594 46.83 0 10.5431 46.1573 0 10.4266 45.4867 0 
10.3106 44.8187 0 10.1948 44.1485 0 10.0786 43.478 0 
9.96241 42.8092 0 9.84643 42.1409 0 9.73048 41.4702 0 
9.61448 40.7992 0 9.49831 40.1256 0 9.38299 39.4572 0 
9.26828 38.785 0 9.15272 38.1115 0 9.03662 37.4383 0 
8.92056 36.7665 0 8.80446 36.0936 0 8.6882 35.4233 0 
8.57231 34.7546 0 8.4568 34.0828 0 8.34102 33.4114 0 
8.22518 32.7403 0 8.11026 32.0761 0 7.99359 31.4076 0 
7.8777 30.7369 0 7.76063 30.0623 0 7.64461 29.3922 0 
7.52939 28.7188 0 7.41381 28.0465 0 7.29792 27.3749 0 
7.18206 26.7037 0 7.06676 26.0312 0 6.95137 25.3605 0 
6.83561 24.6884 0 6.71903 24.0173 0 6.60222 23.3472 0 
6.48573 22.6777 0 6.36953 22.0065 0 6.25319 21.3352 0 
6.13699 20.6661 0 6.021 19.9977 0 5.90505 19.3269 0 
5.78906 18.6559 0 5.67313 17.9849 0 5.55718 17.314 0 
5.44111 16.6437 0 5.32511 15.9738 0 5.20936 15.303 0 
5.09342 14.6318 0 4.97738 13.9611 0 4.86163 13.29 0 
4.74587 12.6156 0 4.63026 11.9459 0 4.51494 11.2713 0 
4.39957 10.5984 0 4.28483 9.93281 0 4.16815 9.26441 0 
4.05229 8.59363 0 3.93513 7.9184 0 3.81859 7.24222 0 
3.70233 6.57144 0 3.58658 5.90029 0 3.47085 5.23004 0 
3.35516 4.55947 0 3.23931 3.88885 0 3.12325 3.21803 0 
3.00744 2.54664 0 2.89155 1.87589 0 2.77549 1.20502 0 
2.65968 0.533613 0 2.54384 -0.13725 0 2.42814 -0.80896 0 
2.31312 -1.47955 0 2.20049 -2.14878 0 2.09544 -2.80709 0 
2.02456 -3.43266 0 -3.07889 -2.603 0 -2.91518 -1.8922 0 
-2.7881 -1.21694 0 -2.66372 -0.540426 0 -2.54464 0.132907 0 
-2.42822 0.807264 0 -2.312 1.47879 0 -2.19607 2.15034 0 
-2.08014 2.82116 0 -1.96406 3.49203 0 -1.84823 4.16343 0 
-1.73234 4.83422 0 -1.61611 5.50526 0 -1.49998 6.17422 0 
-1.38408 6.84184 0 -1.26793 7.51248 0 -1.15192 8.18251 0 
-1.03619 8.8534 0 -0.92039 9.52529 0 -0.804433 10.197 0 
-0.68848 10.8683 0 -0.572525 11.5393 0 -0.456448 12.2096 0 
-0.340453 12.8796 0 -0.224706 13.5503 0 -0.108764 14.2216 0 
0.00727065 14.8922 0 0.12302 15.5634 0 0.23883 16.2353 0 
0.354787 16.9071 0 0.470748 17.5784 0 0.586684 18.2495 0 
0.702611 18.9205 0 0.818544 19.5914 0 0.93462 20.2617 0 
1.05061 20.9317 0 1.16636 21.6024 0 1.2823 22.2736 0 
1.39834 22.9443 0 1.51409 23.6155 0 1.6299 24.2874 0 
1.74585 24.9592 0 1.86182 25.6305 0 1.97775 26.3016 0 
2.09368 26.9726 0 2.2096 27.6436 0 2.32552 28.3146 0 
2.44146 28.9855 0 2.55753 29.6558 0 2.67352 30.3258 0 
2.78924 30.9967 0 2.90504 31.6685 0 3.021 32.3403 0 
3.13695 33.0115 0 3.25291 33.6825 0 3.36899 34.3529 0 
3.48498 35.0228 0 3.60073 35.6936 0 3.71667 36.3648 0 
3.8327 37.0355 0 3.94845 37.7066 0 4.06426 38.3786 0 
4.18022 39.0503 0 4.29618 39.7216 0 4.41212 40.3927 0 
4.52804 41.0637 0 4.64398 41.7346 0 4.76005 42.405 0 
4.87604 43.0749 0 4.99177 43.7458 0 5.10757 44.4177 0 
5.22352 45.0894 0 5.33948 45.7607 0 5.45542 46.4318 0 
5.57134 47.1028 0 5.68727 47.7738 0 5.80319 48.4448 0 
5.91911 49.1158 0 6.03503 49.7868 0 6.15095 50.4579 0 
6.26688 51.1289 0 6.3828 51.7999 0 6.49872 52.4709 0 
6.61464 53.1419 0 6.73054 53.8129 0 6.84636 54.4839 0 
6.96169 55.1551 0 7.07378 55.8242 0 7.17809 56.4909 0 
7.2491 57.1132 0 12.5961 57.772 0 -3.29547 -4.03356 0 
9.01054 59.4155 0 0.263233 -5.73486 0 1.84127 -4.93909 0 
7.43252 58.6198 0 12.429 56.8879 0 1.98584 -3.96793 0 
-3.1819 -3.40107 0 7.28792 57.6485 0 11.5095 58.7349 0 
-2.21598 -5.01054 0 8.43121 58.1732 0 0.842565 -4.49258 0 
10.9543 57.9747 0 -1.69621 -4.22485 0 0.262291 -4.54964 0 
9.01149 58.2302 0 11.0187 57.2628 0 -1.80564 -3.76487 0 
0.724779 -3.5803 0 0.740083 -4.17619 0 8.549 57.2609 0 
8.53369 57.8568 0 1.62125 -5.39882 0 7.65253 59.0794 0 
12.3467 57.3004 0 -3.07479 -3.66201 0 1.77359 -4.38718 0 
7.50018 58.0678 0 1.60108 -4.85986 0 7.6727 58.5405 0 
-0.24019 -5.05151 0 9.51397 58.7321 0 10.9279 58.5259 0 
-1.61269 -4.77184 0 11.0488 57.4607 0 -1.79497 -3.6695 0 
8.89499 58.888 0 0.378781 -5.2074 0 1.77109 -4.0278 0 
7.50675 57.7234 0 12.4249 56.8057 0 11.9093 54.0089 0 
11.6768 52.6655 0 11.4435 51.3192 0 10.9802 48.6374 0 
10.518 45.9576 0 10.2842 44.6092 0 9.93829 42.6023 0 
9.70608 41.2584 0 9.47278 39.9121 0 8.89362 36.5593 0 
8.54577 34.5459 0 8.08215 31.8622 0 7.73432 29.8489 0 
7.27069 27.1652 0 6.45925 22.4682 0 6.11285 20.459 0 
5.88065 19.1152 0 5.6488 17.7731 0 5.4155 16.4268 0 
5.0681 14.4157 0 4.72034 12.4027 0 4.25672 9.71896 0 
3.91033 7.70991 0 3.67668 6.36173 0 3.32927 4.35058 0 
2.9815 2.33756 0 2.63374 0.324541 0 2.28597 -1.68848 0 
-2.86576 -1.66736 0 -2.51784 0.346428 0 -2.17005 2.35949 0 
-1.82228 4.37251 0 -1.47596 6.38125 0 -1.24231 7.72943 0 
-0.896352 9.73629 0 -0.664148 11.0802 0 -0.430846 12.4265 0 
-0.0834467 14.4376 0 0.262869 16.4464 0 0.495075 17.7903 0 
0.726927 19.1323 0 0.960221 20.4786 0 1.30762 22.4897 0 
1.65394 24.4984 0 1.88614 25.8423 0 2.11799 27.1844 0 
2.34984 28.5264 0 2.58313 29.8727 0 2.92908 31.8795 0 
3.16129 33.2234 0 3.39459 34.5698 0 3.74199 36.5809 0 
4.0883 38.5896 0 4.32051 39.9335 0 4.55236 41.2756 0 
4.78565 42.6219 0 5.1316 44.6287 0 5.36381 45.9726 0 
5.59566 47.3146 0 5.8275 48.6566 0 6.05935 49.9987 0 
6.29119 51.3407 0 6.52304 52.6827 0 6.75488 54.0247 0 
6.98673 55.3667 0 7.21971 56.7059 0 8.87784 57.8348 0 
0.395942 -4.15423 0 1.30444 -6.20473 0 7.96934 59.8853 0 
12.5431 59.1502 0 -3.26928 -5.46965 0 10.783 56.8927 0 
10.7309 56.1874 0 10.6205 55.5027 0 10.52 54.8221 0 
10.4056 54.1436 0 10.2889 53.4703 0 10.1726 52.7985 0 
10.0562 52.1255 0 9.95072 51.454 0 9.82151 50.7877 0 
9.69254 50.1211 0 9.59024 49.4464 0 9.48752 48.7713 0 
9.35805 48.104 0 9.22894 47.4373 0 9.12702 46.7645 0 
9.01379 46.0897 0 8.89717 45.4157 0 8.7918 44.7454 0 
8.65168 44.078 0 8.54697 43.4081 0 8.43391 42.7345 0 
8.31793 42.0627 0 8.20187 41.3913 0 8.0855 40.7184 0 
7.98003 40.0468 0 7.85058 39.3791 0 7.73253 38.7137 0 
7.60639 38.0442 0 7.50397 37.3686 0 7.40127 36.6947 0 
7.26082 36.0261 0 7.15552 35.3541 0 7.05287 34.6799 0 
6.9236 34.0128 0 6.79453 33.3459 0 6.69219 32.6712 0 
6.58971 31.9976 0 6.44934 31.329 0 6.34405 30.657 0 
6.24142 29.9828 0 6.11215 29.3157 0 5.98307 28.6489 0 
5.88074 27.9742 0 5.77801 27.2991 0 5.64829 26.6303 0 
5.52982 25.9632 0 5.4143 25.2934 0 5.29896 24.6242 0 
5.17249 23.9534 0 5.06976 23.2775 0 4.96695 22.6036 0 
4.82649 21.9351 0 4.7216 21.265 0 4.6085 20.5913 0 
4.4925 19.9195 0 4.37647 19.2483 0 4.26052 18.5772 0 
4.14456 17.906 0 4.02822 17.2331 0 3.92301 16.563 0 
3.7829 15.8955 0 3.67778 15.2238 0 3.57544 14.5511 0 
3.43527 13.8828 0 3.33006 13.2108 0 3.22743 12.5366 0 
3.09817 11.8695 0 2.96909 11.2027 0 2.86676 10.528 0 
2.76428 9.85434 0 2.62393 9.18596 0 2.51907 8.51583 0 
2.40594 7.84198 0 2.28952 7.16826 0 2.18421 6.49798 0 
2.04407 5.83043 0 1.93895 5.15866 0 1.83661 4.48599 0 
1.69644 3.81765 0 1.59122 3.14569 0 1.48885 2.47297 0 
1.34867 1.80463 0 1.24346 1.13267 0 1.14109 0.459952 0 
1.00091 -0.208389 0 0.895689 -0.880354 0 0.791454 -1.56515 0 
0.667668 -2.23715 0 -1.60909 -3.11508 0 8.684 56.5828 0 
8.74258 57.2445 0 8.58828 55.9281 0 8.49239 55.259 0 
8.27662 53.9198 0 8.36976 54.5855 0 8.04446 52.5782 0 
8.14004 53.2452 0 7.79949 51.237 0 7.90564 51.9016 0 
7.67187 50.5665 0 7.56729 49.8922 0 7.33608 48.5523 0 
7.4403 49.216 0 7.20823 47.8824 0 7.10364 47.2084 0 
6.88553 45.8675 0 6.97912 46.5337 0 6.63983 44.5283 0 
6.7464 45.1917 0 6.52304 43.8515 0 6.30941 42.5141 0 
6.41517 43.177 0 6.07389 41.1712 0 6.1706 41.8388 0 
5.82881 39.8298 0 5.93499 40.4945 0 5.70094 39.158 0 
5.58311 38.4872 0 5.4781 37.8105 0 5.25256 36.477 0 
5.36914 37.1359 0 5.13323 35.7997 0 4.90519 34.4626 0 
5.02191 35.1233 0 4.77509 33.7919 0 4.66955 33.1172 0 
4.4376 31.7786 0 4.54225 32.4411 0 4.32055 31.102 0 
4.09372 29.7655 0 4.21014 30.4261 0 3.96363 29.0948 0 
3.8581 28.4201 0 3.62657 27.0801 0 3.73086 27.7438 0 
3.49847 26.4087 0 3.38103 25.7365 0 3.26497 25.0651 0 
3.14861 24.3955 0 3.04373 23.7192 0 2.81819 22.3858 0 
2.93478 23.0447 0 2.69889 21.7087 0 2.484 20.3709 0 
2.59006 21.0339 0 2.24849 19.0281 0 2.34518 19.6955 0 
2.01651 17.6858 0 2.11206 18.353 0 1.7711 16.346 0 
1.87761 17.0095 0 1.65428 15.669 0 1.42708 14.3338 0 
1.54385 14.9932 0 1.30779 13.6565 0 1.07976 12.3193 0 
1.19648 12.9801 0 0.949655 11.6486 0 0.844121 10.974 0 
0.612164 9.63536 0 0.716812 10.2978 0 0.495145 8.95895 0 
0.281425 7.62151 0 0.387217 8.28456 0 0.0323712 6.28099 0 
0.140065 6.94488 0 -0.0845236 5.60387 0 -0.311757 4.2687 0 
-0.194979 4.92807 0 -0.431048 3.59135 0 -0.659506 2.25569 0 
-0.542429 2.91519 0 -0.778809 1.57833 0 -1.00727 0.24267 0 
-0.890195 0.902173 0 -1.12658 -0.434695 0 -1.35419 -1.77826 0 
-1.23782 -1.11217 0 -1.49592 -2.46521 0 0.537935 -3.57832 0 
0.590747 -2.88981 0 8.86007 58.3729 0 0.413626 -4.69242 0 
-3.17866 -3.24319 0 12.2054 56.3134 0 12.197 55.662 0 
11.9621 54.9448 0 11.8125 54.3556 0 11.7249 53.5314 0 
11.5782 52.9962 0 11.4924 52.188 0 11.3444 51.6494 0 
11.3406 50.7728 0 11.2161 50.1835 0 11.019 49.557 0 
10.8794 48.9793 0 10.877 48.0902 0 10.7525 47.4999 0 
10.5557 46.874 0 10.4176 46.2999 0 10.3333 45.4785 0 
10.1852 44.9396 0 10.1746 44.1047 0 9.97463 43.5086 0 
9.83747 42.9424 0 9.75407 42.1244 0 9.60747 41.5892 0 
9.52172 40.7808 0 9.37374 40.2423 0 9.37104 39.3518 0 
9.25679 38.7402 0 9.13028 38.1166 0 8.93282 37.4807 0 
8.79292 36.9016 0 8.7836 36.0532 0 8.5832 35.4556 0 
8.44456 34.8857 0 8.44261 33.9988 0 8.3181 33.4085 0 
8.12092 32.7818 0 7.98134 32.2041 0 7.97214 31.3561 0 
7.77174 30.7586 0 7.6331 30.1887 0 7.63116 29.3018 0 
7.50664 28.7115 0 7.30947 28.0848 0 7.16988 27.507 0 
7.16881 26.6005 0 7.05587 25.9802 0 6.93974 25.3197 0 
6.82281 24.6669 0 6.69637 24.0287 0 6.49858 23.39 0 
6.35859 22.8105 0 6.34929 21.9622 0 6.14923 21.3655 0 
6.01205 20.7992 0 5.92864 19.9812 0 5.78204 19.4459 0 
5.69668 18.6386 0 5.55016 18.1037 0 5.46444 17.2956 0 
5.31646 16.7571 0 5.30578 15.9222 0 5.10549 15.3252 0 
4.96688 14.7554 0 4.95813 13.9098 0 4.75776 13.3123 0 
4.61912 12.7425 0 4.61718 11.8556 0 4.49266 11.2653 0 
4.29549 10.6386 0 4.15591 10.0609 0 4.14677 9.21307 0 
3.94671 8.61636 0 3.80952 8.05007 0 3.72573 7.23101 0 
3.57767 6.6921 0 3.56695 5.85712 0 3.36666 5.26011 0 
3.22805 4.69033 0 3.2193 3.84472 0 3.01892 3.24724 0 
2.88029 2.67734 0 2.87154 1.8317 0 2.67116 1.23421 0 
2.53252 0.66432 0 2.52377 -0.181322 0 2.32339 -0.778808 0 
2.18476 -1.3487 0 2.18542 -2.24044 0 2.07341 -2.83424 0 
1.94791 -3.43433 0 -2.99905 -2.67577 0 -2.79128 -2.08588 0 
-2.75691 -1.16476 0 -2.55532 -0.561603 0 -2.41653 0.00795618 0 
-2.40733 0.852925 0 -2.20737 1.4517 0 -2.0687 2.02107 0 
-2.05955 2.86597 0 -1.8596 3.46473 0 -1.72093 4.03409 0 
-1.71191 4.8787 0 -1.51232 5.47665 0 -1.37509 6.0424 0 
-1.29101 6.86195 0 -1.14305 7.40026 0 -1.13263 8.23415 0 
-0.932685 8.83182 0 -0.795475 9.39747 0 -0.711841 10.2157 0 
-0.565335 10.7505 0 -0.479459 11.5596 0 -0.331582 12.0976 0 
-0.3211 12.9314 0 -0.120743 13.53 0 0.0179061 14.0992 0 
0.0269256 14.9438 0 0.226509 15.5418 0 0.36374 16.1075 0 
0.447353 16.926 0 0.593862 17.4607 0 0.679308 18.2685 0 
0.825739 18.8028 0 0.911626 19.6116 0 1.0595 20.1496 0 
1.06997 20.9835 0 1.27032 21.5821 0 1.40897 22.1513 0 
1.418 22.9958 0 1.6176 23.5937 0 1.75483 24.1595 0 
1.83843 24.978 0 1.98494 25.5127 0 2.07036 26.3207 0 
2.21679 26.855 0 2.30225 27.6625 0 2.44867 28.1968 0 
2.53452 29.0058 0 2.6824 29.5438 0 2.6928 30.3774 0 
2.89275 30.9751 0 3.02996 31.5407 0 3.11359 32.359 0 
3.2601 32.8937 0 3.34597 33.7029 0 3.49385 34.2408 0 
3.50433 35.0747 0 3.70469 35.6732 0 3.84334 36.2425 0 
3.85237 37.087 0 4.05197 37.6848 0 4.1892 38.2506 0 
4.27277 39.0693 0 4.41928 39.604 0 4.50474 40.4118 0 
4.65117 40.9461 0 4.73706 41.7549 0 4.88493 42.2928 0 
4.89532 43.1266 0 5.09527 43.7242 0 5.23248 44.2899 0 
5.31609 45.1083 0 5.4626 45.643 0 5.54806 46.4507 0 
5.69449 46.985 0 5.77987 47.793 0 5.9263 48.3272 0 
6.01175 49.1347 0 6.15818 49.669 0 6.24356 50.477 0 
6.38999 51.0113 0 6.47542 51.8189 0 6.62185 52.3532 0 
6.70726 53.1609 0 6.85369 53.6952 0 6.93913 54.5028 0 
7.08556 55.0371 0 7.17108 55.8455 0 7.3174 56.3812 0 
7.32413 57.1702 0 12.7387 58.5416 0 -3.46477 -4.86642 0 
1.55676 -5.80788 0 7.71702 59.4885 0 9.52998 59.6836 0 
-0.256205 -6.00301 0 10.9539 59.3673 0 -1.68009 -5.68674 0 
12.6841 58.3133 0 -3.40298 -4.61264 0 12.7172 58.0748 0 
-3.44351 -4.41264 0 1.7342 -5.41025 0 7.53958 59.0908 0 
11.2476 59.7766 0 -0.174797 -6.39222 0 -1.97378 -6.09599 0 
9.44858 60.0728 0 1.7896 -4.91507 0 7.48418 58.5957 0 
12.8403 58.8926 0 -3.56516 -5.20669 0 1.65058 -5.94244 0 
7.62319 59.623 0 12.6449 58.8662 0 -3.37116 -5.18542 0 
11.3368 59.336 0 -2.06306 -5.65537 0 0.0450802 -6.02341 0 
9.2287 59.704 0 0.17317 -5.52513 0 9.10061 59.2057 0 
11.0513 58.9904 0 -1.76529 -5.26629 0 9.64225 59.0924 0 
-0.368488 -5.41178 0 10.7113 58.4823 0 -1.4404 -4.79012 0 
10.8287 58.0332 0 9.36521 58.5908 0 -0.0915879 -4.91033 0 
10.263 58.0115 0 -0.998952 -4.27241 0 12.5044 57.7442 0 
-3.23522 -4.11358 0 10.444 57.4334 0 11.0396 58.9313 0 
-1.76634 -5.24841 0 -3.36755 -3.83504 0 12.6439 57.4336 0 
12.435 56.2626 0 12.5642 56.8207 0 1.03121 -3.876 0 
8.24257 57.5566 0 12.8443 58.4431 0 -3.56992 -4.75274 0 
-0.287296 -4.44063 0 9.56107 58.1212 0 10.5704 57.1412 0 
-1.30855 -3.4831 0 10.5205 56.5343 0 10.415 55.8786 0 
10.3011 55.2121 0 10.1856 54.5424 0 10.0697 53.8717 0 
9.9538 53.2008 0 9.83788 52.5298 0 9.72196 51.8588 0 
9.60604 51.1878 0 9.49011 50.5168 0 9.37419 49.8458 0 
9.25827 49.1748 0 9.14235 48.5038 0 9.02642 47.8328 0 
8.9105 47.1618 0 8.79458 46.4908 0 8.67866 45.8198 0 
8.56274 45.1487 0 8.44681 44.4777 0 8.33089 43.8067 0 
8.21497 43.1357 0 8.09905 42.4647 0 7.98312 41.7937 0 
7.8672 41.1227 0 7.75128 40.4517 0 7.63536 39.7807 0 
7.51944 39.1097 0 7.40351 38.4387 0 7.28759 37.7677 0 
7.17167 37.0967 0 7.05575 36.4257 0 6.93982 35.7546 0 
6.8239 35.0836 0 6.70798 34.4126 0 6.59206 33.7416 0 
6.47614 33.0706 0 6.36021 32.3996 0 6.24429 31.7286 0 
6.12837 31.0576 0 6.01245 30.3866 0 5.89652 29.7156 0 
5.7806 29.0446 0 5.66468 28.3736 0 5.54876 27.7026 0 
5.43284 27.0315 0 5.31691 26.3605 0 5.20099 25.6895 0 
5.08507 25.0185 0 4.96915 24.3475 0 4.85322 23.6765 0 
4.7373 23.0055 0 4.62138 22.3345 0 4.50546 21.6635 0 
4.38954 20.9925 0 4.27361 20.3215 0 4.15769 19.6505 0 
4.04177 18.9795 0 3.92585 18.3085 0 3.80992 17.6374 0 
3.694 16.9664 0 3.57808 16.2954 0 3.46216 15.6244 0 
3.34624 14.9534 0 3.23031 14.2824 0 3.11439 13.6114 0 
2.99847 12.9404 0 2.88255 12.2694 0 2.76662 11.5984 0 
2.6507 10.9274 0 2.53478 10.2564 0 2.41886 9.58535 0 
2.30294 8.91435 0 2.18701 8.24334 0 2.07109 7.57233 0 
1.95517 6.90133 0 1.83925 6.23032 0 1.72332 5.55931 0 
1.6074 4.8883 0 1.49148 4.2173 0 1.37556 3.54629 0 
1.25964 2.87528 0 1.14371 2.20427 0 1.02779 1.53327 0 
0.911869 0.862259 0 0.795946 0.191251 0 0.680024 -0.479756 0 
0.564102 -1.15076 0 0.447294 -1.8205 0 0.308396 -2.47238 0 
0.178239 -3.14668 0 0.0673628 -3.89526 0 -1.24735 -2.8605 0 
-1.14108 -2.20036 0 -1.02725 -1.53223 0 -0.911766 -0.861994 0 
-0.795929 -0.191187 0 -0.680022 0.479771 0 -0.564102 1.15077 0 
-0.44818 1.82177 0 -0.332257 2.49278 0 -0.216335 3.16379 0 
-0.100413 3.83479 0 0.0155092 4.5058 0 0.131431 5.17681 0 
0.247354 5.84782 0 0.363276 6.51882 0 0.479198 7.18983 0 
0.59512 7.86084 0 0.711043 8.53185 0 0.826965 9.20285 0 
0.942887 9.87386 0 1.05881 10.5449 0 1.17473 11.2159 0 
1.29065 11.8869 0 1.40658 12.5579 0 1.5225 13.2289 0 
1.63842 13.8999 0 1.75434 14.5709 0 1.87026 15.2419 0 
1.98619 15.9129 0 2.10211 16.5839 0 2.21803 17.2549 0 
2.33395 17.9259 0 2.44988 18.597 0 2.5658 19.268 0 
2.68172 19.939 0 2.79764 20.61 0 2.91356 21.281 0 
3.02949 21.952 0 3.14541 22.623 0 3.26133 23.294 0 
3.37725 23.965 0 3.49318 24.636 0 3.6091 25.307 0 
3.72502 25.978 0 3.84094 26.649 0 3.95686 27.3201 0 
4.07279 27.9911 0 4.18871 28.6621 0 4.30463 29.3331 0 
4.42055 30.0041 0 4.53648 30.6751 0 4.6524 31.3461 0 
4.76832 32.0171 0 4.88424 32.6881 0 5.00016 33.3591 0 
5.11609 34.0301 0 5.23201 34.7011 0 5.34793 35.3721 0 
5.46385 36.0431 0 5.57978 36.7142 0 5.6957 37.3852 0 
5.81162 38.0562 0 5.92754 38.7272 0 6.04347 39.3982 0 
6.15939 40.0692 0 6.27531 40.7402 0 6.39123 41.4112 0 
6.50715 42.0822 0 6.62308 42.7532 0 6.739 43.4242 0 
6.85492 44.0952 0 6.97084 44.7662 0 7.08676 45.4373 0 
7.20269 46.1083 0 7.31861 46.7793 0 7.43453 47.4503 0 
7.55045 48.1213 0 7.66638 48.7923 0 7.7823 49.4633 0 
7.89822 50.1343 0 8.01414 50.8053 0 8.13006 51.4763 0 
8.24599 52.1473 0 8.36191 52.8183 0 8.47783 53.4893 0 
8.59375 54.1604 0 8.70968 54.8314 0 8.82648 55.5011 0 
8.96538 56.153 0 9.09554 56.8273 0 9.20642 57.5758 0 
10.7077 57.6085 0 -1.39718 -4.17718 0 8.22532 56.799 0 
1.06382 -3.09581 0 11.3352 56.6256 0 -2.06359 -2.9248 0 
11.2348 55.9474 0 11.1221 55.2707 0 8.05274 56.1657 0 
11.079 54.5714 0 8.01465 55.5024 0 10.8841 53.8936 0 
7.82569 54.8259 0 10.8414 53.2229 0 7.78356 54.1608 0 
10.6513 52.5506 0 7.59295 53.4865 0 10.6087 51.8795 0 
7.55141 52.8196 0 10.4144 51.1996 0 7.36106 52.1446 0 
10.2947 50.5471 0 7.31956 51.4776 0 10.1865 49.8866 0 
7.12845 50.8045 0 10.149 49.1984 0 7.08771 50.1356 0 
9.95138 48.5161 0 6.89837 49.4581 0 9.83115 47.8631 0 
6.85619 48.7928 0 9.72279 47.2026 0 6.66481 48.1204 0 
9.68599 46.5156 0 6.62403 47.4515 0 9.4927 45.8409 0 
6.43468 46.774 0 9.44958 45.1695 0 6.3925 46.1088 0 
9.25519 44.4896 0 6.20188 45.4344 0 9.13971 43.8444 0 
6.16034 44.7675 0 9.10538 43.1601 0 5.96565 44.0944 0 
8.91292 42.4858 0 5.92004 43.4046 0 8.87065 41.8157 0 
5.82876 42.76 0 8.68059 41.1434 0 5.62519 42.0816 0 
8.63803 40.4724 0 5.58123 41.4128 0 8.44372 39.7925 0 
5.39045 40.7375 0 8.32405 39.1399 0 5.34889 40.0705 0 
8.21159 38.472 0 5.15777 39.3974 0 8.10102 37.809 0 
5.11704 38.7285 0 8.0626 37.1203 0 4.92335 38.0528 0 
7.86482 36.438 0 4.87708 37.3647 0 7.74876 35.7924 0 
4.78553 36.7207 0 7.71362 35.1068 0 4.57756 36.0444 0 
7.51685 34.4249 0 4.52948 35.3529 0 7.39676 33.7719 0 
4.43777 34.708 0 7.28842 33.1114 0 4.23337 34.0314 0 
7.25091 32.4232 0 4.19016 33.3608 0 7.05333 31.7409 0 
4.00038 32.6829 0 6.93729 31.0953 0 3.95815 32.0176 0 
6.90217 30.4097 0 3.76317 31.3452 0 6.70539 29.7278 0 
3.71752 30.6555 0 6.5853 29.0749 0 3.62623 30.0109 0 
6.47696 28.4143 0 3.4219 29.3344 0 6.43946 27.7261 0 
3.37871 28.6637 0 6.24187 27.0439 0 3.18893 27.9859 0 
6.12164 26.3909 0 3.14669 27.3206 0 6.00908 25.7229 0 
2.9553 26.6482 0 5.89431 25.0524 0 2.91452 25.9793 0 
5.77866 24.3815 0 2.72441 25.3037 0 5.66699 23.7179 0 
2.68301 24.6365 0 5.62829 23.0292 0 2.48905 23.9615 0 
5.43047 22.3468 0 2.44273 23.2735 0 5.31439 21.7012 0 
2.35117 22.6296 0 5.27996 21.0169 0 2.14319 21.9532 0 
5.08749 20.3426 0 2.09511 21.2617 0 5.04522 19.6725 0 
2.00341 20.6168 0 4.85515 19.0002 0 1.79977 19.9383 0 
4.8133 18.3304 0 1.7558 19.2696 0 4.6233 17.6581 0 
1.56502 18.5943 0 4.58075 16.9871 0 1.52346 17.9272 0 
4.38644 16.3073 0 1.3331 17.2522 0 4.27097 15.6621 0 
1.2916 16.5852 0 4.23594 14.9765 0 1.09692 15.9121 0 
4.03918 14.2946 0 1.0513 15.2223 0 3.92329 13.6491 0 
0.960022 14.5777 0 3.88818 12.9635 0 0.752111 13.9012 0 
3.69141 12.2816 0 0.704041 13.2096 0 3.57132 11.6287 0 
0.612339 12.5647 0 3.46299 10.9681 0 0.407938 11.8882 0 
3.42548 10.2799 0 0.364731 11.2175 0 3.22789 9.59766 0 
0.174951 10.5397 0 3.11186 8.9521 0 0.132715 9.87436 0 
3.07744 8.26775 0 -0.0622606 9.20193 0 2.88497 7.59344 0 
-0.107911 8.51221 0 2.84199 6.92205 0 -0.199199 7.86761 0 
2.64762 6.24215 0 -0.402764 7.18919 0 2.53214 5.59699 0 
-0.446727 6.52045 0 2.49711 4.91143 0 -0.641847 5.84705 0 
2.30035 4.22953 0 -0.687518 5.1572 0 2.18445 3.58403 0 
-0.77881 4.51258 0 2.14935 2.89841 0 -0.986722 3.83605 0 
1.95258 2.21651 0 -1.03479 3.14451 0 1.83669 1.57101 0 
-1.12649 2.49961 0 1.80158 0.885393 0 -1.33448 1.82304 0 
1.60481 0.203483 0 -1.38256 1.13149 0 1.48892 -0.442014 0 
-1.47426 0.486592 0 1.45382 -1.12763 0 -1.68224 -0.189985 0 
1.25586 -1.81726 0 -1.73032 -0.881533 0 1.14069 -2.48062 0 
-1.82203 -1.52643 0 -1.97739 -2.1993 0 8.16468 57.322 0 
1.11777 -3.6396 0 11.9032 58.8051 0 -2.62945 -5.12455 0 
12.0224 58.2911 0 -2.75034 -4.60518 0 -1.18771 -3.60945 0 
10.2178 56.921 0 12.7475 58.0223 0 -3.46462 -4.27996 0 
10.2236 56.4051 0 9.17942 56.3094 0 10.1321 55.7597 0 
9.08652 55.6515 0 10.0377 55.0894 0 8.96617 54.9817 0 
8.86442 54.3104 0 9.91637 54.4128 0 9.81245 53.744 0 
8.73983 53.6427 0 8.63844 52.9961 0 9.6902 53.095 0 
9.4418 52.3884 0 8.63986 52.3131 0 8.40482 51.6065 0 
9.44043 51.7014 0 9.34746 51.0545 0 8.2735 50.9561 0 
9.22278 50.4116 0 8.17144 50.3119 0 8.97538 49.7075 0 
8.17347 49.6308 0 7.94052 48.9222 0 8.97603 49.0188 0 
8.88379 48.371 0 7.80978 48.2719 0 8.75508 47.7042 0 
7.7037 47.6043 0 8.6498 47.0376 0 7.57814 46.9348 0 
7.47868 46.2863 0 8.53012 46.3866 0 8.2826 45.6791 0 
7.48066 45.6034 0 7.24612 44.9002 0 8.28189 44.9952 0 
8.17418 44.3426 0 7.12816 44.2446 0 8.06952 43.6765 0 
7.00101 43.5744 0 6.89818 42.9032 0 7.94559 43.0032 0 
7.84153 42.3361 0 6.77071 42.2359 0 6.66825 41.5892 0 
7.71942 41.6876 0 7.47109 40.9813 0 6.66927 40.906 0 
6.43417 40.1994 0 7.46974 40.2943 0 7.3762 39.644 0 
6.30225 39.5457 0 7.26213 38.9828 0 6.18216 38.8822 0 
7.13616 38.3356 0 6.08335 38.2339 0 6.88897 37.6302 0 
6.08873 37.5522 0 5.8581 36.8476 0 6.89018 36.9446 0 
6.78719 36.3145 0 5.74255 36.2161 0 6.54106 35.6147 0 
5.74228 35.5381 0 5.51011 34.8308 0 6.54156 34.9272 0 
6.44934 34.2797 0 5.3769 34.1811 0 6.32474 33.6365 0 
5.27391 33.5369 0 6.07738 32.9326 0 5.27559 32.856 0 
5.04301 32.1509 0 6.07863 32.2474 0 5.9757 31.6174 0 
4.92965 31.5188 0 5.72959 30.9176 0 4.93038 30.8409 0 
4.69852 30.1337 0 5.7301 30.2301 0 5.63788 29.5826 0 
4.56542 29.484 0 5.51329 28.9395 0 4.46245 28.8398 0 
5.26588 28.2353 0 4.46409 28.1586 0 4.23104 27.45 0 
5.26653 27.5466 0 5.1737 26.8954 0 4.0997 26.7964 0 
5.05908 26.2305 0 3.97918 26.1297 0 4.94311 25.5615 0 
3.86233 25.4593 0 4.82791 24.8945 0 3.74672 24.7917 0 
4.70207 24.2453 0 3.64881 24.1427 0 4.45474 23.5392 0 
3.65436 23.4611 0 3.42373 22.7564 0 4.45587 22.8535 0 
4.3488 22.1999 0 3.30414 22.1015 0 4.24416 21.5334 0 
3.1761 21.4312 0 3.07289 20.76 0 4.12018 20.86 0 
4.01543 20.189 0 2.94463 20.0888 0 2.83806 19.4182 0 
3.88922 19.5167 0 3.78434 18.8505 0 2.71209 18.7505 0 
2.61051 18.1038 0 3.66213 18.2023 0 3.41386 17.4963 0 
2.61195 17.4211 0 2.37738 16.7179 0 3.41311 16.8128 0 
3.30947 16.1838 0 2.26347 16.0858 0 3.06338 15.4846 0 
2.2642 15.4081 0 2.03282 14.7043 0 3.06451 14.8007 0 
2.96163 14.1711 0 1.91713 14.0729 0 2.71558 13.4714 0 
1.91684 13.3949 0 1.68468 12.6876 0 2.71611 12.7839 0 
2.6239 12.1364 0 1.55147 12.0378 0 2.49931 11.4933 0 
1.44848 11.3936 0 2.25195 10.7894 0 1.45016 10.7127 0 
1.21758 10.0076 0 2.25319 10.1041 0 2.14622 9.4507 0 
1.10018 9.35209 0 2.04229 8.78818 0 0.973732 8.68581 0 
0.874995 8.03848 0 1.92242 8.1386 0 1.67496 7.43154 0 
0.874353 7.35619 0 0.638993 6.65292 0 1.67429 6.74778 0 
1.57065 6.11868 0 0.524733 6.02075 0 1.32455 5.4195 0 
0.525384 5.34302 0 0.293988 4.63921 0 1.32568 4.73554 0 
1.2228 4.10599 0 0.178294 4.0078 0 0.976799 3.40657 0 
0.178048 3.33011 0 -0.0536484 2.62623 0 0.977922 2.72254 0 
0.875034 2.09297 0 -0.169447 1.99478 0 0.629034 1.39354 0 
-0.169713 1.31709 0 -0.401414 0.613209 0 0.630156 0.709523 0 
0.527268 0.0799495 0 -0.517214 -0.0182385 0 0.281216 -0.61983 0 
-0.517515 -0.696525 0 -0.749457 -1.40618 0 0.281217 -1.3111 0 
0.194864 -1.96489 0 -0.879662 -2.06757 0 0.117874 -2.60108 0 
-0.936166 -2.83545 0 9.2542 56.909 0 0.044093 -3.1869 0 
0.787221 -4.7873 0 8.48655 58.4679 0 11.1958 56.8174 0 
-1.93143 -3.14703 0 11.1044 56.0987 0 10.9939 55.4278 0 
10.879 54.7592 0 10.7632 54.0892 0 10.6473 53.4185 0 
10.5314 52.7476 0 10.4155 52.0766 0 10.2995 51.4056 0 
10.1836 50.7346 0 10.0677 50.0636 0 9.95178 49.3926 0 
9.83586 48.7216 0 9.71993 48.0506 0 9.60401 47.3796 0 
9.48809 46.7085 0 9.37217 46.0375 0 9.25625 45.3665 0 
9.14032 44.6955 0 9.0244 44.0245 0 8.90848 43.3535 0 
8.79256 42.6825 0 8.67663 42.0115 0 8.56071 41.3405 0 
8.44479 40.6695 0 8.32887 39.9985 0 8.21295 39.3275 0 
8.09702 38.6565 0 7.9811 37.9854 0 7.86518 37.3144 0 
7.74926 36.6434 0 7.63333 35.9724 0 7.51741 35.3014 0 
7.40149 34.6304 0 7.28557 33.9594 0 7.16965 33.2884 0 
7.05372 32.6174 0 6.9378 31.9464 0 6.82188 31.2754 0 
6.70596 30.6044 0 6.59003 29.9334 0 6.47411 29.2624 0 
6.35819 28.5913 0 6.24227 27.9203 0 6.12635 27.2493 0 
6.01042 26.5783 0 5.8945 25.9073 0 5.77858 25.2363 0 
5.66266 24.5653 0 5.54673 23.8943 0 5.43081 23.2233 0 
5.31489 22.5523 0 5.19897 21.8813 0 5.08305 21.2103 0 
4.96712 20.5393 0 4.8512 19.8682 0 4.73528 19.1972 0 
4.61936 18.5262 0 4.50343 17.8552 0 4.38751 17.1842 0 
4.27159 16.5132 0 4.15567 15.8422 0 4.03975 15.1712 0 
3.92382 14.5002 0 3.8079 13.8292 0 3.69198 13.1582 0 
3.57606 12.4872 0 3.46013 11.8162 0 3.34421 11.1452 0 
3.22829 10.4741 0 3.11237 9.80314 0 2.99645 9.13213 0 
2.88052 8.46112 0 2.7646 7.79012 0 2.64868 7.11911 0 
2.53276 6.4481 0 2.41683 5.77709 0 2.30091 5.10609 0 
2.18499 4.43508 0 2.06907 3.76407 0 1.95315 3.09306 0 
1.83722 2.42206 0 1.7213 1.75105 0 1.60538 1.08004 0 
1.48946 0.409034 0 1.37353 -0.261974 0 1.25761 -0.932981 0 
1.14158 -1.60381 0 1.01569 -2.26935 0 0.873919 -2.95359 0 
-1.83213 -2.4256 0 -1.72032 -1.75014 0 -1.60521 -1.07952 0 
-1.48943 -0.40886 0 -1.37353 0.262022 0 -1.25761 0.932993 0 
-1.14169 1.60399 0 -1.02577 2.275 0 -0.909845 2.946 0 
-0.793923 3.61701 0 -0.678001 4.28802 0 -0.562079 4.95903 0 
-0.446156 5.63003 0 -0.330234 6.30104 0 -0.214312 6.97205 0 
-0.0983898 7.64305 0 0.0175324 8.31406 0 0.133455 8.98507 0 
0.249377 9.65608 0 0.365299 10.3271 0 0.481221 10.9981 0 
0.597144 11.6691 0 0.713066 12.3401 0 0.828988 13.0111 0 
0.94491 13.6821 0 1.06083 14.3531 0 1.17675 15.0241 0 
1.29268 15.6951 0 1.4086 16.3662 0 1.52452 17.0372 0 
1.64044 17.7082 0 1.75637 18.3792 0 1.87229 19.0502 0 
1.98821 19.7212 0 2.10413 20.3922 0 2.22005 21.0632 0 
2.33598 21.7342 0 2.4519 22.4052 0 2.56782 23.0762 0 
2.68374 23.7472 0 2.79967 24.4182 0 2.91559 25.0892 0 
3.03151 25.7603 0 3.14743 26.4313 0 3.26335 27.1023 0 
3.37928 27.7733 0 3.4952 28.4443 0 3.61112 29.1153 0 
3.72704 29.7863 0 3.84297 30.4573 0 3.95889 31.1283 0 
4.07481 31.7993 0 4.19073 32.4703 0 4.30665 33.1413 0 
4.42258 33.8123 0 4.5385 34.4834 0 4.65442 35.1544 0 
4.77034 35.8254 0 4.88627 36.4964 0 5.00219 37.1674 0 
5.11811 37.8384 0 5.23403 38.5094 0 5.34995 39.1804 0 
5.46588 39.8514 0 5.5818 40.5224 0 5.69772 41.1934 0 
5.81364 41.8644 0 5.92957 42.5354 0 6.04549 43.2064 0 
6.16141 43.8775 0 6.27733 44.5485 0 6.39325 45.2195 0 
6.50918 45.8905 0 6.6251 46.5615 0 6.74102 47.2325 0 
6.85694 47.9035 0 6.97287 48.5745 0 7.08879 49.2455 0 
7.20471 49.9165 0 7.32063 50.5875 0 7.43655 51.2585 0 
7.55248 51.9295 0 7.6684 52.6006 0 7.78432 53.2716 0 
7.90024 53.9426 0 8.01617 54.6136 0 8.1322 55.2844 0 
8.25809 55.9499 0 8.39986 56.6342 0 11.3944 57.5068 0 
-2.28764 -3.76115 0 9.35676 57.4665 0 -0.0839441 -3.78779 0 
1.9342 -4.37831 0 7.33967 58.059 0 -3.39826 -3.72738 0 
12.6993 57.6009 0 -3.27697 -3.02075 0 7.57836 58.2285 0 
1.69572 -4.5478 0 12.4325 56.0266 0 2.15001 -3.52132 0 
7.12672 57.2192 0 12.3194 55.3615 0 12.2195 54.7467 0 
12.114 54.1234 0 11.9976 53.4475 0 11.8822 52.7795 0 
11.7682 52.1211 0 11.6526 51.4522 0 11.539 50.7932 0 
11.4244 50.1295 0 11.3081 49.4578 0 11.1897 48.7708 0 
11.0756 48.1113 0 10.9607 47.4454 0 10.8444 46.7739 0 
10.7254 46.0835 0 10.6093 45.4127 0 10.4929 44.7372 0 
10.3784 44.0752 0 10.2639 43.4135 0 10.1455 42.7264 0 
10.0296 42.0574 0 9.91356 41.3854 0 9.79758 40.7141 0 
9.68196 40.045 0 9.56837 39.3865 0 9.45395 38.7238 0 
9.33851 38.0556 0 9.22173 37.3811 0 9.10309 36.6928 0 
8.98796 36.0266 0 8.87288 35.3617 0 8.75542 34.6804 0 
8.64115 34.0192 0 8.52632 33.3544 0 8.41005 32.6827 0 
8.29156 31.9953 0 8.17649 31.3295 0 8.06143 30.6647 0 
7.94396 29.9834 0 7.8297 29.3221 0 7.71495 28.6578 0 
7.59859 27.9856 0 7.48016 27.2986 0 7.36621 26.6396 0 
7.25194 25.9776 0 7.13633 25.3083 0 7.02045 24.6375 0 
6.9044 23.9659 0 6.78744 23.2903 0 6.66906 22.6037 0 
6.55363 21.9357 0 6.43853 21.2707 0 6.32005 20.5833 0 
6.20422 19.9142 0 6.08812 19.2422 0 5.97216 18.5709 0 
5.85623 17.8999 0 5.74029 17.2288 0 5.62469 16.5598 0 
5.51094 15.9007 0 5.39515 15.2311 0 5.27768 14.5498 0 
5.16248 13.8831 0 5.04743 13.2184 0 4.92998 12.5372 0 
4.81572 11.8759 0 4.70095 11.2115 0 4.58461 10.5394 0 
4.46613 9.85209 0 4.35106 9.18622 0 4.236 8.52151 0 
4.11753 7.83421 0 4.00168 7.16496 0 3.8859 6.495 0 
3.77212 5.83562 0 3.65632 5.16604 0 3.53885 4.48466 0 
3.42362 3.81786 0 3.3086 3.1533 0 3.19109 2.47171 0 
3.07586 1.80487 0 2.96084 1.14028 0 2.84333 0.458684 0 
2.72809 -0.208173 0 2.61307 -0.872739 0 2.49531 -1.55586 0 
2.38124 -2.21594 0 2.26922 -2.86271 0 -3.07279 -1.78884 0 
-2.95916 -1.12952 0 -2.84492 -0.469364 0 -2.72742 0.212205 0 
-2.6122 0.879007 0 -2.49715 1.54373 0 -2.37964 2.22534 0 
-2.2644 2.89218 0 -2.14938 3.55677 0 -2.03187 4.23837 0 
-1.91664 4.90519 0 -1.80163 5.56971 0 -1.68315 6.25704 0 
-1.56731 6.9262 0 -1.45154 7.59615 0 -1.33776 8.25552 0 
-1.22197 8.92504 0 -1.10353 9.61214 0 -0.987715 10.2812 0 
-0.871622 10.9532 0 -0.755647 11.6245 0 -0.640033 12.2935 0 
-0.526289 12.9526 0 -0.410494 13.6222 0 -0.293025 14.3035 0 
-0.177825 14.9702 0 -0.0627928 15.6348 0 0.0556797 16.3221 0 
0.171505 16.9912 0 0.287599 17.6632 0 0.403562 18.3345 0 
0.519493 19.0055 0 0.63543 19.6766 0 0.751036 20.3456 0 
0.864778 21.0047 0 0.980572 21.6743 0 1.09804 22.3556 0 
1.21233 23.0168 0 1.32827 23.6869 0 1.44601 24.3686 0 
1.56257 25.0433 0 1.67867 25.7153 0 1.79463 26.3866 0 
1.91056 27.0576 0 2.02648 27.7286 0 2.14241 28.3997 0 
2.25834 29.0707 0 2.37395 29.7397 0 2.48769 30.3988 0 
2.60347 31.0683 0 2.72116 31.7497 0 2.83772 32.4244 0 
2.95381 33.0964 0 3.06979 33.7677 0 3.1854 34.4367 0 
3.29914 35.0959 0 3.41494 35.7654 0 3.53241 36.4468 0 
3.6467 37.1079 0 3.76264 37.7781 0 3.88038 38.4597 0 
3.99694 39.1345 0 4.11303 39.8065 0 4.229 40.4777 0 
4.34493 41.1488 0 4.46086 41.8199 0 4.57647 42.4888 0 
4.69021 43.148 0 4.80599 43.8174 0 4.92369 44.4989 0 
5.04024 45.1736 0 5.15633 45.8456 0 5.2723 46.5168 0 
5.38823 47.1878 0 5.50415 47.8589 0 5.62007 48.5299 0 
5.736 49.2009 0 5.85192 49.8719 0 5.96784 50.5429 0 
6.08376 51.2139 0 6.19968 51.8849 0 6.31561 52.5559 0 
6.43153 53.2269 0 6.54745 53.8979 0 6.66337 54.5689 0 
6.77942 55.2408 0 6.89518 55.9111 0 7.00992 56.5757 0 
-3.17953 -2.41708 0 10.6168 58.8631 0 -1.33428 -5.16033 0 
11.3413 57.1654 0 -2.11338 -3.42989 0 12.1664 57.765 0 
-2.89718 -4.06878 0 2.04227 -4.17753 0 7.23175 57.8595 0 
7.85697 57.5809 0 1.4225 -3.89974 0 9.4858 58.0592 0 
-0.212547 -4.379 0 12.1802 57.0897 0 12.3801 57.4248 0 
-3.06761 -3.85221 0 7.57091 57.2657 0 1.69612 -3.55586 0 
-2.8947 -3.45451 0 1.95393 -4.40618 0 7.31989 58.087 0 
-2.84211 -2.92756 0 -2.73602 -2.26033 0 11.8917 55.2803 0 
11.7794 54.6033 0 11.658 53.9265 0 11.5403 53.2539 0 
11.424 52.5826 0 11.3079 51.9115 0 11.192 51.2405 0 
11.076 50.5694 0 10.9601 49.8984 0 10.8442 49.2274 0 
10.7283 48.5564 0 10.6123 47.8854 0 10.4964 47.2144 0 
10.3805 46.5434 0 10.2646 45.8724 0 10.1487 45.2014 0 
10.0328 44.5304 0 9.9168 43.8594 0 9.80089 43.1884 0 
9.68499 42.5174 0 9.56908 41.8464 0 9.45317 41.1754 0 
9.33724 40.5043 0 9.22132 39.8333 0 9.10535 39.1623 0 
8.98938 38.4913 0 8.87344 37.8203 0 8.75756 37.1493 0 
8.64169 36.4783 0 8.52573 35.8073 0 8.40982 35.1363 0 
8.29393 34.4653 0 8.17796 33.7943 0 8.062 33.1233 0 
7.94611 32.4523 0 7.83023 31.7812 0 7.71427 31.1102 0 
7.59836 30.4392 0 7.48247 29.7682 0 7.36651 29.0972 0 
7.25054 28.4262 0 7.13466 27.7552 0 7.01878 27.0842 0 
6.90282 26.4132 0 6.78685 25.7422 0 6.67092 25.0712 0 
6.55499 24.4001 0 6.43906 23.7291 0 6.3232 23.0581 0 
6.20732 22.3871 0 6.09136 21.7161 0 5.97545 21.0451 0 
5.85956 20.3741 0 5.74365 19.7031 0 5.62773 19.0321 0 
5.51181 18.3611 0 5.39589 17.6901 0 5.27997 17.0191 0 
5.16404 16.3481 0 5.04807 15.6771 0 4.93215 15.0061 0 
4.81626 14.3351 0 4.7003 13.664 0 4.58439 12.993 0 
4.46849 12.322 0 4.35253 11.651 0 4.23657 10.98 0 
4.12068 10.309 0 4.0048 9.638 0 3.88884 8.96699 0 
3.77293 8.29599 0 3.65704 7.62499 0 3.54113 6.95398 0 
3.42521 6.28296 0 3.30923 5.61195 0 3.19332 4.94095 0 
3.07743 4.26994 0 2.96146 3.59893 0 2.84555 2.92793 0 
2.72966 2.25692 0 2.6137 1.58591 0 2.49779 0.914906 0 
2.38189 0.243895 0 2.26593 -0.427114 0 2.15002 -1.09812 0 
2.03413 -1.76913 0 1.91939 -2.44394 0 1.81162 -3.12751 0 
-2.61586 -1.58709 0 -2.49821 -0.915446 0 -2.38194 -0.244073 0 
-2.26598 0.427067 0 -2.15001 1.09811 0 -2.0341 1.76912 0 
-1.9182 2.44013 0 -1.80224 3.11114 0 -1.68633 3.78215 0 
-1.57044 4.45316 0 -1.45447 5.12417 0 -1.33856 5.79517 0 
-1.22267 6.46617 0 -1.10676 7.13718 0 -0.990843 7.80819 0 
-0.874867 8.4792 0 -0.758954 9.1502 0 -0.643059 9.82121 0 
-0.52715 10.4922 0 -0.411232 11.1632 0 -0.29531 11.8342 0 
-0.179389 12.5052 0 -0.0634116 13.1763 0 0.0525012 13.8473 0 
0.168396 14.5183 0 0.28436 15.1893 0 0.400269 15.8603 0 
0.516163 16.5313 0 0.632073 17.2023 0 0.747991 17.8733 0 
0.863912 18.5443 0 0.979834 19.2153 0 1.09576 19.8863 0 
1.21168 20.5573 0 1.32766 21.2283 0 1.44357 21.8993 0 
1.55946 22.5704 0 1.67543 23.2414 0 1.79134 23.9124 0 
1.90723 24.5834 0 2.02314 25.2544 0 2.13906 25.9254 0 
2.25498 26.5964 0 2.3709 27.2674 0 2.48682 27.9384 0 
2.60275 28.6094 0 2.71867 29.2804 0 2.83459 29.9514 0 
2.95057 30.6224 0 3.06648 31.2934 0 3.18237 31.9645 0 
3.29828 32.6355 0 3.4142 33.3065 0 3.53012 33.9775 0 
3.64604 34.6485 0 3.76202 35.3195 0 3.87793 35.9905 0 
3.99383 36.6615 0 4.10979 37.3325 0 4.2257 38.0035 0 
4.3416 38.6745 0 4.45751 39.3455 0 4.57342 40.0165 0 
4.68935 40.6875 0 4.80527 41.3586 0 4.92119 42.0296 0 
5.03711 42.7006 0 5.15309 43.3716 0 5.269 44.0426 0 
5.3849 44.7136 0 5.50081 45.3846 0 5.61672 46.0556 0 
5.73265 46.7266 0 5.84857 47.3976 0 5.96449 48.0686 0 
6.08041 48.7396 0 6.19633 49.4106 0 6.31226 50.0816 0 
6.42818 50.7527 0 6.5441 51.4237 0 6.66002 52.0947 0 
6.77595 52.7657 0 6.89187 53.4367 0 7.00779 54.1077 0 
7.12371 54.7787 0 7.23963 55.4497 0 7.35433 56.1245 0 
7.46206 56.8081 0 12.0058 55.9434 0 1.74844 -3.79863 0 
7.52528 57.4792 0 12.1107 56.5552 0 11.4213 58.4968 0 
-2.15089 -4.80188 0 12.1608 56.7831 0 11.9828 55.8875 0 
7.4721 56.8539 0 11.8975 55.4415 0 7.21867 55.4184 0 
11.6768 53.9559 0 6.98682 54.0763 0 11.4448 52.6138 0 
6.75498 52.7343 0 11.1757 51.1037 0 11.0486 50.5298 0 
6.52313 51.3923 0 10.9434 50.0356 0 6.29129 50.0503 0 
10.7118 48.4228 0 10.585 47.8469 0 6.05945 48.7083 0 
10.4799 47.3523 0 5.8276 47.3663 0 10.2857 45.9038 0 
5.59576 46.0243 0 10.0198 44.4342 0 9.90485 43.9717 0 
5.36384 44.6822 0 9.70605 42.5487 0 5.16487 43.2621 0 
5.04925 42.7949 0 9.47413 41.2067 0 4.7843 41.3272 0 
9.20528 39.695 0 9.07588 39.0764 0 4.55246 39.9852 0 
8.95862 38.4779 0 8.8561 37.9674 0 4.32054 38.6432 0 
8.62859 36.3851 0 4.12177 37.2222 0 8.51365 35.9201 0 
4.00621 36.7534 0 8.27736 34.3311 0 3.77409 35.2105 0 
8.15054 33.7554 0 3.65827 34.743 0 8.04531 33.2607 0 
3.39323 33.2751 0 7.81711 31.6879 0 7.70219 31.223 0 
3.16132 31.9331 0 7.4659 29.6341 0 2.96235 30.513 0 
7.33908 29.0583 0 2.84673 30.0458 0 7.23385 28.5636 0 
2.58178 28.5781 0 7.00257 26.9489 0 6.87324 26.318 0 
2.34993 27.236 0 6.75343 25.6707 0 6.6363 25.0166 0 
2.11809 25.894 0 6.52274 24.3967 0 6.42155 23.8804 0 
1.88618 24.552 0 6.19428 22.294 0 1.6874 23.1311 0 
6.07946 21.8293 0 1.57185 22.6623 0 5.88061 20.4055 0 
1.33973 21.1194 0 1.22391 20.6518 0 5.6487 19.0635 0 
0.958867 19.184 0 5.41686 17.7215 0 0.727023 17.8419 0 
5.15105 16.2518 0 5.03595 15.789 0 0.495109 16.4999 0 
4.80302 14.2412 0 0.29628 15.0792 0 4.68818 13.7767 0 
0.180763 14.6103 0 4.45192 12.1879 0 -0.0513416 13.0673 0 
4.3251 11.6122 0 -0.167164 12.5997 0 4.21987 11.1174 0 
-0.432199 11.1319 0 3.99172 9.5448 0 3.87692 9.08013 0 
-0.664113 9.78984 0 3.67809 7.65635 0 -0.863087 8.36973 0 
-0.97871 7.90248 0 3.41223 6.18671 0 3.29712 5.72389 0 
-1.24372 6.4348 0 3.06419 4.17612 0 -1.44255 5.01411 0 
2.94935 3.71154 0 -1.55807 4.54513 0 2.71642 2.1631 0 
-1.79002 3.00157 0 2.60158 1.69852 0 -1.90575 2.53225 0 
2.36866 0.150082 0 -2.13779 0.98854 0 2.25381 -0.314498 0 
-2.25354 0.519204 0 2.01893 -1.90293 0 -2.48894 -1.03196 0 
1.89546 -2.49695 0 -2.61063 -1.51581 0 1.78706 -3.05945 0 
12.5743 57.3287 0 11.5389 59.18 0 -2.26574 -5.49686 0 
-3.06868 -2.03113 0 5.95478 50.1491 0 6.18663 51.4911 0 
6.41847 52.8331 0 6.65031 54.1751 0 6.88214 55.5181 0 
2.24527 28.6768 0 5.72294 48.807 0 5.49109 47.465 0 
5.75142 17.6039 0 0.62236 19.2827 0 2.01343 27.3348 0 
4.44779 41.426 0 2.4773 30.0161 0 5.52021 16.266 0 
0.854393 20.622 0 4.67983 42.7653 0 9.57771 39.7493 0 
-0.535556 12.5873 0 3.28876 34.7132 0 11.5486 51.1563 0 
3.05672 33.3738 0 5.25924 46.123 0 9.80875 41.0893 0 
-0.766812 11.2492 0 0.390509 17.9407 0 1.78158 25.9927 0 
4.21594 40.0839 0 5.98332 18.9461 0 -1.34706 7.89009 0 
3.78141 6.2005 0 10.39 44.4467 0 11.7808 52.4866 0 
2.82475 32.031 0 5.02727 44.7801 0 -0.999588 9.90626 0 
10.0415 42.4315 0 0.159617 16.6163 0 1.5496 24.6499 0 
3.98397 38.741 0 -1.57916 6.55185 0 4.01375 7.5396 0 
6.21608 20.2884 0 5.17371 14.2546 0 1.20202 22.6342 0 
-0.189056 14.5987 0 3.63639 36.7253 0 3.43484 4.18871 0 
4.82619 12.2395 0 3.08709 2.17573 0 2.73932 0.162703 0 
2.39289 -1.85356 0 -1.92787 4.53433 0 7.84036 29.6859 0 
8.65178 34.3827 0 -2.27567 2.52128 0 10.6214 45.7819 0 
11.0863 48.4705 0 8.1885 31.7013 0 7.37677 26.9988 0 
4.36307 9.55802 0 8.99943 36.3902 0 6.56513 22.3071 0 
-2.62373 0.507777 0 12.0118 53.814 0 6.0707 50.8201 0 
6.30255 52.1621 0 6.53439 53.5041 0 6.76624 54.8461 0 
6.99227 56.1782 0 2.3612 29.3479 0 5.83886 49.478 0 
5.63543 16.9339 0 0.738287 19.9538 0 2.12935 28.0058 0 
4.56372 42.097 0 5.60701 48.136 0 9.69252 40.4154 0 
-0.650788 11.9194 0 3.17265 34.0449 0 5.37517 46.794 0 
0.506436 18.6117 0 1.8975 26.6638 0 4.33187 40.7549 0 
5.86736 18.275 0 11.6638 51.8215 0 2.59283 30.6844 0 
5.4047 15.5949 0 0.969921 21.2903 0 4.79535 43.4335 0 
9.46368 39.0805 0 -0.420042 13.2584 0 3.40429 35.3814 0 
11.434 50.4869 0 -1.2314 8.56142 0 3.66605 5.53238 0 
10.2736 43.7732 0 2.94077 32.7027 0 5.1433 45.4518 0 
-0.882906 10.5778 0 9.92484 41.7605 0 0.276314 17.2879 0 
1.66563 25.3216 0 4.1 39.4127 0 -1.46245 7.22198 0 
3.89693 6.8692 0 6.09941 19.6173 0 10.505 45.1171 0 
5.05731 13.5815 0 -0.072549 15.2719 0 1.31766 23.3031 0 
3.75202 37.3943 0 3.31839 3.51392 0 4.71076 11.5683 0 
2.97063 1.50093 0 2.62295 -0.512729 0 2.27919 -2.51025 0 
-1.81129 5.20925 0 7.7249 29.0149 0 -2.15919 3.19612 0 
8.5363 33.7103 0 10.9706 47.8013 0 8.07196 31.0281 0 
7.26167 26.3315 0 4.24642 8.88476 0 8.8829 35.7202 0 
6.44834 21.6315 0 -2.50709 1.18279 0 11.8983 53.1549 0 
5.28914 14.9256 0 1.08555 21.9634 0 2.70846 31.3574 0 
4.91098 44.1066 0 -0.304484 13.9278 0 3.51992 36.0546 0 
3.55032 4.86042 0 -1.1153 9.23117 0 10.1574 43.1074 0 
4.94145 12.9127 0 0.0438467 15.9411 0 1.43331 23.9763 0 
3.86767 38.0675 0 3.20262 2.84754 0 2.85485 0.834537 0 
2.5074 -1.18124 0 -1.69499 5.87603 0 -2.04341 3.86252 0 
7.95591 30.3593 0 4.12985 8.21556 0 8.76737 35.0564 0 
6.33199 20.9644 0 -2.39127 1.84941 0 9.34858 38.4106 0 
11.3179 49.8146 0 4.59451 10.8972 0 7.60862 28.3439 0 
8.41999 33.0394 0 10.8542 47.1292 0 7.14692 25.662 0 
11.2019 49.1428 0 4.47847 10.225 0 8.30397 32.3681 0 
7.49243 27.6707 0 10.7377 46.4542 0 9.23186 37.7387 0 
7.03142 24.9907 0 9.11549 37.0657 0 6.68138 22.9812 0 
6.91511 24.3195 0 6.79781 23.6484 0 -2.73981 -0.164526 0 
-2.85625 -0.827932 0 7.08545 56.7199 0 12.1101 54.3676 0 
2.18888 -3.03116 0 -2.9704 -1.47642 0 1.78924 -5.46153 0 
7.48454 59.1422 0 -2.92099 -3.12466 0 10.4017 57.9308 0 
0 0 0 0 0 0 0 0 0 
0 0 0 0 0 0 0 0 0 
0 0 0 0 0 0 0 0 0 
0 0 0 0 0 0 0 0 0 
0 0 0 0 0 0 0 0 0 
0 0 0 0 0 0 0 0 0 
0 0 0 0 0 0 0 0 0 
0 0 0 0 0 0 0 0 0 
0 0 0 0 0 0 0 0 0 
0 0 0 0 0 0 0 0 0 
0 0 0 0 0 0 0 0 0 
0 0 0 0 0 0 0 0 0 
0 0 0 0 0 0 0 0 0 
0 0 0 0 0 0 0 0 0 
0 0 0 0 0 0 0 0 0 
0 0 0 0 0 0 0 0 0 
0 0 0 0 0 0 0 0 0 
0 0 0 0 0 0 0 0 0 
0 0 0 0 0 0 0 0 0 
0 0 0 0 0 0 0 0 0 
0 0 0 0 0 0 0 0 0 
0 0 0 0 0 0 0 0 0 
0 0 0 0 0 0 0 0 0 
0 0 0 0 0 0 0 0 0 
0 0 0 0 0 0 0 0 0 
0 0 0 0 0 0 0 0 0 
0 0 0 0 0 0 0 0 0 
0 0 0 0 0 0 0 0 0 
0 0 0 0 0 0 0 0 0 
0 0 0 0 0 0 0 0 0 
0 0 0 0 0 0 0 0 0 
0 0 0 0 0 0 0 0 0 
0 0 0 0 0 0 0 0 0 
0 0 0 0 0 0 0 0 0 
0 0 0 0 0 0 0 0 0 
0 0 0 0 0 0 0 0 0 
0 0 0 0 0 0 0 0 0 
0 0 0 0 0 0 0 0 0 
0 0 0 0 0 0 0 0 0 
0 0 0 0 0 0 0 0 0 
0 0 0 0 0 0 0 0 0 
0 0 0 0 0 0 0 0 0 
0 0 0 0 0 0 0 0 0 
0 0 0 0 0 0 0 0 0 
0 0 0 0 0 0 0 0 0 
0 0 0 0 0 0 0 0 0 
0 0 0 0 0 0 0 0 0 
0 0 0 0 0 0 0 0 0 
0 0 0 0 0 0 0 0 0 
0 0 0 0 0 0 0 0 0 
0 0 0 0 0 0 0 0 0 
0 0 0 0 0 0 0 0 0 
0 0 0 0 0 0 0 0 0 
0 0 0 0 0 0 0 0 0 
0 0 0 0 0 0 0 0 0 
0 0 0 0 0 0 0 0 0 
0 0 0 0 0 0 0 0 0 
0 0 0 0 0 0 0 0 0 
0 0 0 0 0 0 0 0 0 
0 0 0 0 0 0 0 0 0 
0 0 0 0 0 0 0 0 0 
0 0 0 0 0 0 0 0 0 
0 0 0 0 0 0 0 0 0 
0 0 0 0 0 0 0 0 0 
0 0 0 0 0 0 0 0 0 
0 0 0 0 0 0 0 0 0 
0 0 0 0 0 0 0 0 0 
0 0 0 0 0 0 0 0 0 
0 0 0 0 0 0 0 0 0 
0 0 0 0 0 0 0 0 0 
0 0 0 0 0 0 0 0 0 
0 0 0 0 0 0 0 0 0 
0 0 0 0 0 0 0 0 0 
0 0 0 0 0 0 0 0 0 
0 0 0 0 0 0 0 0 0 
0 0 0 0 0 0 0 0 0 
0 0 0 0 0 0 0 0 0 
0 0 0 0 0 0 0 0 0 
0 0 0 0 0 0 0 0 0 
0 0 0 0 0 0 0 0 0 
0 0 0 0 0 0 0 0 0 
0 0 0 0 0 0 0 0 0 
0 0 0 0 0 0 0 0 0 
0 0 0 0 0 0 0 0 0 
0 0 0 0 0 0 0 0 0 
0 0 0 0 0 0 0 0 0 
0 0 0 0 0 0 0 0 0 
0 0 0 0 0 0 0 0 0 
0 0 0 0 0 0 0 0 0 
0 0 0 0 0 0 0 0 0 
0 0 0 0 0 0 0 0 0 
0 0 0 0 0 0 0 0 0 
0 0 0 0 0 0 0 0 0 
0 0 0 0 0 0 0 0 0 
0 0 0 0 0 0 0 0 0 
0 0 0 0 0 0 0 0 0 
0 0 0 0 0 0 0 0 0 
0 0 0 0 0 0 0 0 0 
0 0 0 0 0 0 0 0 0 
0 0 0 0 0 0 0 0 0 
0 0 0 0 0 0 0 0 0 
0 0 0 0 0 0 0 0 0 
0 0 0 0 0 0 0 0 0 
0 0 0 0 0 0 0 0 0 
0 0 0 0 0 0 0 0 0 
0 0 0 0 0 0 0 0 0 
0 0 0 0 0 0 0 0 0 
0 0 0 0 0 0 0 0 0 
0 0 0 0 0 0 0 0 0 
0 0 0 0 0 0 0 0 0 
0 0 0 0 0 0 0 0 0 
0 0 0 0 0 0 0 0 0 
0 0 0 0 0 0 0 0 0 
0 0 0 0 0 0 0 0 0 
0 0 0 0 0 0 0 0 0 
0 0 0 0 0 0 0 0 0 
0 0 0 0 0 0 0 0 0 
0 0 0 0 0 0 0 0 0 
0 0 0 0 0 0 0 0 0 
0 0 0 0 0 0 0 0 0 
0 0 0 0 0 0 0 0 0 
0 0 0 0 0 0 0 0 0 
0 0 0 0 0 0 0 0 0 
0 0 0 0 0 0 0 0 0 
0 0 0 0 0 0 0 0 0 
0 0 0 0 0 0 0 0 0 
0 0 0 0 0 0 0 0 0 
0 0 0 0 0 0 0 0 0 
0 0 0 0 0 0 0 0 0 
0 0 0 0 0 0 0 0 0 
0 0 0 0 0 0 0 0 0 
0 0 0 0 0 0 0 0 0 
0 0 0 0 0 0 0 0 0 
0 0 0 0 0 0 0 0 0 
0 0 0 0 0 0 0 0 0 
0 0 0 0 0 0 0 0 0 
0 0 0 0 0 0 0 0 0 
0 0 0 0 0 0 0 0 0 
0 0 0 0 0 0 0 0 0 
0 0 0 0 0 0 0 0 0 
0 0 0 0 0 0 0 0 0 
0 0 0 0 0 0 0 0 0 
0 0 0 0 0 0 0 0 0 
0 0 0 0 0 0 0 0 0 
0 0 0 0 0 0 0 0 0 
0 0 0 0 0 0 0 0 0 
0 0 0 0 0 0 0 0 0 
0 0 0 0 0 0 0 0 0 
0 0 0 0 0 0 0 0 0 
0 0 0 0 0 0 0 0 0 
0 0 0 0 0 0 0 0 0 
0 0 0 0 0 0 0 0 0 
0 0 0 0 0 0 0 0 0 
0 0 0 0 0 0 0 0 0 
0 0 0 0 0 0 0 0 0 
0 0 0 0 0 0 0 0 0 
0 0 0 0 0 0 0 0 0 
0 0 0 0 0 0 0 0 0 
0 0 0 0 0 0 0 0 0 
0 0 0 0 0 0 0 0 0 
0 0 0 0 0 0 0 0 0 
0 0 0 0 0 0 0 0 0 
0 0 0 0 0 0 0 0 0 
0 0 0 0 0 0 0 0 0 
0 0 0 0 0 0 0 0 0 
0 0 0 0 0 0 0 0 0 
0 0 0 0 0 0 0 0 0 
0 0 0 0 0 0 0 0 0 
0 0 0 0 0 0 0 0 0 
0 0 0 0 0 0 0 0 0 
0 0 0 0 0 0 0 0 0 
0 0 0 0 0 0 0 0 0 
0 0 0 0 0 0 0 0 0 
0 0 0 0 0 0 0 0 0 
0 0 0 0 0 0 0 0 0 
0 0 0 0 0 0 0 0 0 
0 0 0 0 0 0 0 0 0 
0 0 0 0 0 0 0 0 0 
0 0 0 0 0 0 0 0 0 
0 0 0 0 0 0 0 0 0 
0 0 0 0 0 0 0 0 0 
0 0 0 0 0 0 0 0 0 
0 0 0 0 0 0 0 0 0 
0 0 0 0 0 0 0 0 0 
0 0 0 0 0 0 0 0 0 
0 0 0 0 0 0 0 0 0 
0 0 0 0 0 0 0 0 0 
0 0 0 0 0 0 0 0 0 
0 0 0 0 0 0 0 0 0 
0 0 0 0 0 0 0 0 0 
0 0 0 0 0 0 0 0 0 
0 0 0 0 0 0 0 0 0 
0 0 0 0 0 0 0 0 0 
0 0 0 0 0 0 0 0 0 
0 0 0 0 0 0 0 0 0 
0 0 0 0 0 0 0 0 0 
0 0 0 0 0 0 0 0 0 
0 0 0 0 0 0 0 0 0 
0 0 0 0 0 0 0 0 0 
0 0 0 0 0 0 0 0 0 
0 0 0 0 0 0 0 0 0 
0 0 0 0 0 0 0 0 0 
0 0 0 0 0 0 0 0 0 
0 0 0 0 0 0 0 0 0 
0 0 0 0 0 0 0 0 0 
0 0 0 0 0 0 0 0 0 
0 0 0 0 0 0 0 0 0 
0 0 0 0 0 0 0 0 0 
0 0 0 0 0 0 0 0 0 
0 0 0 0 0 0 0 0 0 
0 0 0 0 0 0 0 0 0 
0 0 0 0 0 0 0 0 0 
0 0 0 0 0 0 0 0 0 
0 0 0 0 0 0 0 0 0 
0 0 0 0 0 0 0 0 0 
0 0 0 0 0 0 0 0 0 
0 0 0 0 0 0 0 0 0 
0 0 0 0 0 0 0 0 0 
0 0 0 0 0 0 0 0 0 
0 0 0 0 0 0 0 0 0 
0 0 0 0 0 0 0 0 0 
0 0 0 0 0 0 0 0 0 
0 0 0 0 0 0 0 0 0 
0 0 0 0 0 0 0 0 0 
0 0 0 0 0 0 0 0 0 
0 0 0 0 0 0 0 0 0 
0 0 0 0 0 0 0 0 0 
0 0 0 0 0 0 0 0 0 
0 0 0 0 0 0 0 0 0 
0 0 0 0 0 0 0 0 0 
0 0 0 0 0 0 0 0 0 
0 0 0 0 0 0 0 0 0 
0 0 0 0 0 0 0 0 0 
0 0 0 0 0 0 0 0 0 
0 0 0 0 0 0 0 0 0 
0 0 0 0 0 0 0 0 0 
0 0 0 0 0 0 0 0 0 
0 0 0 0 0 0 0 0 0 
0 0 0 0 0 0 0 0 0 
0 0 0 0 0 0 0 0 0 
0 0 0 0 0 0 0 0 0 
0 0 0 0 0 0 0 0 0 
0 0 0 0 0 0 0 0 0 
0 0 0 0 0 0 0 0 0 
0 0 0 0 0 0 0 0 0 
0 0 0 0 0 0 0 0 0 
0 0 0 0 0 0 0 0 0 
0 0 0 0 0 0 0 0 0 
0 0 0 0 0 0 0 0 0 
0 0 0 0 0 0 0 0 0 
0 0 0 0 0 0 0 0 0 
0 0 0 0 0 0 0 0 0 
0 0 0 0 0 0 0 0 0 
0 0 0 0 0 0 0 0 0 
0 0 0 0 0 0 0 0 0 
0 0 0 0 0 0 0 0 0 
0 0 0 0 0 0 0 0 0 
0 0 0 0 0 0 0 0 0 
0 0 0 0 0 0 0 0 0 
0 0 0 0 0 0 0 0 0 
0 0 0 0 0 0 0 0 0 
0 0 0 0 0 0 0 0 0 
0 0 0 0 0 0 0 0 0 
0 0 0 0 0 0 0 0 0 
0 0 0 0 0 0 0 0 0 
0 0 0 0 0 0 0 0 0 
0 0 0 0 0 0 0 0 0 
0 0 0 0 0 0 0 0 0 
0 0 0 0 0 0 0 0 0 
0 0 0 0 0 0 0 0 0 
0 0 0 0 0 0 0 0 0 
0 0 0 0 0 0 0 0 0 
0 0 0 0 0 0 0 0 0 
0 0 0 0 0 0 0 0 0 
0 0 0 0 0 0 0 0 0 
0 0 0 0 0 0 0 0 0 
0 0 0 0 0 0 0 0 0 
0 0 0 0 0 0 0 0 0 
0 0 0 0 0 0 0 0 0 
0 0 0 0 0 0 0 0 0 
0 0 0 0 0 0 0 0 0 
0 0 0 0 0 0 0 0 0 
0 0 0 0 0 0 0 0 0 
0 0 0 0 0 0 0 0 0 
0 0 0 0 0 0 0 0 0 
0 0 0 0 0 0 0 0 0 
0 0 0 0 0 0 0 0 0 
0 0 0 0 0 0 0 0 0 
0 0 0 0 0 0 0 0 0 
0 0 0 0 0 0 0 0 0 
0 0 0 0 0 0 0 0 0 
0 0 0 0 0 0 0 0 0 
0 0 0 0 0 0 0 0 0 
0 0 0 0 0 0 0 0 0 
0 0 0 0 0 0 0 0 0 
0 0 0 0 0 0 0 0 0 
0 0 0 0 0 0 0 0 0 
0 0 0 0 0 0 0 0 0 
0 0 0 0 0 0 0 0 0 
0 0 0 0 0 0 0 0 0 
0 0 0 0 0 0 0 0 0 
0 0 0 0 0 0 0 0 0 
0 0 0 0 0 0 0 0 0 
0 0 0 0 0 0 0 0 0 
0 0 0 0 0 0 0 0 0 
0 0 0 0 0 0 0 0 0 
0 0 0 0 0 0 0 0 0 
0 0 0 0 0 0 0 0 0 
0 0 0 0 0 0 0 0 0 
0 0 0 19.6338 22.335 0 24.9303 35.616 0 
21.5712 21.4475 0 21.2094 22.6099 0 21.5979 23.246 0 
21.612 23.9227 0 21.5775 24.6736 0 21.5596 25.4784 0 
21.6517 26.1447 0 21.765 26.8065 0 21.878 27.475 0 
21.9948 28.1446 0 22.1088 28.8148 0 22.225 29.4847 0 
22.3421 30.1551 0 22.4555 30.8218 0 22.5721 31.4819 0 
22.6931 32.129 0 22.8095 32.7606 0 23.0264 33.4888 0 
23.1684 34.0688 0 22.9286 34.6527 0 23.3151 35.317 0 
22.9918 36.502 0 17.4066 21.6602 0 27.1563 36.2894 0 
23.9436 20.4237 0 20.6193 37.5258 0 19.3702 21.2333 0 
25.1928 36.7163 0 19.9201 21.1591 0 21.5895 20.9081 0 
24.6428 36.7905 0 22.9734 37.0415 0 20.4372 21.0654 0 
21.2083 20.7598 0 24.1257 36.8842 0 23.3547 37.1898 0 
27.1528 35.775 0 17.4102 22.1746 0 24.745 21.2765 0 
24.9184 22.2366 0 24.8216 21.7216 0 24.9484 22.5833 0 
25.1106 23.4899 0 25.2221 24.0504 0 25.2426 24.363 0 
25.3224 24.6339 0 25.355 25.0166 0 25.4331 25.2587 0 
25.4697 25.6751 0 25.5855 26.3453 0 25.5479 25.9293 0 
25.6646 26.5985 0 25.7014 27.0162 0 25.8173 27.6875 0 
25.7797 27.2711 0 25.8965 27.941 0 25.9339 28.3591 0 
26.0127 28.6135 0 26.0493 29.03 0 26.1651 29.7006 0 
26.1276 29.2843 0 26.2443 29.954 0 26.2817 30.3721 0 
26.3604 30.6266 0 26.3976 31.0443 0 26.5373 31.7045 0 
26.4767 31.3023 0 26.6054 32.016 0 26.7345 32.949 0 
26.6743 32.4574 0 26.8266 33.3021 0 26.8817 33.6601 0 
27.0528 34.6069 0 27.1448 35.1809 0 19.818 36.672 0 
19.7412 36.2289 0 19.6446 35.7131 0 19.6142 35.3674 0 
19.4524 34.4597 0 19.3412 33.9 0 19.3212 33.5877 0 
19.2093 32.9462 0 19.2411 33.3154 0 19.1302 32.6931 0 
19.0934 32.2756 0 18.9615 31.6319 0 19.0151 32.021 0 
18.8617 30.9341 0 18.8994 31.3515 0 18.7825 30.6802 0 
18.7457 30.2627 0 18.6137 29.619 0 18.6674 30.008 0 
18.5139 28.9211 0 18.5517 29.3385 0 18.4347 28.6672 0 
18.3979 28.2494 0 18.282 27.5783 0 18.3195 27.9945 0 
18.2028 27.325 0 18.1655 26.9063 0 18.026 26.2472 0 
18.0863 26.6479 0 17.9582 25.9368 0 17.8042 24.9429 0 
17.8889 25.4985 0 17.6947 24.3988 0 17.5106 23.3461 0 
17.4185 22.7696 0 25.0195 22.8337 0 26.9501 34.0004 0 
19.5439 35.1171 0 17.6144 23.957 0 24.6057 20.8777 0 
19.9574 37.0715 0 24.5291 20.9264 0 20.0338 37.0228 0 
26.7613 36.2546 0 17.8017 21.695 0 24.2441 20.4033 0 
20.3189 37.5462 0 18.3929 21.5156 0 26.1701 36.434 0 
25.8766 36.1756 0 18.6864 21.774 0 17.5939 21.5191 0 
26.9691 36.4305 0 25.76 36.6306 0 18.8029 21.319 0 
20.2374 21.1506 0 24.3254 36.799 0 23.0669 20.8105 0 
21.4964 37.1396 0 17.292 21.6225 0 24.4796 20.2324 0 
27.271 36.3271 0 20.0833 37.7171 0 19.5603 21.3409 0 
25.0026 36.6087 0 17.2766 21.808 0 27.2864 36.1416 0 
18.2858 21.4783 0 23.6778 20.563 0 26.2772 36.4713 0 
20.8851 37.3865 0 17.6506 22.0487 0 26.9124 35.9009 0 
21.655 20.9461 0 22.908 37.0035 0 23.3486 21.8702 0 
21.2172 36.0836 0 22.8669 21.6348 0 21.6966 36.3163 0 
24.253 21.1679 0 20.3099 36.7814 0 19.2708 21.9009 0 
25.2924 36.0491 0 23.2975 22.3798 0 21.274 35.5843 0 
23.8909 21.7895 0 20.6719 36.1598 0 26.49 35.6258 0 
18.073 22.3238 0 18.179 22.8822 0 26.384 35.0674 0 
24.2028 22.1607 0 20.36 35.7885 0 24.4521 23.8021 0 
24.5129 24.3031 0 24.6228 24.9569 0 24.7349 25.6231 0 
24.8501 26.2932 0 24.9659 26.964 0 25.0818 27.635 0 
25.1977 28.306 0 25.3136 28.977 0 25.4296 29.648 0 
25.5455 30.3191 0 25.6614 30.99 0 25.7773 31.661 0 
25.8623 32.3279 0 26.005 32.9967 0 25.9577 33.5542 0 
26.3881 34.6422 0 20.1109 34.1475 0 20.0501 33.6466 0 
19.9402 32.9927 0 19.8281 32.3265 0 19.7129 31.6565 0 
19.5971 30.9856 0 19.4812 30.3146 0 19.3653 29.6436 0 
19.2493 28.9726 0 19.1334 28.3016 0 19.0175 27.6306 0 
18.9016 26.9596 0 18.7857 26.2886 0 18.7007 25.6217 0 
18.558 24.9529 0 18.6053 24.3954 0 18.1749 23.3074 0 
18.7039 23.5004 0 24.1891 24.2939 0 18.8755 24.9102 0 
24.2215 24.9954 0 19.0584 25.6299 0 24.3769 25.645 0 
19.2099 26.3046 0 24.4923 26.316 0 19.3248 26.9754 0 
24.6094 26.9867 0 19.4407 27.6464 0 24.7243 27.6579 0 
19.5566 28.3175 0 24.8413 28.3287 0 19.6726 28.9889 0 
24.9561 29 0 19.7885 29.659 0 25.0731 29.6707 0 
19.9044 30.3304 0 25.188 30.342 0 20.0203 31.0019 0 
25.3052 31.0176 0 20.1362 31.6716 0 25.4267 31.7076 0 
20.2527 32.3418 0 25.5291 32.3918 0 20.3879 33.0358 0 
25.5892 33.1342 0 20.3068 33.7899 0 25.8591 34.4492 0 
24.1758 23.2375 0 20.3872 34.7121 0 23.8126 22.2218 0 
18.5996 22.9275 0 23.9058 23.3808 0 18.6645 24.0884 0 
23.9009 23.9426 0 19.0362 24.3923 0 19.1217 25.2664 0 
24.2022 25.3268 0 19.2311 25.9493 0 24.4348 26.6688 0 
19.4617 27.2907 0 19.3458 26.6197 0 24.6666 28.0109 0 
19.6935 28.6327 0 19.5776 27.9617 0 19.8094 29.3037 0 
20.0413 30.6458 0 24.8985 29.3529 0 19.9253 29.9747 0 
25.1303 30.6949 0 20.1572 31.3168 0 20.3906 32.6621 0 
20.2731 31.9878 0 20.5553 33.4496 0 25.9024 33.8822 0 
20.6736 34.5671 0 25.9642 35.0231 0 20.7552 35.7338 0 
24.1604 22.789 0 18.2629 23.8813 0 26.2999 34.0682 0 
20.4025 35.1606 0 23.34 23.2985 0 21.3305 34.7169 0 
24.1554 22.669 0 26.1495 34.0382 0 20.4075 35.2805 0 
18.4135 23.9115 0 25.6476 35.317 0 18.9153 22.6326 0 
23.9065 21.2113 0 20.6571 36.7391 0 17.6122 22.5356 0 
26.9508 35.414 0 17.4735 21.8739 0 27.0895 36.0756 0 
23.2002 20.483 0 21.3629 37.4666 0 24.6462 20.6959 0 
19.9168 37.2533 0 24.2414 20.5719 0 20.3216 37.3775 0 
18.9465 21.4285 0 25.6165 36.5212 0 22.4677 20.7838 0 
25.3353 36.3039 0 22.0953 37.1658 0 19.2277 21.6457 0 
24.5038 20.3766 0 20.0592 37.5728 0 22.2781 20.8358 0 
22.2848 37.114 0 17.9127 21.5512 0 26.6503 36.3984 0 
17.1998 21.5186 0 27.3632 36.431 0 24.5915 20.3531 0 
19.9714 37.5963 0 24.4353 20.4401 0 20.1277 37.5094 0 
17.1945 21.5001 0 27.3684 36.4495 0 24.5625 20.2023 0 
20.0005 37.7472 0 24.284 20.2661 0 20.279 37.6834 0 
17.4571 21.4767 0 27.1059 36.4729 0 20.942 21.2195 0 
23.621 36.73 0 20.5889 20.8557 0 23.974 37.0939 0 
23.2087 21.2632 0 21.3542 36.6864 0 21.8123 22.2703 0 
22.7452 35.6788 0 25.4676 35.8679 0 19.0954 22.0816 0 
24.529 21.8168 0 20.0344 36.1331 0 22.7549 22.3032 0 
21.8075 35.6465 0 24.7542 23.0972 0 24.956 23.2714 0 
25.0404 24.1035 0 26.3977 32.1404 0 26.5641 32.6726 0 
26.6748 33.5324 0 26.8902 34.4711 0 19.8087 34.8522 0 
19.607 34.6781 0 19.5225 33.8464 0 18.1661 25.8158 0 
17.9984 25.3016 0 17.8945 24.4255 0 17.6743 23.4808 0 
25.0823 23.6731 0 25.1852 24.6375 0 25.2717 25.199 0 
25.3864 25.8649 0 25.5021 26.5348 0 25.6179 27.2056 0 
25.7338 27.8769 0 25.8497 28.548 0 25.9657 29.2188 0 
26.0816 29.8899 0 26.1975 30.5611 0 26.3119 31.2354 0 
26.4383 31.7325 0 26.6863 33.1475 0 19.4808 34.2765 0 
19.3777 33.3129 0 19.2913 32.7511 0 19.1765 32.0852 0 
19.0609 31.4152 0 18.9451 30.7441 0 18.8291 30.0733 0 
18.7132 29.4024 0 18.5973 28.7311 0 18.4814 28.06 0 
18.3655 27.3889 0 18.2511 26.7146 0 18.125 26.2179 0 
17.8486 24.797 0 22.8511 21.5831 0 21.7119 36.3665 0 
25.2775 34.9617 0 19.2855 22.9879 0 18.3886 22.45 0 
26.1746 35.4999 0 27.1774 35.7222 0 17.3855 22.2274 0 
21.2159 21.822 0 23.3439 36.128 0 26.6022 34.0453 0 
17.9609 23.9045 0 24.5941 22.5371 0 19.9687 35.412 0 
26.6931 34.3981 0 17.8699 23.5517 0 23.1654 23.8269 0 
23.3242 24.5416 0 23.1439 25.1678 0 23.5771 25.7312 0 
23.3789 26.4837 0 23.8085 27.0676 0 23.6106 27.8247 0 
24.0403 28.4094 0 23.8424 29.1667 0 24.2721 29.7514 0 
24.0743 30.5087 0 24.504 31.0934 0 24.3061 31.8507 0 
24.7359 32.4357 0 24.5338 33.1857 0 24.9551 33.706 0 
25.114 34.4566 0 21.3976 34.1227 0 21.2387 33.408 0 
21.4191 32.7818 0 20.9859 32.2183 0 21.1841 31.4659 0 
20.7545 30.882 0 20.9524 30.1249 0 20.5227 29.5402 0 
20.7206 28.7829 0 20.2909 28.1982 0 20.4887 27.4409 0 
20.059 26.8562 0 20.2569 26.0989 0 19.827 25.5139 0 
20.0292 24.7639 0 19.6079 24.2436 0 19.449 23.493 0 
22.802 22.5844 0 21.761 35.3652 0 23.1053 23.0672 0 
21.4576 34.8824 0 24.9711 23.7766 0 25.089 24.5029 0 
25.205 25.1895 0 25.3233 25.8649 0 25.4391 26.5366 0 
25.5551 27.2076 0 25.669 27.8792 0 25.786 28.5506 0 
25.9029 29.221 0 26.0179 29.8923 0 26.1308 30.5593 0 
26.2484 31.2169 0 26.3655 31.8098 0 26.6085 32.6229 0 
26.6136 33.0944 0 19.592 34.1731 0 19.4728 33.4466 0 
19.3634 32.7604 0 19.2506 32.0887 0 19.136 31.4183 0 
19.0207 30.7471 0 18.9049 30.0761 0 18.7889 29.4054 0 
18.6727 28.7342 0 18.5559 28.0633 0 18.4378 27.394 0 
18.3175 26.7349 0 18.1987 26.1451 0 17.9527 25.3396 0 
17.947 24.8852 0 26.6029 33.6978 0 17.9558 24.2675 0 
24.696 22.338 0 19.8673 35.6114 0 22.5203 22.1003 0 
22.0427 35.8493 0 19.7265 23.465 0 24.8843 34.5173 0 
24.8357 22.8603 0 19.7276 35.0883 0 26.4413 35.9484 0 
18.1217 22.0012 0 22.9019 22.8471 0 21.6922 35.1711 0 
25.1311 24.0661 0 25.2487 24.7562 0 25.3643 25.4264 0 
25.4801 26.0951 0 25.5959 26.7675 0 25.7119 27.437 0 
25.8277 28.1099 0 25.9439 28.7814 0 26.0597 29.4502 0 
26.1755 30.123 0 26.2916 30.7944 0 26.4075 31.4633 0 
26.5397 32.0761 0 26.7869 33.4741 0 19.4321 33.8838 0 
19.3145 33.1962 0 19.199 32.5241 0 19.083 31.855 0 
18.9673 31.1844 0 18.8513 30.5112 0 18.7352 29.842 0 
18.6195 29.1714 0 18.5035 28.4982 0 18.3874 27.8285 0 
18.2716 27.156 0 18.1556 26.4869 0 18.0236 25.8802 0 
17.7863 24.4838 0 21.8501 34.693 0 20.1236 23.9043 0 
21.6607 32.8714 0 24.3027 34.0246 0 24.6298 34.2154 0 
22.9192 24.2744 0 20.0745 24.4805 0 20.1676 25.0764 0 
23.183 25.5518 0 20.278 25.7117 0 23.4219 26.8895 0 
20.5113 27.0614 0 20.3948 26.3599 0 23.6538 28.2314 0 
20.7432 28.4034 0 20.6275 27.7031 0 20.8593 29.0602 0 
21.0912 30.4173 0 23.8857 29.5734 0 20.9754 29.7139 0 
24.1182 30.9167 0 21.207 31.073 0 24.2974 32.2505 0 
21.4577 32.3788 0 21.3262 31.7183 0 24.4138 33.4927 0 
21.535 33.771 0 24.383 32.9037 0 21.6254 33.3148 0 
26.6538 35.144 0 17.9092 22.8057 0 25.0218 35.4823 0 
19.5412 22.4673 0 20.512 21.614 0 24.0503 36.3357 0 
26.9424 34.7789 0 17.6199 23.1742 0 24.6937 21.0161 0 
19.8691 36.9327 0 19.2351 23.0031 0 25.3364 34.9532 0 
24.226 23.745 0 24.4381 24.632 0 24.5408 25.2343 0 
24.6563 25.8969 0 24.8446 26.5561 0 24.8987 27.2359 0 
25.0048 27.9068 0 25.1201 28.5792 0 25.3083 29.2401 0 
25.3624 29.9199 0 25.4686 30.5925 0 25.5875 31.2723 0 
25.6926 31.9447 0 25.835 32.656 0 20.3361 34.2016 0 
20.1253 33.3786 0 20.0369 32.7418 0 19.9229 32.0744 0 
19.8071 31.404 0 19.6913 30.7332 0 19.5753 30.0621 0 
19.4594 29.3912 0 19.3435 28.7203 0 19.2275 28.0492 0 
19.1116 27.3781 0 18.9957 26.7071 0 18.8826 26.0371 0 
18.786 25.4292 0 24.3944 23.3263 0 20.1708 34.6205 0 
26.334 34.6378 0 18.229 23.3118 0 22.5076 21.203 0 
22.0554 36.7465 0 22.7522 21.1122 0 21.8111 36.8381 0 
24.1093 20.7065 0 20.4538 37.2431 0 24.7953 36.0156 0 
19.7677 21.934 0 23.9968 20.782 0 20.5661 37.1674 0 
24.3324 21.26 0 20.2309 36.6898 0 26.6256 35.465 0 
17.9374 22.4846 0 27.1237 35.2248 0 17.4392 22.726 0 
22.6853 20.7208 0 21.8777 37.2288 0 17.2495 21.8342 0 
27.3135 36.1154 0 26.3074 36.0442 0 18.2556 21.9054 0 
24.5957 20.5628 0 19.9672 37.3865 0 23.8018 20.5694 0 
20.7613 37.3803 0 23.4872 20.7531 0 21.0761 37.1968 0 
24.4072 20.8281 0 20.1558 37.1213 0 22.8472 20.9696 0 
21.7158 36.9799 0 22.8865 20.5098 0 21.6765 37.4398 0 
24.8211 21.8189 0 19.7424 36.1308 0 24.2478 36.3305 0 
20.3152 21.6191 0 21.628 21.5145 0 22.935 36.4351 0 
26.9044 35.6437 0 17.6586 22.3059 0 22.1001 21.0643 0 
24.8371 36.4313 0 22.4629 36.8853 0 19.7258 21.5183 0 
23.2686 20.7339 0 21.2944 37.2156 0 18.6675 21.9693 0 
25.8956 35.9804 0 22.2413 21.6197 0 22.3217 36.3299 0 
22.4172 21.9913 0 22.1459 35.9619 0 23.6317 22.8377 0 
20.9524 35.1307 0 20.5536 24.2055 0 22.3391 22.5553 0 
22.2288 35.4346 0 24.6994 34.9244 0 19.8636 23.0252 0 
25.0657 23.1952 0 19.4972 34.7543 0 25.2382 24.2372 0 
25.3578 24.9142 0 25.4683 25.5583 0 25.583 26.2232 0 
25.6988 26.8929 0 25.8149 27.5638 0 25.9316 28.2351 0 
26.0503 28.9065 0 26.1662 29.5772 0 26.2821 30.2482 0 
26.3996 30.9185 0 26.5216 31.5753 0 26.6014 32.1829 0 
26.7433 32.8684 0 19.3247 33.7128 0 19.2045 33.0362 0 
19.0911 32.3925 0 18.9642 31.7266 0 18.8484 31.0557 0 
18.7324 30.3841 0 18.6165 29.7139 0 18.5128 29.0444 0 
18.3968 28.373 0 18.2807 27.7019 0 18.1636 27.0321 0 
18.0416 26.3756 0 17.9661 25.7881 0 17.842 25.205 0 
26.8376 33.483 0 17.7174 24.378 0 23.7235 22.8724 0 
20.8395 35.0771 0 25.7971 34.6454 0 18.7659 23.3042 0 
27.0411 34.7555 0 17.5228 23.1962 0 20.3688 23.3 0 
24.3536 34.5659 0 23.651 23.516 0 20.912 34.4336 0 
24.1128 23.9337 0 24.0401 24.5807 0 24.191 25.2861 0 
24.3028 25.9566 0 24.4262 26.6287 0 24.5349 27.2975 0 
24.658 27.9704 0 24.7668 28.6394 0 24.8899 29.3124 0 
24.9986 29.9815 0 25.1217 30.6545 0 25.2305 31.3235 0 
25.3536 31.9966 0 25.4604 32.6626 0 25.5396 33.3033 0 
25.6234 33.9757 0 20.4502 34.0159 0 20.5229 33.3689 0 
20.372 32.6635 0 20.2601 31.993 0 20.1368 31.3209 0 
20.028 30.6521 0 19.905 29.9792 0 19.7962 29.3102 0 
19.6731 28.6372 0 19.5644 27.9681 0 19.4413 27.2951 0 
19.3325 26.6261 0 19.2094 25.953 0 19.1026 25.287 0 
19.0234 24.6463 0 18.9396 23.9739 0 26.8891 34.0662 0 
17.6722 23.9002 0 24.4848 22.9507 0 20.0782 34.9987 0 
24.5523 21.9924 0 20.01 35.9575 0 23.3291 21.2934 0 
21.2349 36.6577 0 24.7101 21.393 0 19.8523 36.5578 0 
23.7765 21.1996 0 20.7863 36.7498 0 24.7337 21.9495 0 
19.8299 36.0001 0 19.9809 22.8691 0 24.6152 35.0545 0 
26.979 34.3314 0 17.5856 23.6225 0 26.7329 34.6982 0 
17.8305 23.2518 0 26.023 35.7124 0 18.54 22.2372 0 
24.8889 22.4259 0 19.6747 35.5237 0 24.7527 23.9586 0 
24.8931 24.4944 0 25.0104 25.2706 0 25.125 25.9389 0 
25.2407 26.6094 0 25.3565 27.2803 0 25.4724 27.9514 0 
25.5884 28.6224 0 25.7043 29.2933 0 25.8202 29.9644 0 
25.9361 30.6354 0 26.0515 31.3071 0 26.1283 32.0903 0 
26.2684 32.5428 0 19.8103 33.9911 0 19.6698 33.4554 0 
19.5526 32.6792 0 19.438 32.0109 0 19.3223 31.3404 0 
19.2064 30.6694 0 19.0905 29.9985 0 18.9746 29.3275 0 
18.8587 28.6564 0 18.7428 27.9853 0 18.6269 27.3143 0 
18.5115 26.6427 0 18.4349 25.8607 0 18.2942 25.4123 0 
26.3367 33.5154 0 18.2263 24.4344 0 24.6027 23.4369 0 
19.9604 34.5127 0 22.223 22.6451 0 22.34 35.3045 0 
27.2342 35.6524 0 17.3288 22.2972 0 18.9428 22.4349 0 
25.622 35.5163 0 22.2679 23.0865 0 22.3216 34.937 0 
23.3117 22.5561 0 21.2513 35.3935 0 24.7681 23.3353 0 
24.895 24.2825 0 25.0003 24.9605 0 25.1207 25.6405 0 
25.2418 26.3139 0 25.3573 26.9848 0 25.4645 27.6566 0 
25.5847 28.3278 0 25.7055 28.9984 0 25.821 29.6691 0 
25.9251 30.3388 0 26.0405 31.0056 0 26.1712 31.6833 0 
26.3717 32.4589 0 19.7952 34.6122 0 19.6633 33.5585 0 
19.5706 32.9767 0 19.464 32.3142 0 19.3519 31.6444 0 
19.2375 30.9737 0 19.1222 30.3028 0 19.0063 29.6318 0 
18.8901 28.9609 0 18.7732 28.2898 0 18.6546 27.6187 0 
18.5317 26.947 0 18.3962 26.2652 0 18.2076 25.4689 0 
24.3235 22.2123 0 20.2403 35.7381 0 25.023 24.9132 0 
25.136 25.5741 0 25.2512 26.243 0 25.3669 26.9136 0 
25.4828 27.5846 0 25.5987 28.2557 0 25.7147 28.9267 0 
25.8306 29.5976 0 25.9465 30.2687 0 26.0618 30.9406 0 
26.2211 31.6685 0 26.4587 33.0626 0 19.54 33.0368 0 
19.427 32.3758 0 19.3118 31.7069 0 19.196 31.0362 0 
19.0801 30.3652 0 18.9642 29.6943 0 18.8483 29.0232 0 
18.7324 28.3521 0 18.6165 27.6811 0 18.5012 27.0092 0 
18.342 26.2815 0 18.1044 24.8872 0 24.8877 23.5862 0 
19.6753 34.3635 0 21.8529 21.7861 0 22.7083 36.1643 0 
24.0243 34.7785 0 20.5387 23.1711 0 24.5371 21.487 0 
20.0252 36.4632 0 22.5498 24.3328 0 22.7754 24.8088 0 
22.7916 25.732 0 23.0071 26.163 0 23.0232 27.0741 0 
23.2388 27.5051 0 23.255 28.4161 0 23.4707 28.8471 0 
23.4869 29.7581 0 23.7025 30.1891 0 23.7187 31.1001 0 
23.9344 31.5311 0 23.9506 32.4421 0 24.1662 32.8731 0 
24.1882 33.7909 0 24.468 34.3159 0 22.0132 33.6168 0 
21.7876 33.1408 0 21.7714 32.2176 0 21.5559 31.7866 0 
21.5398 30.8755 0 21.3241 30.4445 0 21.308 29.5335 0 
21.0923 29.1025 0 21.0761 28.1915 0 20.8604 27.7605 0 
20.8443 26.8495 0 20.6286 26.4185 0 20.6124 25.5075 0 
20.3968 25.0765 0 20.3748 24.1587 0 20.095 23.6337 0 
22.4548 23.6448 0 22.1082 34.3048 0 23.7094 22.2637 0 
20.8535 35.6857 0 24.8638 22.1451 0 19.6986 35.8089 0 
22.2739 24.1347 0 22.1251 33.6666 0 22.6354 25.2878 0 
22.8669 26.6323 0 23.0988 27.9744 0 23.3306 29.3164 0 
23.5625 30.6584 0 23.7943 32.0004 0 24.0273 33.3438 0 
21.9275 32.6618 0 21.696 31.3172 0 21.4642 29.9752 0 
21.2324 28.6332 0 21.0005 27.2912 0 20.7687 25.9492 0 
20.5357 24.6058 0 23.1111 22.1025 0 21.4519 35.8471 0 
26.2069 35.1703 0 18.3561 22.7793 0 24.8815 22.8029 0 
19.6813 35.1464 0 24.6277 21.3661 0 19.9355 36.5833 0 
25.1676 23.699 0 19.3954 34.2508 0 17.756 24.7482 0 
26.9762 35.0808 0 17.5873 22.8696 0 19.1356 23.7688 0 
25.4425 34.1996 0 19.5718 24.1423 0 24.9143 33.8808 0 
24.2329 21.6352 0 20.3298 36.3138 0 20.4537 22.2518 0 
24.1102 35.696 0 22.3939 24.7287 0 20.7024 24.6399 0 
22.6063 25.3465 0 20.8951 25.2193 0 22.7342 25.9849 0 
21.0324 25.8779 0 22.8519 26.6421 0 21.1534 26.5496 0 
22.9678 27.308 0 21.2705 27.2213 0 23.0834 27.9771 0 
21.3866 27.8923 0 23.199 28.6473 0 21.5026 28.566 0 
23.3148 29.3176 0 21.6186 29.232 0 23.4303 29.9874 0 
21.7346 29.9049 0 23.5445 30.6557 0 21.8504 30.5789 0 
23.6543 31.3208 0 21.967 31.2437 0 23.7529 31.9772 0 
22.0864 31.9072 0 23.8179 32.6117 0 22.2238 32.5321 0 
23.7778 33.2423 0 22.2565 33.1105 0 26.8554 33.9464 0 
17.7123 24.0116 0 23.6159 24.4547 0 19.4573 24.8502 0 
23.7624 25.121 0 19.5472 25.5334 0 23.8943 25.7886 0 
19.6567 26.1992 0 24.0063 26.4599 0 19.7717 26.8705 0 
24.1289 27.1295 0 19.8875 27.5417 0 24.2386 27.8017 0 
20.0035 28.2127 0 24.3608 28.4714 0 20.1194 28.8859 0 
24.4704 29.1437 0 20.2353 29.5527 0 24.5927 29.8135 0 
20.3513 30.2252 0 24.7024 30.4859 0 20.4672 30.8989 0 
24.8257 31.1577 0 20.5835 31.5645 0 24.9264 31.8632 0 
20.703 32.2321 0 25.022 32.5219 0 20.9123 32.9313 0 
25.0777 33.2202 0 21.052 33.5892 0 23.4462 23.8307 0 
21.132 34.0963 0 24.7911 22.3124 0 19.7711 35.6386 0 
21.8492 22.7529 0 22.7042 35.2046 0 22.1198 23.6114 0 
22.2785 34.5019 0 20.9184 23.7101 0 23.6858 34.4214 0 
21.7854 22.2065 0 22.7775 35.7431 0 24.6023 23.8947 0 
18.4817 25.0599 0 24.7452 24.7369 0 18.5436 25.7903 0 
24.86 25.4255 0 18.6759 26.4881 0 25.0035 26.1 0 
18.8002 27.1653 0 25.1192 26.7708 0 18.9197 27.8374 0 
25.21 27.4421 0 19.037 28.5086 0 25.3239 28.1134 0 
19.1535 29.1797 0 25.4672 28.7841 0 19.2695 29.8506 0 
25.5831 29.455 0 19.3851 30.5216 0 25.6719 30.1259 0 
19.5002 31.1925 0 25.7802 30.7957 0 19.614 31.8634 0 
25.8979 31.4549 0 19.7242 32.5359 0 26.0376 32.1242 0 
19.8262 33.2293 0 26.1743 32.9568 0 19.9459 33.9508 0 
18.3213 24.4024 0 26.2516 33.5694 0 24.0151 21.7964 0 
20.5495 36.1552 0 17.8697 22.9967 0 26.6933 34.9529 0 
24.9661 23.3128 0 19.5968 34.6357 0 19.9346 21.7672 0 
24.6286 36.1823 0 20.6138 22.8255 0 23.914 34.9963 0 
24.5689 22.7936 0 19.9942 35.1539 0 22.5534 34.0986 0 
22.2099 21.3915 0 22.353 36.559 0 23.4311 21.7059 0 
21.1319 36.2436 0 21.0506 24.2468 0 22.0597 25.1965 0 
22.2585 26.3969 0 22.4864 27.7257 0 22.7167 29.0653 0 
22.9473 30.4031 0 23.1714 31.7207 0 23.3419 32.8898 0 
24.1789 35.4874 0 20.3841 22.4622 0 25.5097 33.617 0 
24.1 24.6739 0 24.3451 26.0158 0 24.5775 27.3575 0 
24.8093 28.6996 0 25.0412 30.0416 0 25.2724 31.3993 0 
25.3824 32.0801 0 25.4727 32.7757 0 20.6492 33.9555 0 
24.745 21.8416 0 19.8172 36.1111 0 21.9922 23.1813 0 
22.5708 34.7683 0 19.8007 36.5764 0 24.7618 21.3715 0 
23.7228 21.6876 0 20.8418 36.2641 0 23.7353 33.7887 0 
22.1478 25.7575 0 22.371 27.0585 0 22.6012 28.3953 0 
22.8333 29.735 0 23.0605 31.0668 0 23.2671 32.3477 0 
21.6982 22.7804 0 22.8648 35.1692 0 22.9758 22.019 0 
21.5871 35.9306 0 23.7852 34.2245 0 20.7778 23.7251 0 
23.7464 35.0829 0 20.8166 22.8667 0 22.7673 23.5808 0 
21.8286 34.2066 0 23.0739 24.9082 0 23.3165 26.2217 0 
23.5505 27.5623 0 23.7824 28.9043 0 24.0144 30.2465 0 
24.2369 31.5949 0 21.9703 24.2351 0 22.1907 24.9023 0 
22.2263 25.5982 0 22.4273 26.2576 0 22.4589 26.9428 0 
22.6592 27.6 0 22.6907 28.2849 0 22.8911 28.9421 0 
22.9226 29.6269 0 23.1229 30.2841 0 23.1544 30.9689 0 
23.3548 31.6261 0 23.3862 32.311 0 23.5868 32.9683 0 
23.6321 33.6113 0 22.5927 33.7145 0 22.3723 33.0473 0 
22.3367 32.3514 0 22.1357 31.692 0 22.1041 31.0068 0 
21.9038 30.3496 0 21.8723 29.6647 0 21.6719 29.0075 0 
21.6404 28.3227 0 21.4401 27.6655 0 21.4086 26.9807 0 
21.2082 26.3235 0 21.1767 25.6386 0 20.9762 24.9813 0 
20.9308 24.3383 0 21.8281 23.6544 0 22.7349 34.2952 0 
18.6454 24.5775 0 25.9067 33.3223 0 20.9572 23.1469 0 
22.498 23.0251 0 22.065 34.9245 0 23.6725 25.0585 0 
20.8905 32.8911 0 23.916 26.3706 0 20.6469 31.579 0 
24.1478 27.7109 0 20.4152 30.2387 0 24.3797 29.0529 0 
20.1833 28.8967 0 25.0614 33.0558 0 19.5016 24.8938 0 
24.6115 30.3949 0 24.8434 31.737 0 19.9515 27.5547 0 
19.7196 26.2126 0 23.4616 34.8621 0 20.8882 33.8726 0 
23.6748 24.077 0 18.1576 24.812 0 26.421 33.1876 0 
19.5799 34.9682 0 24.9835 22.9812 0 20.3231 36.289 0 
24.2405 21.6612 0 26.1209 32.5462 0 17.7415 21.1212 0 
23.9235 20.0532 0 21.1609 20.5305 0 20.5041 20.6439 0 
23.5601 20.116 0 18.1048 21.0584 0 24.1782 20.0092 0 
17.4867 21.1652 0 21.8061 20.419 0 19.8588 20.7554 0 
23.1635 20.1845 0 18.5014 20.9899 0 24.3349 19.9821 0 
17.33 21.1923 0 19.2979 20.8523 0 22.367 20.3221 0 
22.6365 20.2755 0 19.0285 20.8989 0 22.4709 20.3042 0 
19.1941 20.8703 0 17.3178 21.1944 0 24.3472 19.98 0 
17.3779 21.184 0 24.2871 19.9904 0 22.4764 20.3032 0 
19.1885 20.8712 0 24.2914 19.9896 0 17.3735 21.1848 0 
18.6482 20.9646 0 23.0168 20.2098 0 20.6395 37.8964 0 
26.8215 36.8284 0 24.0589 37.3057 0 23.4021 37.4191 0 
26.4582 36.8912 0 21.0029 37.8336 0 27.0763 36.7844 0 
20.3848 37.9404 0 24.7042 37.1942 0 22.7569 37.5306 0 
26.0616 36.9597 0 21.3995 37.7651 0 27.2329 36.7573 0 
20.2281 37.9675 0 22.1959 37.6275 0 25.2651 37.0973 0 
25.5345 37.0507 0 21.9265 37.674 0 25.3689 37.0793 0 
22.0921 37.6454 0 20.2158 37.9696 0 27.2452 36.7552 0 
20.2759 37.9592 0 27.1851 36.7656 0 25.3745 37.0784 0 
22.0866 37.6464 0 27.1895 36.7648 0 20.2716 37.96 0 
21.5462 37.7397 0 25.9148 36.985 0 23.4999 36.1206 0 
22.8082 35.0571 0 21.7547 22.8909 0 21.063 21.8288 0 
23.624 36.6848 0 23.1931 35.584 0 23.4871 34.4961 0 
23.1577 33.8996 0 23.1141 33.1738 0 22.8317 32.5588 0 
22.6531 31.9029 0 22.5277 31.2444 0 22.4176 30.5755 0 
22.2966 29.91 0 22.1857 29.235 0 22.065 28.5672 0 
21.954 27.8942 0 21.8513 27.2169 0 21.7709 26.5331 0 
21.8027 25.8259 0 21.5949 25.2128 0 21.4715 24.573 0 
21.3677 23.9638 0 21.2021 23.391 0 21.3699 22.3653 0 
20.9389 21.2648 0 26.9178 36.1186 0 24.1226 20.4252 0 
17.6452 21.831 0 20.4404 37.5244 0 24.1228 20.3905 0 
20.4402 37.559 0 26.8662 36.4724 0 23.9893 20.4585 0 
17.6968 21.4772 0 20.5737 37.4911 0 25.9337 36.5651 0 
23.0499 20.5769 0 18.6293 21.3845 0 21.5131 37.3727 0 
26.8289 35.7417 0 24.2938 21.0536 0 17.7341 22.2079 0 
20.2692 36.896 0 26.8127 35.2457 0 26.5937 34.5641 0 
26.5346 33.7203 0 26.6808 34.4439 0 26.4414 33.1994 0 
26.3936 32.7775 0 26.314 32.4562 0 26.2789 32.115 0 
26.2006 31.7946 0 26.1637 31.4489 0 26.0852 31.1274 0 
25.9699 30.4599 0 26.0483 30.7807 0 25.9325 30.1105 0 
25.8538 29.7867 0 25.8163 29.4382 0 25.7376 29.115 0 
25.6221 28.447 0 25.7006 28.7681 0 25.5847 28.0974 0 
25.506 27.7734 0 25.4684 27.4241 0 25.3889 27.0977 0 
25.3524 26.753 0 25.2739 26.4307 0 25.1585 25.7628 0 
25.2369 26.0837 0 25.1209 25.4128 0 25.0424 25.0899 0 
25.0057 24.7459 0 24.9238 24.4017 0 24.9011 24.1409 0 
24.8125 23.6795 0 24.6711 22.805 0 24.5835 22.3199 0 
24.4311 21.4468 0 17.7503 22.7038 0 17.9687 23.3834 0 
18.0283 24.2486 0 17.8822 23.5055 0 18.1071 24.715 0 
18.2499 25.4673 0 18.1658 25.1521 0 18.3637 26.1403 0 
18.282 25.8244 0 18.4812 26.811 0 18.3973 26.4918 0 
18.5136 27.1643 0 18.5954 27.4858 0 18.7114 28.1631 0 
18.6297 27.8364 0 18.8271 28.8237 0 18.7456 28.508 0 
18.9448 29.4949 0 18.861 29.1754 0 18.9773 29.8482 0 
19.0591 30.1699 0 19.175 30.8474 0 19.0935 30.5206 0 
19.2909 31.51 0 19.2095 31.1929 0 19.3251 31.862 0 
19.4088 32.1819 0 19.5229 32.8536 0 19.4413 32.5341 0 
19.6423 33.5361 0 19.5582 33.211 0 19.7469 34.2423 0 
19.6598 33.7982 0 19.8919 35.1446 0 19.9794 35.6297 0 
20.1319 36.5028 0 26.611 34.0605 0 26.4988 33.3942 0 
24.7427 23.2551 0 24.5032 21.9005 0 17.952 23.8891 0 
18.0642 24.5554 0 19.8193 34.6899 0 20.0598 36.0491 0 
17.6144 21.4216 0 26.9486 36.528 0 25.1507 36.6844 0 
22.4501 20.7334 0 19.4122 21.2652 0 22.1129 37.2162 0 
24.2064 20.3133 0 17.5681 21.5555 0 20.3566 37.6363 0 
26.9949 36.3941 0 25.3787 36.2248 0 21.7971 36.8177 0 
22.7659 21.1319 0 19.1842 21.7248 0 26.2199 35.8448 0 
20.8497 36.7105 0 23.7133 21.2391 0 18.3431 22.1046 0 
25.8011 35.5073 0 18.7618 22.4423 0 25.9642 34.6463 0 
18.5988 23.3033 0 23.8242 23.3693 0 23.8142 22.491 0 
20.7388 34.5803 0 20.7488 35.4586 0 25.6468 35.1444 0 
18.9162 22.8052 0 23.5751 21.6081 0 20.9879 36.3415 0 
21.3374 35.3722 0 23.2254 22.5769 0 25.4336 34.2533 0 
25.5422 33.4937 0 25.1593 32.9956 0 25.0664 32.4284 0 
24.9589 31.7793 0 24.8428 31.1134 0 24.7241 30.4429 0 
24.6058 29.7728 0 24.489 29.1026 0 24.3721 28.4316 0 
24.2532 27.7613 0 24.1349 27.0909 0 24.0165 26.4237 0 
23.8928 25.7665 0 23.7666 25.1098 0 23.5899 24.4264 0 
23.4297 23.7606 0 23.6338 22.8494 0 23.3652 22.4029 0 
19.1294 23.6963 0 19.0208 24.4559 0 19.4036 24.954 0 
19.4965 25.5212 0 19.6041 26.1703 0 19.7202 26.8362 0 
19.8389 27.5067 0 19.9571 28.1768 0 20.074 28.8471 0 
20.1908 29.518 0 20.3095 30.1884 0 20.4263 30.8584 0 
20.5449 31.5239 0 20.6698 32.1821 0 20.7963 32.8397 0 
20.973 33.5232 0 21.1333 34.189 0 20.9292 35.1002 0 
21.1978 35.5467 0 20.9265 34.9145 0 25.381 34.6996 0 
20.6203 35.5807 0 20.8986 34.1836 0 20.8225 33.5869 0 
25.0229 31.6374 0 20.4734 32.8103 0 20.2416 31.4679 0 
24.9302 31.1634 0 20.5615 32.2754 0 24.6753 29.6245 0 
20.3297 30.9333 0 20.1065 29.5979 0 24.5824 29.1505 0 
20.0223 30.1411 0 19.7779 28.7838 0 24.2116 26.9405 0 
19.866 28.2493 0 19.6431 26.9128 0 24.1188 26.4664 0 
19.5587 27.4569 0 23.8637 24.9273 0 19.3162 26.0929 0 
23.773 24.3798 0 19.4004 25.6078 0 23.6354 23.0329 0 
23.6629 23.7804 0 19.1812 24.8504 0 23.9426 22.3686 0 
19.182 23.25 0 25.966 34.1466 0 20.4251 34.9607 0 
25.9511 33.5806 0 20.2373 34.368 0 25.9874 32.9507 0 
20.1392 33.7878 0 25.8369 32.2676 0 20.1182 32.9314 0 
25.7192 31.5956 0 19.8702 32.5006 0 25.603 30.9245 0 
19.8876 31.5978 0 25.487 30.2534 0 19.6284 31.1568 0 
25.3711 29.5824 0 19.6054 30.1969 0 25.2552 28.9114 0 
19.4334 29.7509 0 25.1392 28.2404 0 19.4242 28.9139 0 
25.0233 27.5694 0 19.1648 28.4725 0 24.9074 26.8984 0 
19.1418 27.5127 0 24.7915 26.2274 0 18.9697 27.0668 0 
24.6756 25.5564 0 18.9623 26.2297 0 24.5596 24.8854 0 
18.7159 25.7989 0 24.4363 24.2105 0 18.7671 24.8781 0 
24.3301 23.593 0 18.5882 24.3637 0 24.1337 22.994 0 
18.5818 23.7776 0 21.0603 35.8136 0 23.5026 22.1359 0 
23.6809 22.0553 0 20.8821 35.8943 0 26.0078 35.15 0 
18.5552 22.7996 0 25.5754 34.2951 0 25.5357 33.7742 0 
18.9773 24.1145 0 18.9725 23.6458 0 22.8535 21.1372 0 
21.7095 36.8124 0 25.5459 36.4036 0 19.0171 21.546 0 
24.8531 36.6454 0 22.4418 37.0168 0 22.1212 20.9328 0 
19.7099 21.3042 0 25.9893 36.0493 0 23.4327 21.0588 0 
18.5737 21.9003 0 21.1303 36.8908 0 23.8827 20.431 0 
17.7721 21.4336 0 20.6803 37.5186 0 26.7909 36.516 0 
26.3902 36.4711 0 23.5175 20.5187 0 18.1728 21.4785 0 
21.0454 37.4309 0 27.0098 36.401 0 24.2656 20.4835 0 
17.5531 21.5486 0 20.2974 37.4661 0 22.7473 20.6681 0 
19.1648 21.2277 0 21.8157 37.2815 0 25.3982 36.7219 0 
24.2527 20.4841 0 20.3103 37.4655 0 24.2099 36.7957 0 
23.1059 36.896 0 21.457 21.0536 0 20.3531 21.1539 0 
26.8727 36.112 0 24.2478 20.681 0 17.6903 21.8376 0 
20.3152 37.2686 0 23.8003 20.3898 0 17.8937 21.414 0 
20.7627 37.5598 0 26.6693 36.5356 0 23.6916 20.4525 0 
18.0948 21.4258 0 20.8714 37.4971 0 26.4682 36.5238 0 
24.6016 36.6391 0 21.9453 20.9029 0 19.9614 21.3105 0 
22.6177 37.0466 0 24.2913 21.1515 0 20.2717 36.7981 0 
26.7913 35.7368 0 17.7717 22.2128 0 24.9861 35.1069 0 
19.5769 22.8427 0 21.6142 35.821 0 22.9488 22.1286 0 
26.2108 33.1515 0 26.1255 32.5011 0 26.0089 31.8339 0 
25.8928 31.1636 0 25.7768 30.4928 0 25.6609 29.8218 0 
25.545 29.1508 0 25.4291 28.4798 0 25.3131 27.8088 0 
25.1972 27.1378 0 25.0813 26.4667 0 24.9654 25.7957 0 
24.8314 25.0884 0 24.8115 24.4517 0 24.6189 23.7752 0 
24.4721 23.1604 0 24.4069 22.5479 0 18.352 24.7975 0 
18.4374 25.4485 0 18.5541 26.1157 0 18.6702 26.786 0 
18.7861 27.4568 0 18.9021 28.1278 0 19.018 28.7988 0 
19.1339 29.4698 0 19.2498 30.1408 0 19.3658 30.8118 0 
19.4817 31.4828 0 19.5976 32.1539 0 19.731 32.8595 0 
19.7506 33.4949 0 19.9441 34.1744 0 20.0908 34.7892 0 
20.1561 35.4017 0 26.5975 34.9007 0 17.9655 23.0489 0 
26.6087 34.407 0 17.9543 23.5425 0 24.2664 35.1147 0 
20.2966 22.8347 0 24.9037 34.6319 0 19.6593 23.3177 0 
24.8587 34.0858 0 24.4374 33.3259 0 24.3143 32.663 0 
24.2034 31.9891 0 24.0577 31.324 0 23.9354 30.6532 0 
23.8173 29.9822 0 23.7014 29.3108 0 23.5857 28.6395 0 
23.4682 27.9695 0 23.3523 27.2984 0 23.2354 26.6293 0 
23.1163 25.9667 0 23.0122 25.3106 0 23.0556 24.5884 0 
22.8787 23.8465 0 23.0068 23.3503 0 19.7043 23.8638 0 
20.1256 24.6237 0 20.2487 25.2866 0 20.3596 25.9605 0 
20.5053 26.6256 0 20.6276 27.2964 0 20.7457 27.9674 0 
20.8616 28.6388 0 20.9772 29.3101 0 21.0947 29.9801 0 
21.2107 30.6511 0 21.3276 31.3203 0 21.4467 31.9828 0 
21.5508 32.639 0 21.5074 33.3612 0 21.6843 34.1031 0 
21.5562 34.5993 0 26.5785 35.4013 0 17.9845 22.5483 0 
26.2871 33.7568 0 18.2758 24.1927 0 21.9956 36.2955 0 
22.5674 21.6541 0 25.2262 35.6416 0 19.3367 22.3079 0 
22.3744 21.9963 0 22.1886 35.9533 0 24.9372 35.6819 0 
19.6258 22.2677 0 24.9888 34.1318 0 19.5545 23.8088 0 
22.6216 21.5903 0 21.9413 36.3593 0 26.3359 35.0187 0 
18.227 22.9309 0 24.914 33.5017 0 24.6873 32.881 0 
24.5782 32.2338 0 24.4572 31.5639 0 24.3227 30.8987 0 
24.2019 30.2275 0 24.0819 29.5578 0 23.9703 28.8835 0 
23.8512 28.2144 0 23.7311 27.5463 0 23.6194 26.8722 0 
23.4943 26.2137 0 23.3771 25.5682 0 23.2998 24.9768 0 
23.1979 24.1564 0 23.1141 22.83 0 19.649 24.4479 0 
19.8757 25.0686 0 19.9848 25.7158 0 20.1058 26.3857 0 
20.2403 27.0509 0 20.3611 27.7221 0 20.4811 28.3918 0 
20.5927 29.066 0 20.7117 29.7352 0 20.8319 30.4033 0 
20.9436 31.0773 0 21.0686 31.7359 0 21.1858 32.3812 0 
21.2632 32.9728 0 21.3651 33.7932 0 21.4489 35.1196 0 
26.5652 35.0713 0 17.9978 22.8783 0 24.9 35.1843 0 
19.663 22.7653 0 24.0868 22.2419 0 20.4761 35.7077 0 
23.9528 21.7244 0 20.6102 36.2252 0 22.7228 22.3979 0 
21.8402 35.5517 0 21.3922 34.3525 0 21.3042 33.7777 0 
24.604 32.4499 0 24.6066 31.8532 0 24.4664 30.987 0 
24.3466 30.413 0 24.2758 29.8387 0 24.119 28.9743 0 
23.9989 28.4 0 23.8841 27.7468 0 23.8126 27.1579 0 
23.6553 26.2903 0 23.5352 25.7159 0 23.4713 25.1609 0 
19.8351 25.2919 0 23.2061 24.2209 0 19.6939 24.8203 0 
23.1622 23.59 0 21.6162 34.853 0 22.9455 23.0942 0 
22.0219 34.4078 0 24.3887 33.7515 0 20.421 25.4709 0 
20.2775 24.8902 0 22.5396 23.5383 0 20.1219 24.2898 0 
21.8311 33.9084 0 24.1279 32.6134 0 21.7263 33.372 0 
24.1036 32.0913 0 23.9178 30.7422 0 24.09 31.4249 0 
21.4857 32.142 0 23.8016 30.1034 0 21.2579 30.802 0 
23.5706 28.7297 0 21.0262 29.4599 0 23.7438 29.4136 0 
23.4444 28.0758 0 23.3369 27.4262 0 20.7943 28.1179 0 
23.1069 26.0457 0 20.5679 26.7713 0 23.2803 26.7298 0 
23.0031 25.431 0 22.9763 24.8324 0 22.7486 23.9457 0 
23.7528 20.8244 0 20.8102 37.1252 0 26.4332 36.1296 0 
18.1298 21.82 0 25.9029 34.6697 0 18.6589 23.2732 0 
24.2064 21.8839 0 20.3565 36.0657 0 25.5931 33.1932 0 
25.5162 32.5923 0 25.441 31.9332 0 25.3481 31.3226 0 
25.1709 30.6605 0 25.0933 29.9336 0 25.0002 29.3119 0 
24.8231 28.6478 0 24.733 27.895 0 24.6338 27.2361 0 
24.5372 26.6256 0 24.3595 25.9634 0 24.2818 25.2366 0 
24.1861 24.6032 0 24.0846 24.0036 0 18.9513 24.5614 0 
18.9969 25.3537 0 19.0503 25.8121 0 19.2238 26.6652 0 
19.2843 27.1466 0 19.456 28.0107 0 19.5119 28.4846 0 
19.687 29.3513 0 19.7478 29.8313 0 19.9196 30.6948 0 
19.9756 31.1686 0 20.1496 32.0343 0 20.2071 32.5103 0 
20.3897 33.3735 0 20.4884 33.9675 0 23.9892 23.4774 0 
20.5755 34.4823 0 21.9931 35.2932 0 22.5697 22.656 0 
24.5134 36.3609 0 20.0496 21.5887 0 24.3418 22.5539 0 
20.2207 35.3965 0 26.5601 35.618 0 18.0029 22.3316 0 
24.0741 21.2712 0 20.4889 36.6784 0 26.9178 35.8184 0 
17.6451 22.1312 0 24.3482 20.9464 0 20.2148 37.0032 0 
21.2733 37.0096 0 23.2897 20.94 0 26.7047 36.1168 0 
17.8583 21.8327 0 24.0536 20.7962 0 20.5094 37.1534 0 
25.0109 36.245 0 19.5521 21.7046 0 22.3179 21.189 0 
22.245 36.7606 0 23.2767 20.5446 0 18.6046 21.564 0 
21.2863 37.405 0 25.9584 36.3856 0 23.8517 20.8288 0 
20.7113 37.1208 0 24.6113 35.5803 0 19.9517 22.3692 0 
24.2478 34.2957 0 20.1565 23.7098 0 26.6365 36.0449 0 
17.9265 21.9047 0 22.426 33.9582 0 22.1026 24.1171 0 
24.0906 21.2739 0 20.4724 36.6757 0 22.4764 22.9856 0 
22.0865 34.964 0 24.3585 34.4202 0 20.2045 23.5294 0 
24.3386 33.8546 0 24.2584 33.0329 0 24.1485 32.3634 0 
24.0316 31.6869 0 23.9106 31.0125 0 23.7939 30.341 0 
23.6779 29.6699 0 23.5619 28.9989 0 23.446 28.3279 0 
23.3301 27.6569 0 23.2142 26.9859 0 23.0982 26.3149 0 
22.9785 25.6473 0 22.8657 24.9805 0 22.7321 24.2758 0 
22.5081 23.5377 0 20.2244 24.0949 0 20.3046 24.9167 0 
20.4144 25.5862 0 20.5314 26.2627 0 20.6524 26.9371 0 
20.7691 27.6086 0 20.8851 28.2797 0 21.001 28.9507 0 
21.117 29.6217 0 21.2329 30.2927 0 21.3488 30.9637 0 
21.4647 31.6347 0 21.5845 32.3023 0 21.6973 32.9691 0 
21.8309 33.6738 0 22.0549 34.4119 0 22.1816 33.5706 0 
22.6157 24.5044 0 22.7057 36.3646 0 21.8573 21.5849 0 
22.4517 35.7649 0 22.1112 22.1844 0 23.8207 33.992 0 
20.6909 23.8538 0 22.2338 34.8031 0 22.3285 23.1433 0 
26.7458 34.8598 0 17.8172 23.0898 0 25.5047 34.9551 0 
19.0583 22.9945 0 26.4546 33.9876 0 18.1071 23.959 0 
26.2998 33.0675 0 18.401 24.8524 0 26.1815 32.5019 0 
26.0678 31.8397 0 25.952 31.1696 0 25.8361 30.5028 0 
25.7202 29.8284 0 25.6042 29.1568 0 25.4883 28.4898 0 
25.3724 27.8154 0 25.2565 27.1438 0 25.1405 26.4727 0 
25.0246 25.8057 0 24.9087 25.1314 0 24.7912 24.452 0 
24.6698 23.7871 0 18.3997 25.4762 0 18.4818 26.1129 0 
18.6269 26.774 0 18.736 27.4426 0 18.8406 28.1507 0 
18.9405 28.7936 0 19.09 29.4579 0 19.1997 30.1267 0 
19.3042 30.8348 0 19.4042 31.4793 0 19.5536 32.1428 0 
19.6396 32.8209 0 19.7874 33.4899 0 19.8998 34.1622 0 
24.4969 23.1618 0 20.0672 34.7882 0 20.735 36.2344 0 
23.828 21.7151 0 26.1841 35.2086 0 18.3787 22.74 0 
23.4402 23.1878 0 21.1228 34.7618 0 22.0343 22.4925 0 
22.5287 35.4571 0 26.4153 33.4919 0 18.1657 24.5351 0 
26.3521 32.7848 0 26.2401 32.1316 0 26.1245 31.4626 0 
26.0093 30.7998 0 25.8934 30.1284 0 25.7768 29.4502 0 
25.6616 28.7868 0 25.5456 28.1153 0 25.4291 27.4371 0 
25.3131 26.7658 0 25.1979 26.1028 0 25.0819 25.4313 0 
24.9651 24.7513 0 24.848 24.0666 0 18.2133 25.0621 0 
18.3259 25.798 0 18.4413 26.4674 0 18.5578 27.1462 0 
18.6736 27.8166 0 18.789 28.4805 0 18.9049 29.1513 0 
19.0214 29.8302 0 19.1373 30.5006 0 19.2527 31.1645 0 
19.3692 31.8431 0 19.485 32.5134 0 19.6008 33.1793 0 
19.7176 33.8679 0 24.7062 23.2322 0 19.8569 34.7121 0 
26.6222 34.2127 0 17.9405 23.736 0 24.3929 36.0006 0 
20.17 21.9489 0 24.552 22.3555 0 20.011 35.5941 0 
21.8108 21.5074 0 22.7522 36.4422 0 24.4756 36.0016 0 
20.0874 21.948 0 23.6094 35.111 0 20.9521 22.8357 0 
26.7053 34.9641 0 17.8576 22.9855 0 24.3511 21.5624 0 
20.2119 36.3872 0 24.4934 21.8646 0 20.0696 36.085 0 
25.9577 34.0537 0 18.6053 23.8959 0 26.2951 32.4519 0 
26.1796 31.7849 0 26.0644 31.116 0 25.9487 30.4459 0 
25.8323 29.7743 0 25.7167 29.1034 0 25.601 28.433 0 
25.4844 27.761 0 25.3683 27.0893 0 25.253 26.4192 0 
25.1373 25.7489 0 25.0177 25.0713 0 24.91 24.3986 0 
24.7914 23.6831 0 18.2659 25.4927 0 18.3807 26.1595 0 
18.4971 26.8307 0 18.6133 27.5022 0 18.7285 28.1721 0 
18.8442 28.8424 0 18.9608 29.5145 0 19.077 30.1862 0 
19.1923 30.8565 0 19.3087 31.5278 0 19.4248 32.1993 0 
19.5434 32.8739 0 19.6518 33.5464 0 19.7702 34.2607 0 
26.4247 33.0858 0 18.1367 24.8566 0 26.7405 35.3473 0 
17.8225 22.6023 0 25.3659 35.414 0 19.1971 22.5356 0 
26.787 35.3349 0 17.776 22.6147 0 26.3098 34.5023 0 
18.2505 23.4403 0 24.1022 22.8668 0 20.4608 35.0828 0 
26.0091 33.5121 0 18.5539 24.4375 0 25.8816 32.9303 0 
25.7824 32.2593 0 25.6684 31.5942 0 25.5685 30.9161 0 
25.4533 30.244 0 25.3368 29.5724 0 25.2205 28.9011 0 
25.1044 28.23 0 24.9883 27.559 0 24.877 26.8857 0 
24.7614 26.2147 0 24.6321 25.5511 0 24.4643 24.9297 0 
24.3631 24.2342 0 18.6813 25.0192 0 18.7806 25.6902 0 
18.8946 26.3554 0 18.9945 27.0334 0 19.1097 27.7056 0 
19.2262 28.3772 0 19.3425 29.0485 0 19.4586 29.7196 0 
19.5747 30.3906 0 19.6845 31.0642 0 19.7998 31.7352 0 
19.93 32.3986 0 20.0984 33.0193 0 20.1997 33.715 0 
24.2558 23.5615 0 20.3071 34.388 0 23.1158 21.953 0 
21.4472 35.9966 0 26.3703 34.4025 0 18.1927 23.5471 0 
24.6294 34.6763 0 19.9336 23.2725 0 24.419 35.0021 0 
20.144 22.9475 0 23.7986 34.2629 0 20.7644 23.6867 0 
23.9465 33.3665 0 23.7577 32.8066 0 23.6477 32.137 0 
23.5304 31.4641 0 23.4132 30.7921 0 23.2969 30.1209 0 
23.1809 29.4498 0 23.065 28.7788 0 22.9491 28.1078 0 
22.8331 27.4368 0 22.7172 26.7658 0 22.6007 26.0953 0 
22.4834 25.4265 0 22.3649 24.7393 0 22.2058 24.0555 0 
21.951 23.4449 0 20.6165 24.5831 0 20.8053 25.143 0 
20.9153 25.8125 0 21.0326 26.4855 0 21.1498 27.1575 0 
21.2661 27.8287 0 21.3821 28.4998 0 21.498 29.1708 0 
21.6139 29.8418 0 21.7299 30.5128 0 21.8458 31.1838 0 
21.9623 31.8543 0 22.0796 32.5231 0 22.1981 33.2103 0 
22.3572 33.8941 0 22.612 34.5046 0 21.7052 22.1166 0 
22.8578 35.833 0 24.4692 22.1571 0 20.0938 35.7925 0 
23.984 35.5413 0 20.5789 22.4083 0 21.2999 36.4031 0 
23.2631 21.5465 0 24.0071 34.7502 0 20.5319 23.3174 0 
22.6833 34.438 0 21.8622 23.4936 0 26.5025 33.9558 0 
18.0605 23.9938 0 24.4111 21.4451 0 20.1519 36.5045 0 
23.7911 33.5227 0 20.8091 24.4435 0 24.6211 22.9069 0 
19.9417 35.042 0 26.4229 33.3991 0 18.1396 24.5486 0 
26.3277 32.782 0 26.2123 32.1193 0 26.0964 31.4501 0 
25.9813 30.7822 0 25.8651 30.1104 0 25.7487 29.4375 0 
25.6335 28.7692 0 25.5174 28.0974 0 25.4008 27.4242 0 
25.2849 26.7533 0 25.1698 26.0852 0 25.0537 25.4134 0 
24.9371 24.74 0 24.8187 24.0603 0 18.2344 25.1641 0 
18.3491 25.8244 0 18.4651 26.4941 0 18.5818 27.1678 0 
18.6975 27.8379 0 18.8128 28.5067 0 18.9288 29.1778 0 
19.0455 29.8517 0 19.1612 30.5219 0 19.2766 31.191 0 
19.3933 31.8648 0 19.509 32.5349 0 19.6245 33.2043 0 
19.7436 33.8861 0 24.6758 23.3516 0 19.8866 34.5958 0 
25.7784 35.7397 0 18.7846 22.2097 0 24.5836 22.6983 0 
19.9796 35.2506 0 23.7427 32.9843 0 23.68 32.4077 0 
22.3032 33.0506 0 23.6233 31.7779 0 22.181 32.337 0 
23.5119 31.1187 0 22.0856 31.6386 0 23.3971 30.4635 0 
21.9626 30.9972 0 23.292 29.7993 0 21.8554 30.2961 0 
23.1763 29.1241 0 21.7311 29.6551 0 23.049 28.4514 0 
21.6236 28.9541 0 22.934 27.7833 0 21.4993 28.313 0 
22.8315 27.115 0 21.3918 27.6121 0 22.7042 26.4239 0 
21.2684 26.9702 0 22.4704 25.7461 0 21.1599 26.27 0 
22.5427 25.1098 0 21.0701 25.6245 0 20.9653 25.0245 0 
23.0111 36.0664 0 21.5519 21.883 0 26.3129 35.6433 0 
18.2501 22.3063 0 23.9487 35.6825 0 20.614 22.2665 0 
24.3337 21.8323 0 20.2293 36.1172 0 22.6387 33.5391 0 
23.3263 32.6623 0 23.2137 32.1334 0 23.0855 31.5037 0 
22.9684 30.8477 0 22.8547 30.1844 0 22.7413 29.5133 0 
22.6232 28.8436 0 22.5064 28.1733 0 22.398 27.5032 0 
22.2955 26.8393 0 22.211 26.2733 0 22.0959 25.3407 0 
22.0585 24.8105 0 25.4931 35.8552 0 19.0699 22.0944 0 
21.2212 33.2787 0 24.6355 31.4111 0 20.9626 32.5128 0 
20.9749 32.0353 0 20.7336 31.1727 0 24.2915 29.3982 0 
20.7444 30.694 0 20.5058 29.8342 0 20.5153 29.354 0 
20.27 28.4887 0 23.8279 26.7149 0 20.2807 28.01 0 
20.043 27.1493 0 20.0593 26.662 0 23.4707 24.7021 0 
19.8259 25.8251 0 24.9834 33.5124 0 19.3893 24.4117 0 
22.2261 36.6252 0 22.3368 21.3244 0 25.1039 32.9354 0 
25.0615 32.2147 0 20.8776 33.0727 0 24.7373 30.671 0 
20.6458 31.728 0 24.7335 30.1873 0 20.4139 30.386 0 
24.3896 28.6582 0 24.3626 28.1314 0 20.1821 29.0439 0 
24.291 27.5148 0 19.9502 27.7019 0 23.926 25.9741 0 
23.9232 25.4935 0 19.7205 26.354 0 19.4053 25.1876 0 
25.3147 33.3519 0 24.8387 36.074 0 19.7243 21.8756 0 
23.8083 21.2965 0 20.7547 36.6531 0 26.2472 33.5016 0 
18.2931 24.3468 0 23.1757 21.4796 0 21.3873 36.47 0 
26.5228 33.7 0 18.0401 24.2492 0 23.1864 36.4233 0 
21.3765 21.5262 0 24.0343 36.2737 0 20.5286 21.6757 0 
23.8064 33.8503 0 20.7566 24.0992 0 24.1279 20.8391 0 
20.4351 37.1105 0 26.7131 34.6972 0 17.8498 23.2522 0 
18.8565 26.627 0 19.0465 27.9178 0 19.3196 29.3114 0 
19.5102 30.6019 0 19.783 31.9953 0 20.0188 33.3401 0 
18.6344 25.2609 0 21.8031 22.9205 0 22.7599 35.0291 0 
24.4166 33.0906 0 21.5101 32.7926 0 21.2864 31.5057 0 
21.0562 30.1645 0 20.8242 28.8223 0 20.5936 27.4796 0 
20.3958 26.1099 0 24.0452 36.2901 0 20.5178 21.6595 0 
20.9715 35.4228 0 23.5911 22.5261 0 24.4787 35.472 0 
20.0843 22.4776 0 26.3492 36.0306 0 18.2138 21.919 0 
23.8732 34.8748 0 20.6898 23.0748 0 26.2083 33.9398 0 
18.3425 23.9812 0 24.0822 24.6657 0 20.4807 33.2837 0 
25.5036 32.6874 0 19.0593 25.2622 0 25.4014 32.0115 0 
19.1616 25.9381 0 24.4752 26.6453 0 20.0792 31.3011 0 
24.3596 25.9809 0 20.2025 31.9666 0 24.5945 27.3175 0 
19.9682 30.6322 0 24.7152 27.989 0 19.8477 29.9607 0 
24.8325 28.6598 0 19.7304 29.29 0 24.9493 29.3309 0 
19.6136 28.6187 0 25.066 30.0018 0 19.4969 27.9478 0 
25.182 30.6728 0 19.3809 27.2768 0 25.2936 31.3434 0 
19.2694 26.6062 0 23.95 23.9985 0 20.6129 33.951 0 
25.2108 33.8813 0 19.3522 24.0683 0 24.6349 24.5048 0 
19.9276 33.4437 0 24.2221 25.3299 0 20.3387 32.625 0 
21.4087 20.9453 0 23.1543 37.0043 0 19.6301 31.6781 0 
19.1666 28.9935 0 19.8682 33.03 0 18.7075 26.3121 0 
24.0782 36.846 0 20.4847 21.1036 0 
METADATA
COMPONENT_NAMES
D1
D2
D3

S 6 13235 double
0 0 0 0 0 0 0 0 0 
0 0 0 0 0 0 0 0 0 
0 0 0 0 0 0 0 0 0 
0 0 0 0 0 0 0 0 0 
0 0 0 0 0 0 0 0 0 
0 0 0 -5.83137e-12 -1.2967e-11 -5.63952e-12 -5.63787e-12 3.53492e-12 6.73609e-13 
1.71854e-11 -4.4624e-11 -8.2316e-12 -1.12125e-11 3.23491e-11 5.91844e-12 4.58646e-13 1.52628e-12 5.95477e-13 
-1.42862e-11 2.39094e-12 -6.89688e-13 -5.06891e-11 -1.60063e-10 -6.32257e-11 -7.36031e-11 3.41394e-12 -6.20738e-12 
0 0 0 0 0 0 0 0 0 
0 0 0 0 0 0 0 0 0 
0 0 0 0 0 0 -9.20361e-11 -5.64829e-11 -4.45557e-11 
-3.93465e-11 9.17025e-11 -7.05928e-11 2.52172e-10 4.43345e-10 2.08655e-10 -3.54435e-10 -2.31869e-10 -8.38993e-11 
-5.377e-11 2.08436e-11 -9.87792e-12 -9.13935e-11 2.04726e-11 1.09037e-10 1.17442e-10 4.00623e-10 1.5542e-10 
-1.30455e-10 -1.35075e-10 -2.57972e-11 0 0 0 0 0 0 
0 0 0 0 0 0 0 0 0 
0 0 0 0 0 0 0 0 0 
0 0 0 0 0 0 0 0 0 
0 0 0 0 0 0 0 0 0 
0 0 0 0 0 0 0 0 0 
0 0 0 0 0 0 0 0 0 
0 0 0 0 0 0 0 0 0 
0 0 0 0 0 0 0 0 0 
0 0 0 0 0 0 0 0 0 
0 0 0 0 0 0 0 0 0 
0 0 0 0 0 0 0 0 0 
0 0 0 0 0 0 0 0 0 
0 0 0 0 0 0 0 0 0 
0 0 0 0 0 0 0 0 0 
0 0 0 0 0 0 0 0 0 
0 0 0 0 0 0 0 0 0 
0 0 0 0 0 0 0 0 0 
0 0 0 0 0 0 0 0 0 
0 0 0 0 0 0 0 0 0 
0 0 0 0 0 0 0 0 0 
0 0 0 0 0 0 0 0 0 
0 0 0 0 0 0 0 0 0 
0 0 0 0 0 0 0 0 0 
0 0 0 0 0 0 0 0 0 
0 0 0 0 0 0 0 0 0 
0 0 0 0 0 0 0 0 0 
0 0 0 0 0 0 0 0 0 
0 0 0 0 0 0 0 0 0 
0 0 0 0 0 0 0 0 0 
0 0 0 0 0 0 0 0 0 
0 0 0 0 0 0 0 0 0 
0 0 0 0 0 0 0 0 0 
0 0 0 0 0 0 0 0 0 
0 0 0 0 0 0 0 0 0 
0 0 0 0 0 0 0 0 0 
0 0 0 0 0 0 0 0 0 
0 0 0 0 0 0 0 0 0 
0 0 0 0 0 0 0 0 0 
0 0 0 0 0 0 0 0 0 
0 0 0 0 0 0 0 0 0 
0 0 0 0 0 0 0 0 0 
0 0 0 0 0 0 0 0 0 
0 0 0 0 0 0 0 0 0 
0 0 0 0 0 0 0 0 0 
0 0 0 0 0 0 0 0 0 
0 0 0 0 0 0 0 0 0 
0 0 0 0 0 0 0 0 0 
0 0 0 0 0 0 0 0 0 
0 0 0 0 0 0 0 0 0 
0 0 0 0 0 0 0 0 0 
0 0 0 0 0 0 0 0 0 
0 0 0 0 0 0 0 0 0 
0 0 0 0 0 0 0 0 0 
0 0 0 0 0 0 0 0 0 
0 0 0 0 0 0 0 0 0 
0 0 0 0 0 0 0 0 0 
0 0 0 0 0 0 0 0 0 
0 0 0 0 0 0 0 0 0 
0 0 0 0 0 0 0 0 0 
0 0 0 0 0 0 0 0 0 
0 0 0 0 0 0 0 0 0 
0 0 0 0 0 0 0 0 0 
0 0 0 0 0 0 0 0 0 
0 0 0 0 0 0 0 0 0 
0 0 0 0 0 0 0 0 0 
0 0 0 0 0 0 0 0 0 
0 0 0 0 0 0 0 0 0 
0 0 0 0 0 0 0 0 0 
0 0 0 0 0 0 0 0 0 
0 0 0 0 0 0 0 0 0 
0 0 0 0 0 0 0 0 0 
0 0 0 0 0 0 0 0 0 
0 0 0 0 0 0 0 0 0 
0 0 0 0 0 0 0 0 0 
0 0 0 0 0 0 0 0 0 
0 0 0 0 0 0 0 0 0 
0 0 0 0 0 0 0 0 0 
0 0 0 0 0 0 0 0 0 
0 0 0 0 0 0 0 0 0 
0 0 0 0 0 0 0 0 0 
0 0 0 0 0 0 0 0 0 
0 0 0 0 0 0 0 0 0 
0 0 0 0 0 0 0 0 0 
0 0 0 0 0 0 0 0 0 
0 0 0 0 0 0 0 0 0 
0 0 0 0 0 0 0 0 0 
0 0 0 0 0 0 0 0 0 
0 0 0 0 0 0 0 0 0 
0 0 0 0 0 0 0 0 0 
0 0 0 0 0 0 0 0 0 
0 0 0 0 0 0 0 0 0 
0 0 0 0 0 0 0 0 0 
0 0 0 0 0 0 0 0 0 
0 0 0 0 0 0 0 0 0 
0 0 0 0 0 0 0 0 0 
0 0 0 0 0 0 0 0 0 
0 0 0 0 0 0 0 0 0 
0 0 0 0 0 0 0 0 0 
0 0 0 0 0 0 0 0 0 
0 0 0 0 0 0 0 0 0 
0 0 0 0 0 0 0 0 0 
0 0 0 0 0 0 0 0 0 
0 0 0 0 0 0 0 0 0 
0 0 0 0 0 0 0 0 0 
0 0 0 0 0 0 0 0 0 
0 0 0 0 0 0 0 0 0 
0 0 0 0 0 0 0 0 0 
0 0 0 0 0 0 0 0 0 
0 0 0 0 0 0 0 0 0 
0 0 0 0 0 0 0 0 0 
0 0 0 0 0 0 0 0 0 
0 0 0 0 0 0 0 0 0 
0 0 0 0 0 0 0 0 0 
0 0 0 0 0 0 0 0 0 
0 0 0 0 0 0 0 0 0 
0 0 0 0 0 0 0 0 0 
0 0 0 0 0 0 0 0 0 
0 0 0 0 0 0 0 0 0 
0 0 0 0 0 0 0 0 0 
0 0 0 0 0 0 0 0 0 
0 0 0 0 0 0 0 0 0 
0 0 0 0 0 0 0 0 0 
0 0 0 0 0 0 0 0 0 
0 0 0 0 0 0 0 0 0 
0 0 0 0 0 0 0 0 0 
0 0 0 0 0 0 0 0 0 
0 0 0 0 0 0 0 0 0 
0 0 0 0 0 0 0 0 0 
0 0 0 0 0 0 0 0 0 
0 0 0 0 0 0 0 0 0 
0 0 0 0 0 0 0 0 0 
0 0 0 0 0 0 0 0 0 
0 0 0 0 0 0 0 0 0 
0 0 0 0 0 0 0 0 0 
0 0 0 0 0 0 0 0 0 
0 0 0 0 0 0 0 0 0 
0 0 0 0 0 0 0 0 0 
0 0 0 0 0 0 0 0 0 
0 0 0 0 0 0 0 0 0 
0 0 0 0 0 0 0 0 0 
0 0 0 0 0 0 0 0 0 
0 0 0 0 0 0 0 0 0 
0 0 0 0 0 0 0 0 0 
0 0 0 0 0 0 0 0 0 
0 0 0 0 0 0 0 0 0 
0 0 0 0 0 0 0 0 0 
0 0 0 0 0 0 0 0 0 
0 0 0 0 0 0 0 0 0 
0 0 0 0 0 0 0 0 0 
0 0 0 0 0 0 0 0 0 
0 0 0 0 0 0 0 0 0 
0 0 0 0 0 0 0 0 0 
0 0 0 0 0 0 0 0 0 
0 0 0 0 0 0 0 0 0 
0 0 0 0 0 0 0 0 0 
0 0 0 0 0 0 0 0 0 
0 0 0 0 0 0 0 0 0 
0 0 0 0 0 0 0 0 0 
0 0 0 0 0 0 0 0 0 
0 0 0 0 0 0 0 0 0 
0 0 0 0 0 0 0 0 0 
0 0 0 0 0 0 0 0 0 
0 0 0 0 0 0 0 0 0 
0 0 0 0 0 0 0 0 0 
0 0 0 0 0 0 0 0 0 
0 0 0 0 0 0 0 0 0 
0 0 0 0 0 0 0 0 0 
0 0 0 9.00504e-12 2.86696e-11 1.13024e-11 -8.11228e-12 -1.99271e-12 -1.49453e-12 
1.23468e-12 8.26182e-12 2.84895e-12 -1.91334e-11 1.61908e-12 -6.22721e-12 3.37434e-11 5.00126e-11 2.51268e-11 
-3.46986e-12 1.24544e-12 -2.83338e-12 -3.21469e-11 -1.82935e-11 -1.51321e-11 -1.4993e-11 0 -1.1209e-12 
-1.51257e-11 -1.78006e-11 -9.87792e-12 -2.26688e-11 -1.51461e-27 3.73633e-13 -6.8015e-12 -2.72614e-12 -2.85829e-12 
-2.33631e-11 1.19562e-12 -1.19562e-12 1.46333e-11 1.37005e-11 8.50015e-12 -2.55344e-11 7.47265e-13 -1.99271e-12 
3.17633e-11 4.52317e-11 2.30985e-11 -1.77547e-11 5.33761e-13 2.96237e-12 2.65738e-11 2.35552e-11 1.50387e-11 
-8.98637e-12 -1.99271e-12 9.96354e-13 1.41091e-11 1.30324e-12 4.62371e-12 1.36121e-11 1.49453e-12 -3.73633e-12 
1.01116e-11 2.51166e-11 1.05685e-11 -1.04635e-11 -1.61559e-27 -3.41607e-12 -4.76131e-12 1.98934e-11 4.53964e-12 
-1.68256e-11 2.39125e-12 1.19562e-12 1.54287e-11 2.81618e-11 1.30771e-11 -1.48974e-11 -6.22721e-13 1.36999e-12 
1.15265e-11 2.17333e-12 4.10996e-12 4.94468e-12 9.34082e-12 5.3554e-12 1.91376e-11 2.99017e-11 1.47118e-11 
1.13576e-12 1.64995e-12 2.22686e-12 7.09136e-12 1.27112e-11 5.94076e-12 -7.05011e-12 -1.90968e-12 -4.88184e-13 
-6.77886e-12 -1.26812e-11 -5.83801e-12 -9.2384e-12 -8.46901e-12 -6.53857e-13 3.06225e-11 5.96721e-11 2.70884e-11 
-9.6285e-12 -7.72174e-12 -7.00561e-14 2.40435e-11 3.16901e-11 1.67201e-11 -4.19421e-12 -5.72904e-12 4.86501e-13 
3.74851e-12 -1.13768e-11 -2.2885e-12 -2.43718e-11 3.73633e-12 -4.35905e-13 1.79989e-11 2.94525e-11 1.42354e-11 
-1.91965e-11 2.63037e-11 5.97812e-13 3.97796e-11 4.89582e-11 2.66213e-11 -1.67973e-11 5.16988e-27 2.98906e-13 
5.80486e-12 1.5679e-11 6.44516e-12 -1.49183e-11 1.34508e-11 9.96354e-13 9.4227e-12 2.10906e-11 9.154e-12 
-9.0233e-12 -1.5568e-12 1.43226e-12 -2.03107e-12 1.26173e-11 3.17588e-12 -1.09722e-12 -6.2604e-27 -2.61543e-12 
1.86962e-11 2.33375e-11 1.26101e-11 -1.54053e-11 -8.96719e-12 -2.98906e-12 9.18378e-12 -1.08184e-11 -4.90393e-13 
-3.05199e-11 -2.01948e-26 5.60449e-12 2.51064e-11 2.73579e-11 1.57393e-11 -1.75855e-11 4.98177e-13 -1.1209e-12 
1.92214e-11 2.49473e-11 1.32506e-11 -6.92935e-12 3.52282e-12 4.93729e-13 1.02783e-11 1.74328e-11 8.31333e-12 
-6.94651e-12 -1.5568e-12 5.49746e-13 1.15269e-11 1.13582e-11 6.8655e-12 -1.5117e-11 -3.59544e-13 4.39841e-14 
2.5919e-11 6.71156e-11 2.79104e-11 -7.87245e-12 3.52559e-11 4.50719e-12 -2.02809e-11 -1.31459e-11 -1.0028e-11 
-3.90571e-11 5.87977e-12 5.31493e-12 9.12153e-11 1.64508e-10 7.67169e-11 2.38024e-11 5.43601e-12 -5.37071e-12 
2.56865e-11 6.3207e-11 2.6668e-11 2.45358e-11 -1.99366e-12 -1.20195e-12 2.45893e-12 6.99865e-12 2.83727e-12 
-2.04042e-11 -5.45128e-12 -1.00415e-11 -1.82118e-11 -6.42988e-11 -2.47532e-11 -3.97597e-11 -9.16552e-12 -1.95444e-12 
-9.58546e-11 -2.04803e-10 -9.01973e-11 -4.23888e-11 -3.61769e-11 -4.66802e-12 -4.16387e-11 -1.63392e-10 -6.15093e-11 
-1.77314e-11 -3.10723e-11 -2.86264e-12 -6.01025e-11 -1.22744e-10 -5.4854e-11 3.04886e-11 -4.38614e-11 -1.74552e-14 
-7.73794e-11 -9.97459e-11 -5.31376e-11 1.42631e-11 -4.3034e-11 -5.85264e-12 4.88001e-11 4.23897e-11 2.73569e-11 
-3.127e-12 -3.37048e-11 -3.31742e-12 2.05301e-11 4.47388e-11 1.95807e-11 -3.51196e-11 -3.75754e-11 -3.5832e-13 
-3.50354e-11 -8.76407e-11 -3.68028e-11 -2.09545e-11 3.64236e-11 6.47678e-12 -5.0686e-11 -1.42108e-10 -5.78383e-11 
-1.74959e-11 -9.31412e-12 -2.23509e-12 -1.48004e-11 -1.00695e-11 -7.46098e-12 2.45703e-12 3.33676e-12 1.28709e-12 
8.29093e-11 1.37651e-10 6.6168e-11 3.91141e-11 -2.05757e-11 -4.69103e-12 6.38572e-11 1.73049e-10 7.1072e-11 
2.50241e-11 -2.36534e-11 -2.23366e-12 3.25965e-11 1.02145e-10 4.04224e-11 5.21366e-13 -8.74259e-12 -1.72324e-12 
9.23274e-11 1.75988e-10 8.04945e-11 1.17471e-11 -8.74259e-12 -4.7123e-12 8.03549e-11 9.89888e-11 5.38031e-11 
5.12923e-12 -9.83263e-12 -6.01743e-12 3.13181e-11 6.66437e-11 2.93886e-11 1.76182e-11 -4.46552e-12 -2.24518e-12 
5.94583e-11 1.27708e-10 5.615e-11 3.83707e-11 -1.16971e-11 -5.22273e-12 6.47772e-11 1.8147e-10 7.38742e-11 
2.7963e-11 -1.16971e-11 -5.22273e-12 1.1046e-10 2.32115e-10 1.02772e-10 1.21763e-11 -2.63207e-11 -4.18899e-12 
3.41799e-11 7.53412e-11 3.28563e-11 4.99049e-12 3.2184e-12 -4.30179e-12 2.51822e-11 1.86029e-11 1.31355e-11 
-1.26286e-11 6.27071e-11 -1.02734e-12 5.79008e-11 1.0965e-10 5.02653e-11 1.24283e-11 4.69832e-11 -1.41865e-12 
8.60344e-11 1.97459e-10 8.50482e-11 1.31269e-11 2.22821e-11 -9.16166e-13 8.19943e-11 1.82117e-10 7.92335e-11 
6.03217e-11 2.64173e-11 5.04641e-13 8.09488e-11 1.48252e-10 6.87601e-11 3.06762e-11 3.22209e-11 -6.38701e-12 
4.23344e-11 1.19028e-10 4.84088e-11 1.29138e-11 2.61489e-11 -5.37044e-12 9.14258e-11 2.15887e-10 9.21939e-11 
1.2673e-11 2.52136e-11 -2.54297e-12 6.02072e-11 1.1073e-10 5.12811e-11 9.81837e-12 1.81325e-11 -1.70075e-12 
1.66206e-11 -1.09152e-12 4.65873e-12 -1.02381e-11 5.69323e-12 -5.69677e-12 1.38312e-11 6.32492e-14 4.16834e-12 
3.76604e-11 9.14497e-12 -2.21389e-12 -6.30116e-12 2.24141e-11 4.83387e-12 1.35056e-11 2.16525e-11 -6.34229e-12 
1.41244e-11 2.18377e-11 1.07886e-11 -1.04907e-11 1.56083e-11 -2.99263e-12 3.914e-11 5.32174e-11 2.77072e-11 
7.29396e-12 2.18346e-11 -5.26674e-12 -2.13173e-11 -3.29762e-11 -1.62881e-11 -5.59926e-12 1.93293e-11 -7.65514e-13 
-2.90837e-11 -5.69686e-11 -2.58157e-11 -1.84107e-11 2.19903e-11 -1.6053e-12 1.31096e-11 -2.60122e-12 3.15253e-12 
-1.30533e-11 1.11094e-11 7.50167e-14 1.88909e-11 1.09997e-11 8.96719e-12 1.3703e-11 -8.6796e-12 -1.82396e-12 
6.46443e-12 -1.5455e-11 -2.69716e-12 2.90617e-11 -2.56533e-12 -2.0207e-12 6.4879e-12 4.15006e-11 1.43965e-11 
1.33769e-11 -2.53441e-11 -3.58608e-12 3.33684e-11 7.42845e-11 3.22959e-11 -8.15863e-12 -1.76781e-11 -2.83272e-12 
3.40041e-11 4.79615e-11 2.45897e-11 2.3142e-11 -8.42168e-12 -1.80461e-12 -7.71463e-12 -6.64688e-12 -4.30845e-12 
5.58887e-12 -1.64176e-11 -4.10949e-12 -9.68437e-12 -1.46018e-11 -7.28584e-12 -1.29453e-11 -1.14493e-11 -4.28395e-12 
-1.4637e-11 -6.44486e-11 -2.37257e-11 4.91705e-12 -1.11398e-11 -5.72688e-12 9.29029e-12 -9.75733e-12 -1.40112e-13 
5.85254e-12 -5.8012e-12 -4.43986e-12 3.61538e-12 -2.05456e-11 -5.07907e-12 -1.02014e-11 1.27815e-12 3.57624e-13 
-2.66792e-11 -2.77311e-11 -1.63231e-11 -1.59795e-11 -2.47014e-13 -2.89492e-12 -1.81777e-11 -4.88426e-11 -2.01061e-11 
1.22194e-11 -1.7246e-11 -4.22787e-12 -4.40142e-12 -3.54138e-11 -1.19446e-11 -5.34512e-13 -1.1664e-11 -2.51555e-12 
-4.40309e-11 -9.15278e-11 -4.06676e-11 -2.42703e-11 -1.77532e-12 -1.83856e-12 -3.52313e-11 -6.62334e-11 -3.04394e-11 
1.03942e-11 6.4772e-12 3.21209e-12 -8.61215e-12 -2.92182e-11 -1.13491e-11 3.64906e-13 -2.04245e-12 3.8058e-12 
-8.57424e-12 -4.81712e-11 -1.70236e-11 -1.9692e-11 -1.17502e-11 1.95244e-12 -9.42864e-12 -1.48575e-11 -7.28584e-12 
1.69224e-11 -4.83675e-12 2.8613e-12 -1.29548e-11 -1.90375e-11 -9.59769e-12 -3.9953e-14 8.86695e-13 3.56456e-12 
-7.74533e-12 -2.97347e-11 -1.1244e-11 -1.77388e-11 -4.11505e-12 2.98598e-12 7.5943e-12 -1.15641e-11 -1.19095e-12 
1.62496e-11 -3.99868e-12 8.6327e-13 -3.40842e-12 -8.85141e-12 -3.67795e-12 5.81129e-12 -6.03544e-13 1.39026e-12 
-6.58109e-14 9.87367e-12 2.94236e-12 -7.12652e-12 -5.43924e-12 1.58763e-12 1.31586e-11 2.24533e-11 1.06836e-11 
-9.64977e-12 -5.4608e-12 3.07843e-12 3.51797e-12 -6.67049e-12 -9.45758e-13 9.08932e-12 -2.98906e-12 3.73633e-12 
6.90854e-12 1.25904e-11 5.84969e-12 4.60791e-12 -2.98906e-12 2.2418e-12 -1.08156e-11 -6.34814e-12 -5.14913e-12 
-5.58588e-13 -5.52547e-12 3.81453e-12 -4.69307e-12 -1.84255e-11 -6.93556e-12 1.76719e-12 -8.53608e-12 3.06354e-12 
-1.04446e-11 -3.55589e-11 -1.38011e-11 -8.02861e-12 -2.98906e-12 3.73633e-12 -5.19628e-12 -1.60541e-11 -6.37511e-12 
-1.32464e-12 -1.15683e-11 3.80336e-12 -5.69107e-12 -9.60452e-12 -4.58868e-12 -7.83449e-12 -8.60075e-12 1.1842e-12 
-3.14335e-13 -8.90972e-12 -2.76722e-12 2.05429e-12 2.98906e-12 -7.47265e-13 -1.57656e-12 -3.32737e-12 -1.47118e-12 
3.06801e-12 -5.97812e-12 3.73633e-13 6.63943e-12 5.03659e-12 3.50281e-12 -8.64723e-13 4.72288e-12 -1.56863e-12 
5.61883e-12 9.79353e-12 4.62371e-12 2.1699e-12 4.72288e-12 -1.195e-12 6.83943e-12 1.95484e-11 7.91634e-12 
-6.238e-12 3.57704e-12 -9.43956e-14 4.96731e-12 8.57688e-12 4.06326e-12 5.02839e-12 -3.69103e-12 4.73925e-13 
-5.6187e-12 -1.77333e-11 -7.00561e-12 7.20368e-12 1.28876e-12 1.24469e-12 -9.92266e-13 -8.58207e-12 -2.8723e-12 
-1.33276e-12 -1.49453e-12 6.56332e-28 2.67006e-12 5.61991e-12 2.48699e-12 -2.06663e-12 1.30053e-12 -4.07147e-13 
3.96257e-12 9.9319e-12 4.16834e-12 -5.186e-13 4.2896e-12 -2.46213e-12 -1.1586e-12 -8.29898e-12 -2.83727e-12 
-3.86173e-12 3.79007e-12 -1.98798e-12 -4.29082e-12 -1.27562e-11 -5.1141e-12 3.26758e-12 -3.40788e-28 -2.61543e-12 
2.31443e-12 2.82302e-12 1.54124e-12 8.70446e-13 7.47265e-13 -2.05498e-12 3.13709e-12 3.16797e-12 1.89152e-12 
-2.38326e-12 1.5592e-12 -1.10973e-12 1.99065e-12 2.3684e-12 1.30771e-12 -4.28561e-13 0 -1.36999e-12 
2.2601e-12 1.00918e-12 9.80786e-13 -1.93794e-13 1.20902e-12 -8.63858e-13 1.87105e-12 1.98204e-12 1.15593e-12 
1.44662e-12 5.3086e-13 -5.5843e-13 1.75806e-12 1.16095e-12 8.75702e-13 3.29042e-13 5.45708e-13 -8.65235e-13 
1.62656e-12 2.22653e-12 1.15593e-12 -4.78561e-13 6.12688e-13 -4.56002e-13 3.22617e-13 2.61184e-13 1.7514e-13 
-2.20945e-13 1.20353e-12 -6.67593e-13 -1.57246e-12 -4.96611e-12 -1.96157e-12 2.00615e-12 9.53637e-13 -5.58315e-13 
1.28254e-12 -2.32041e-12 -3.11361e-13 -3.50547e-12 9.99367e-13 -6.30063e-13 -1.50686e-12 -5.84904e-12 -2.20677e-12 
2.40282e-12 -3.13752e-13 -6.85405e-13 -7.81348e-12 -1.873e-11 -7.96305e-12 -1.55955e-12 1.33867e-12 -5.30739e-13 
-8.64026e-13 -6.07487e-12 -2.08167e-12 -3.89916e-12 -2.89271e-12 -9.56358e-13 -8.14652e-12 -2.00316e-11 -8.45344e-12 
-2.02493e-12 1.32754e-12 -2.43461e-14 -1.10119e-11 -2.81261e-11 -1.17414e-11 -3.72585e-12 2.94836e-12 8.88391e-13 
-5.9625e-11 -1.44316e-10 -6.11824e-11 6.10013e-12 4.26721e-13 -3.2561e-12 1.26269e-11 5.66508e-11 2.07833e-11 
-8.94903e-11 2.19198e-11 4.35905e-13 -1.07701e-10 -2.61528e-10 -1.10769e-10 -2.46506e-11 -6.06353e-11 -5.97812e-12 
4.62006e-11 -5.16494e-11 -1.63464e-12 3.36219e-11 -1.59417e-11 1.19562e-11 2.71122e-11 -5.91045e-11 -9.59769e-12 
2.5137e-11 -7.17375e-11 5.97812e-12 9.02878e-11 1.86434e-10 8.30165e-11 -1.08212e-10 -1.19562e-11 5.97812e-12 
-1.50716e-11 -1.40297e-10 -4.66107e-11 2.73982e-11 -4.7825e-11 1.19562e-11 -5.30286e-12 -1.22822e-10 -3.84375e-11 
5.52335e-11 -6.37667e-11 -1.59417e-11 2.80771e-11 7.34265e-11 3.04511e-11 1.18069e-11 1.19562e-11 5.47995e-12 
-7.62026e-11 -1.33405e-10 -6.28824e-11 -1.47229e-10 -4.7825e-11 -7.17375e-12 1.01352e-10 6.24862e-11 4.91514e-11 
-1.64312e-11 -1.00432e-10 -5.38031e-12 6.55386e-11 1.69383e-10 7.04765e-11 -7.96817e-11 -1.19562e-11 3.36269e-12 
-1.61795e-11 6.2728e-11 1.39645e-11 2.33047e-11 7.97083e-12 -7.47266e-12 4.3873e-11 9.23473e-11 4.08661e-11 
7.57655e-12 -5.57958e-11 -1.17072e-11 -2.53471e-10 -4.11751e-10 -1.99567e-10 -4.40693e-12 2.49088e-11 3.11361e-13 
5.55352e-11 9.20498e-11 4.42755e-11 -2.9178e-11 -4.02454e-11 3.72317e-12 -5.90602e-11 -1.86759e-10 -7.37458e-11 
-1.4777e-11 -1.0815e-11 8.44676e-12 1.29044e-10 2.97208e-10 1.27876e-10 -4.62291e-11 -2.14216e-11 1.80589e-11 
1.629e-10 8.5799e-11 7.46098e-11 -5.6552e-11 -2.69016e-11 8.59355e-12 2.65927e-10 6.1977e-10 2.65709e-10 
-6.45561e-11 1.05215e-10 2.03256e-11 5.77048e-11 3.78378e-10 1.30825e-10 -1.44617e-10 1.70804e-11 -1.19562e-11 
1.75224e-10 2.24797e-10 1.20006e-10 -3.8593e-12 -7.17375e-11 5.97812e-12 4.90512e-11 7.5026e-11 3.72232e-11 
-7.12361e-11 4.38396e-11 1.99271e-12 8.29906e-11 2.56615e-10 1.01882e-10 -8.93164e-12 -5.46571e-11 -2.26315e-11 
7.32441e-12 -2.52276e-11 -5.37097e-12 4.07876e-11 1.59417e-11 2.14216e-11 -4.3435e-11 -5.27102e-10 -1.71161e-10 
1.37212e-10 5.739e-11 -1.43475e-11 1.22874e-10 8.12229e-11 6.12291e-11 9.40946e-11 4.7825e-11 5.97812e-12 
1.98949e-10 1.09298e-10 9.24741e-11 1.14156e-10 -3.23117e-27 -5.97812e-12 5.26295e-11 -8.72763e-12 1.31706e-11 
-8.79292e-12 7.77156e-11 3.48724e-12 6.53305e-11 1.07971e-11 2.28383e-11 9.08091e-11 1.59417e-11 -1.49453e-12 
5.17851e-11 7.57171e-11 3.82507e-11 -8.14117e-11 7.3232e-11 -2.80225e-12 2.40686e-11 4.02273e-11 1.92888e-11 
-5.32313e-12 4.10996e-12 -4.10996e-12 1.44366e-11 2.55733e-11 1.2003e-11 -4.11678e-12 -8.7181e-13 -3.39383e-12 
1.22474e-11 2.03287e-11 9.77283e-12 -1.10488e-11 -1.1209e-12 -1.82146e-12 6.53203e-12 2.3151e-11 8.90491e-12 
-2.01032e-11 -4.64965e-12 -4.98177e-13 8.11288e-12 1.74187e-11 7.65947e-12 -1.87733e-11 -3.6533e-12 -3.32118e-12 
5.34616e-12 1.90957e-11 7.33254e-12 -1.87221e-11 2.73997e-12 -9.96354e-13 1.62432e-11 2.47007e-11 1.22832e-11 
-2.06997e-11 -1.61559e-27 2.98906e-12 6.02298e-12 1.38596e-11 5.96478e-12 4.78075e-12 -3.84308e-12 -1.70804e-12 
-4.82252e-12 -2.91702e-12 -2.32186e-12 -9.86529e-12 1.15399e-27 -3.41607e-12 1.38802e-11 4.13863e-11 1.658e-11 
-1.38544e-11 -1.61559e-27 9.96354e-13 1.92574e-12 -5.03934e-12 -9.34082e-13 -7.06005e-12 3.86087e-12 1.36999e-12 
1.13626e-11 1.96178e-11 9.29411e-12 6.22006e-12 1.02749e-11 6.72539e-12 2.14256e-11 3.29068e-11 1.62997e-11 
-1.29971e-11 -1.93735e-12 1.5527e-12 2.87936e-13 -8.71737e-13 -1.7514e-13 -6.12361e-12 -3.92314e-12 -4.26175e-13 
2.24109e-11 3.3634e-11 1.68135e-11 -3.03682e-12 -7.47266e-12 1.17928e-12 -2.17724e-12 -1.12113e-11 -4.01655e-12 
-5.70708e-13 3.98542e-12 -7.27805e-13 1.41379e-11 2.04231e-11 1.03683e-11 -1.09031e-11 8.11317e-12 2.02829e-12 
2.21163e-11 2.14742e-11 1.30771e-11 -2.95546e-11 -3.98542e-12 9.96354e-13 9.0191e-12 1.43329e-11 7.00561e-12 
-9.36483e-12 2.49088e-12 3.61178e-12 5.86056e-12 3.66652e-13 1.86816e-12 -3.62715e-12 -4.2345e-12 -4.10996e-12 
1.584e-11 2.61937e-11 1.26101e-11 -6.55716e-12 -4.6971e-12 -2.02829e-12 -1.12832e-12 -1.27361e-12 -7.20577e-13 
-1.77279e-11 1.92154e-12 7.47265e-13 1.94606e-11 2.52196e-11 1.34041e-11 -7.71663e-12 -5.23086e-12 -4.04769e-13 
-1.30104e-12 -7.41706e-12 -2.61543e-12 -5.85968e-13 1.86816e-12 5.17637e-13 1.51562e-11 2.60991e-11 1.23766e-11 
-1.1288e-11 -6.84993e-13 1.65897e-13 -4.37419e-11 -1.2595e-10 -5.09075e-11 -6.5958e-11 -1.49453e-11 -3.11361e-12 
4.40939e-11 1.04425e-10 4.45557e-11 -8.80336e-12 -5.38031e-11 -5.72904e-12 2.19703e-11 -9.09367e-11 -2.06899e-11 
1.08082e-12 -3.18833e-11 3.98542e-12 -2.70122e-11 -1.69012e-10 -5.88071e-11 6.06468e-11 -4.09929e-11 5.12411e-12 
5.33297e-11 7.9194e-12 1.83747e-11 -5.31877e-11 6.83214e-12 5.97812e-12 2.63136e-11 -1.26416e-10 -3.00307e-11 
2.99221e-11 7.97083e-12 1.07108e-11 8.6915e-11 1.34774e-10 6.65066e-11 -4.22391e-11 -6.77521e-11 -1.54435e-11 
2.51172e-11 1.83695e-11 1.3046e-11 8.55411e-11 5.84528e-11 3.6533e-12 1.26476e-10 1.28795e-10 7.65814e-11 
8.33993e-11 -3.41607e-11 -1.15292e-11 4.74386e-11 1.63664e-10 6.33308e-11 -2.05517e-11 1.79344e-11 2.2418e-12 
-2.57288e-11 4.97036e-11 7.19243e-12 3.67145e-11 -1.59417e-11 -5.23086e-12 -2.44638e-10 -4.24866e-10 -2.00851e-10 
-8.40746e-11 3.36269e-11 -8.54685e-12 -9.46384e-11 -3.34865e-11 -3.84375e-11 -1.01269e-10 -2.67233e-11 1.13427e-11 
7.99537e-12 6.33062e-11 2.13905e-11 -3.72507e-11 -1.81835e-11 6.16494e-12 2.05751e-10 3.76337e-10 1.74627e-10 
-2.99318e-11 -7.8712e-11 -7.97083e-12 1.79226e-10 2.34689e-10 1.24175e-10 -1.71123e-11 4.48359e-12 9.71445e-12 
-4.07364e-11 2.99278e-11 -3.2426e-12 -6.53928e-11 7.85696e-11 8.54018e-12 -4.07635e-11 2.71526e-11 -4.08327e-12 
-4.50048e-11 1.70804e-11 1.53723e-11 8.43018e-11 2.24879e-10 9.27543e-11 -1.21431e-10 -1.3949e-11 1.94289e-11 
-1.96785e-11 4.56771e-11 7.79958e-12 -1.37055e-11 -1.59417e-11 -6.4763e-12 1.62805e-10 2.02317e-10 1.09537e-10 
2.92424e-11 7.97083e-11 -6.64236e-12 9.69229e-11 1.0214e-10 5.9719e-11 2.49114e-11 6.64236e-11 -2.65694e-12 
2.02524e-10 2.89581e-10 1.47632e-10 3.45646e-11 2.19198e-11 5.47995e-12 4.92785e-11 6.79488e-11 3.51682e-11 
1.39239e-11 9.96354e-12 8.46901e-12 7.61309e-11 9.48061e-11 5.12811e-11 -3.57794e-11 5.52976e-11 4.35905e-13 
-3.26633e-11 -4.96694e-11 -2.46998e-11 -3.1459e-11 7.29496e-12 -1.99463e-12 -9.69014e-11 -1.86312e-10 -8.49641e-11 
-3.17919e-11 -2.61437e-11 -6.97663e-14 5.41353e-11 8.89544e-11 4.29269e-11 -9.16879e-12 -3.21021e-11 -5.07899e-12 
-1.87753e-11 -5.25023e-11 -2.13833e-11 3.9905e-11 1.96061e-11 -4.56202e-12 -1.01969e-11 -1.36222e-11 -7.14573e-12 
9.91186e-13 -1.68078e-11 -3.98702e-12 -4.10079e-13 2.12256e-12 5.13745e-13 -4.14997e-11 -2.03613e-11 2.04344e-12 
-2.88718e-11 -6.55288e-11 -2.83202e-11 -3.90233e-11 -4.8267e-12 2.55511e-12 -5.02515e-11 -1.18642e-10 -5.06681e-11 
-1.20736e-11 -1.10967e-11 9.03081e-13 -1.0437e-11 -2.93199e-11 -1.19271e-11 2.03476e-11 -1.43539e-11 -3.91388e-12 
-7.99887e-11 -9.91215e-11 -5.37331e-11 1.37588e-11 -1.46781e-11 -6.08258e-12 -7.7712e-12 -5.42285e-11 -1.85999e-11 
1.94976e-11 -9.37964e-13 -5.60125e-12 6.08792e-11 8.27943e-11 4.3102e-11 -2.40532e-11 1.56778e-11 -4.33451e-12 
6.86208e-12 1.2333e-12 2.42861e-12 -1.96679e-11 2.98633e-11 5.19978e-13 -3.9667e-11 -1.14256e-10 -4.6177e-11 
-9.61221e-12 1.46352e-11 -2.34405e-12 -5.10529e-11 -1.05756e-10 -4.70427e-11 -9.75749e-13 1.20858e-11 -4.85316e-12 
2.84671e-11 6.4474e-11 2.78823e-11 5.23124e-12 1.77346e-11 -3.55982e-12 2.9939e-11 5.71642e-11 2.61309e-11 
3.54023e-11 -1.70576e-11 -1.8641e-12 2.92511e-11 9.11871e-11 3.61315e-11 6.68338e-12 -1.18267e-11 -4.85316e-12 
5.42046e-11 1.40318e-10 5.83568e-11 1.00957e-11 -2.87677e-12 -5.62544e-12 9.07615e-11 1.02769e-10 5.8059e-11 
7.80562e-12 -1.88212e-11 -5.01425e-12 2.4123e-11 5.48069e-11 2.3679e-11 1.92811e-11 -8.13041e-12 1.5368e-12 
3.53162e-11 8.65231e-11 3.65518e-11 5.87086e-12 2.26468e-11 1.6312e-12 6.44986e-11 1.54544e-10 6.57127e-11 
3.60949e-11 -1.18267e-11 -1.08313e-11 7.37134e-11 1.8818e-10 7.8568e-11 4.35448e-12 -2.25012e-11 -5.73742e-12 
4.4814e-11 9.62907e-11 4.23314e-11 1.27616e-11 2.27005e-11 -1.25539e-12 6.85712e-11 1.1159e-10 5.40483e-11 
-2.13264e-12 1.86848e-11 -5.01893e-12 3.61702e-11 6.8447e-11 3.13852e-11 1.3022e-11 1.46413e-11 -2.83751e-12 
5.96666e-11 1.37892e-10 5.92675e-11 1.85293e-12 1.11846e-11 -7.6992e-13 2.15211e-11 6.24295e-11 2.51852e-11 
1.86296e-11 2.52818e-11 1.76705e-12 3.67595e-11 5.14528e-11 2.64637e-11 3.10216e-11 -1.03082e-12 -2.31943e-12 
9.19652e-12 2.6357e-11 1.0666e-11 7.31039e-13 2.47269e-11 -6.42998e-12 8.90213e-12 4.61503e-11 1.65157e-11 
1.53348e-12 1.30974e-11 -1.06447e-12 7.37581e-11 1.44875e-10 6.55901e-11 1.86406e-11 -3.11004e-12 -1.92116e-12 
2.98072e-11 4.47442e-11 2.23654e-11 -1.1575e-11 2.36608e-11 -5.37336e-13 1.62788e-11 1.19771e-11 8.47679e-12 
1.09856e-11 1.66796e-11 -8.73235e-13 -1.39028e-11 -8.39842e-12 -6.69036e-12 2.3853e-11 1.27728e-11 -3.27712e-12 
1.63015e-11 4.08526e-11 1.71462e-11 -9.67275e-12 1.74418e-11 -4.10643e-12 3.64777e-11 5.24352e-11 2.66739e-11 
1.1406e-11 9.43986e-12 -5.04348e-12 1.63153e-11 2.96882e-11 1.38011e-11 8.27988e-12 -3.63295e-13 -4.2051e-12 
-2.52029e-11 -2.7164e-11 -1.57101e-11 -1.47757e-11 -1.46037e-11 -3.88784e-12 6.00052e-12 -1.37651e-11 -2.32937e-12 
-1.63496e-11 2.79808e-12 2.1095e-13 4.74643e-12 -2.0801e-11 -4.81636e-12 -2.72044e-12 -1.62164e-11 3.01236e-13 
2.13769e-11 2.58526e-11 1.41689e-11 2.74944e-11 -5.72828e-12 -4.79379e-13 5.79109e-12 3.2623e-11 1.15242e-11 
2.04599e-11 -7.1472e-12 -3.05679e-12 2.40461e-11 6.01964e-11 2.52728e-11 -8.21145e-12 -2.18746e-12 -1.19978e-12 
3.89539e-11 6.36783e-11 3.07897e-11 1.35504e-11 -7.31226e-13 -2.51675e-12 1.24534e-11 1.94806e-11 9.58018e-12 
1.72489e-11 -6.35869e-12 -1.57981e-12 -2.04121e-11 -1.40906e-11 -1.03508e-11 -1.42001e-11 -2.54762e-12 -3.53266e-12 
-3.63964e-12 -3.82384e-11 -1.25634e-11 7.36511e-12 -4.00778e-12 -2.79727e-12 5.53865e-12 -1.18103e-11 -1.88151e-12 
4.42721e-12 -9.20943e-12 -7.94472e-13 1.7932e-11 1.37684e-11 9.51012e-12 -4.85506e-12 -7.69776e-12 1.27951e-12 
-1.53674e-11 -2.293e-11 -1.14892e-11 -1.57571e-11 -2.25949e-12 -1.81724e-12 -1.57419e-11 -2.79265e-11 -1.31005e-11 
8.5765e-12 -1.26631e-11 -3.76877e-12 2.99334e-12 -1.79387e-11 -4.48359e-12 7.50993e-12 -5.99455e-12 8.19661e-13 
-2.45614e-12 -1.28019e-12 -1.1209e-12 -1.46112e-11 2.73175e-12 -4.25736e-13 -3.0203e-11 -4.62166e-11 -2.29259e-11 
7.21061e-12 -1.74854e-12 2.62929e-12 -7.01886e-13 -8.46379e-12 -2.7497e-12 7.8791e-12 4.80095e-12 1.69333e-12 
1.06263e-11 4.26061e-12 4.46608e-12 -1.4071e-11 -2.91227e-12 -2.31599e-13 4.3037e-12 1.05249e-11 4.44856e-12 
5.01623e-12 -2.72211e-12 -6.91234e-13 -3.33907e-12 -3.25788e-12 -1.97909e-12 1.58171e-11 3.87594e-12 -1.29432e-13 
-9.17285e-12 -1.93166e-11 -8.54685e-12 -1.77215e-11 1.90095e-12 8.79603e-13 6.57804e-12 -5.58558e-12 2.97739e-13 
1.93241e-12 1.32161e-12 1.49027e-12 6.13787e-12 7.87336e-12 4.20337e-12 1.79987e-11 6.79725e-12 -4.95823e-13 
-2.59309e-12 1.83415e-12 -2.27682e-13 -8.19954e-12 -3.84052e-12 -1.051e-12 1.36327e-11 3.09697e-11 1.33807e-11 
-4.12429e-12 -1.53513e-11 1.14586e-13 4.88686e-12 3.81178e-12 2.60959e-12 -3.86654e-12 -2.91722e-12 2.09967e-12 
8.59308e-12 1.02053e-11 5.63952e-12 1.26067e-11 2.42861e-12 1.77476e-12 -1.33032e-11 -1.81053e-11 -9.42255e-12 
-6.3662e-12 -3.88363e-12 1.44022e-12 -1.37266e-11 -3.03504e-11 -1.32231e-11 1.34127e-12 -6.28351e-12 1.43076e-12 
-1.04843e-11 -3.33592e-11 -1.3153e-11 -5.54061e-12 1.8969e-12 9.94672e-13 -1.48019e-11 -4.23522e-11 -1.71462e-11 
-7.84693e-12 7.18004e-15 1.38793e-12 -1.70127e-11 -3.47705e-11 -1.55349e-11 -6.12801e-12 -3.63934e-12 1.0226e-12 
-4.50425e-12 -1.93732e-11 -7.16324e-12 -4.6107e-12 4.85363e-12 2.65173e-13 -1.29203e-11 -2.97555e-11 -1.28028e-11 
-1.91534e-13 -1.77476e-12 9.80786e-13 3.14528e-12 -7.51692e-13 7.18075e-13 1.81593e-12 -1.21431e-12 -1.00414e-12 
-1.51371e-12 -5.08325e-12 -1.97909e-12 -4.25865e-12 8.66907e-13 -1.66002e-12 -2.64672e-12 -7.10276e-12 -2.92484e-12 
5.33112e-13 2.14839e-12 -6.42181e-13 2.58921e-12 4.46559e-13 9.1073e-13 -3.15679e-12 5.5584e-13 3.41916e-13 
-3.80019e-12 -1.24295e-11 -4.8689e-12 6.5082e-12 -7.56253e-14 1.53244e-14 -4.66439e-12 -1.51265e-11 -5.93726e-12 
-8.468e-13 -2.2329e-12 -4.08948e-13 -9.39151e-13 -5.42428e-12 -1.90903e-12 -1.00065e-12 1.49453e-12 -2.3352e-13 
6.67722e-12 1.34639e-11 6.04234e-12 3.32813e-14 1.35083e-12 -1.17268e-12 4.02783e-12 3.26968e-12 2.18925e-12 
-2.5092e-12 3.43627e-12 -8.24686e-13 -3.60645e-12 -1.09886e-11 -4.37851e-12 1.16288e-12 4.93911e-13 -1.22167e-12 
1.18228e-12 7.44269e-13 5.77963e-13 2.5035e-12 -2.10168e-13 -1.25517e-12 2.57513e-12 2.44556e-12 1.50621e-12 
-1.61995e-12 1.48016e-12 -1.05985e-12 2.79655e-12 3.32688e-12 1.83703e-12 -9.4897e-13 -2.68461e-13 -1.40963e-12 
2.57078e-12 2.39153e-12 1.48869e-12 7.9331e-13 4.19416e-13 -7.33628e-13 2.56297e-12 1.6404e-12 1.26101e-12 
5.65466e-13 6.15646e-13 -5.17767e-13 1.48502e-12 1.25884e-12 8.2316e-13 1.94043e-13 7.03432e-13 -8.06907e-13 
1.39564e-12 1.64013e-12 9.1073e-13 -9.62591e-13 4.91124e-13 -3.82585e-13 1.79473e-12 1.18266e-12 8.93216e-13 
1.68662e-12 1.15083e-12 -7.6054e-14 -9.05713e-13 -4.87392e-12 -1.73389e-12 1.97167e-13 7.2196e-13 -1.53698e-13 
2.65048e-12 -1.04178e-12 4.82609e-13 -3.07311e-12 -1.31496e-12 -3.58684e-13 -4.19239e-12 -1.09281e-11 -4.53613e-12 
2.26284e-12 -7.66112e-13 4.92668e-13 -9.36377e-13 -3.42267e-12 -1.30771e-12 -6.92658e-13 8.23999e-13 -6.18179e-13 
-2.9324e-12 -8.0097e-12 -3.28263e-12 -2.74255e-12 1.3118e-12 -3.11673e-13 -7.27128e-12 -1.94279e-11 -8.00975e-12 
-5.38038e-12 3.13482e-12 2.18983e-13 -4.30301e-12 -1.31109e-11 -5.22419e-12 -1.71553e-12 3.55128e-13 -3.78774e-13 
0 0 0 0 0 0 0 0 0 
0 0 0 0 0 0 0 0 0 
0 0 0 0 0 0 0 0 0 
0 0 0 0 0 0 0 0 0 
0 0 0 0 0 0 0 0 0 
0 0 0 0 0 0 0 0 0 
0 0 0 0 0 0 0 0 0 
0 0 0 0 0 0 0 0 0 
0 0 0 0 0 0 0 0 0 
0 0 0 0 0 0 0 0 0 
0 0 0 0 0 0 0 0 0 
0 0 0 0 0 0 0 0 0 
0 0 0 0 0 0 0 0 0 
0 0 0 0 0 0 0 0 0 
0 0 0 0 0 0 0 0 0 
0 0 0 0 0 0 0 0 0 
0 0 0 0 0 0 0 0 0 
0 0 0 0 0 0 0 0 0 
0 0 0 0 0 0 0 0 0 
0 0 0 0 0 0 0 0 0 
0 0 0 0 0 0 0 0 0 
0 0 0 0 0 0 0 0 0 
0 0 0 0 0 0 0 0 0 
0 0 0 0 0 0 0 0 0 
0 0 0 0 0 0 0 0 0 
0 0 0 0 0 0 0 0 0 
0 0 0 0 0 0 0 0 0 
0 0 0 0 0 0 0 0 0 
0 0 0 0 0 0 0 0 0 
0 0 0 0 0 0 0 0 0 
0 0 0 0 0 0 0 0 0 
0 0 0 0 0 0 0 0 0 
0 0 0 0 0 0 0 0 0 
0 0 0 0 0 0 0 0 0 
0 0 0 0 0 0 0 0 0 
0 0 0 0 0 0 0 0 0 
0 0 0 0 0 0 0 0 0 
0 0 0 0 0 0 0 0 0 
0 0 0 0 0 0 0 0 0 
0 0 0 0 0 0 0 0 0 
0 0 0 0 0 0 0 0 0 
0 0 0 0 0 0 0 0 0 
0 0 0 0 0 0 0 0 0 
0 0 0 0 0 0 0 0 0 
0 0 0 0 0 0 0 0 0 
0 0 0 0 0 0 0 0 0 
0 0 0 0 0 0 0 0 0 
0 0 0 0 0 0 0 0 0 
0 0 0 0 0 0 0 0 0 
0 0 0 0 0 0 0 0 0 
0 0 0 0 0 0 0 0 0 
0 0 0 0 0 0 0 0 0 
0 0 0 0 0 0 0 0 0 
0 0 0 0 0 0 0 0 0 
0 0 0 0 0 0 0 0 0 
0 0 0 0 0 0 0 0 0 
0 0 0 0 0 0 0 0 0 
0 0 0 0 0 0 0 0 0 
0 0 0 0 0 0 0 0 0 
0 0 0 0 0 0 0 0 0 
0 0 0 0 0 0 0 0 0 
0 0 0 0 0 0 0 0 0 
0 0 0 0 0 0 0 0 0 
0 0 0 0 0 0 0 0 0 
0 0 0 0 0 0 0 0 0 
0 0 0 0 0 0 0 0 0 
0 0 0 0 0 0 0 0 0 
0 0 0 0 0 0 0 0 0 
0 0 0 0 0 0 0 0 0 
0 0 0 0 0 0 0 0 0 
0 0 0 0 0 0 0 0 0 
0 0 0 0 0 0 0 0 0 
0 0 0 0 0 0 0 0 0 
0 0 0 0 0 0 0 0 0 
0 0 0 0 0 0 0 0 0 
0 0 0 0 0 0 0 0 0 
0 0 0 0 0 0 0 0 0 
0 0 0 0 0 0 0 0 0 
0 0 0 0 0 0 0 0 0 
0 0 0 0 0 0 0 0 0 
0 0 0 0 0 0 0 0 0 
0 0 0 0 0 0 0 0 0 
0 0 0 0 0 0 0 0 0 
0 0 0 0 0 0 0 0 0 
0 0 0 0 0 0 0 0 0 
0 0 0 0 0 0 0 0 0 
0 0 0 0 0 0 0 0 0 
0 0 0 0 0 0 0 0 0 
0 0 0 0 0 0 0 0 0 
0 0 0 0 0 0 0 0 0 
0 0 0 0 0 0 0 0 0 
0 0 0 0 0 0 0 0 0 
0 0 0 0 0 0 0 0 0 
0 0 0 0 0 0 0 0 0 
0 0 0 0 0 0 0 0 0 
0 0 0 0 0 0 0 0 0 
0 0 0 0 0 0 0 0 0 
0 0 0 0 0 0 0 0 0 
0 0 0 0 0 0 5.44385e-10 3.28794e-10 2.61954e-10 
-2.21091e-10 1.7217e-10 -2.2956e-10 3.5405e-11 9.63006e-11 3.95117e-11 3.67723e-11 1.63971e-10 -2.58767e-10 
-5.49852e-10 -7.94105e-10 -4.03187e-10 1.50772e-10 2.2418e-10 -3.78415e-10 -8.32122e-12 2.86211e-10 8.33668e-11 
5.8716e-11 -1.49453e-12 -6.94957e-11 -5.72506e-11 9.04105e-11 9.94797e-12 -1.00701e-10 -1.19562e-10 -5.97812e-11 
-3.47091e-10 -4.72099e-10 -2.45757e-10 1.04697e-10 9.565e-11 -9.565e-11 1.12837e-09 5.371e-10 4.9964e-10 
4.70582e-11 3.58687e-11 -1.19562e-11 5.10535e-11 7.14446e-11 3.67495e-11 -4.39186e-12 -4.56057e-25 -2.04964e-11 
-4.08818e-10 -1.34679e-09 -5.26682e-10 -1.79763e-10 -8.96719e-12 7.92101e-11 4.76322e-11 -3.21552e-10 -8.21758e-11 
-1.22828e-10 4.48359e-11 8.96719e-12 -3.57043e-10 -5.73703e-10 -2.79224e-10 -2.30341e-10 -6.78944e-11 -2.30585e-11 
6.20281e-10 5.46654e-10 3.50081e-10 4.06948e-11 2.56205e-11 -4.6117e-11 3.22577e-11 3.08495e-10 1.02226e-10 
1.25402e-10 9.32587e-11 -9.32587e-11 -5.03049e-11 -5.33782e-11 -3.11049e-11 2.18442e-10 8.07047e-11 -3.58687e-11 
6.54614e-10 7.83499e-10 4.31434e-10 1.44788e-10 2.8695e-11 -1.57822e-10 -1.37316e-10 -8.19601e-11 -6.57827e-11 
-9.13376e-11 4.48359e-12 -2.69016e-11 1.16647e-09 8.07007e-10 5.92044e-10 -2.32962e-10 -3.58687e-11 -2.8695e-10 
4.11158e-10 4.9926e-10 2.73126e-10 -2.01179e-10 3.98542e-11 1.59417e-11 3.95145e-11 2.89749e-10 9.87792e-11 
2.23251e-11 -2.39125e-10 4.7825e-11 2.88279e-10 2.2173e-10 1.53003e-10 1.02262e-10 -1.01628e-10 3.58687e-11 
7.89522e-11 4.38796e-11 3.68495e-11 -2.98132e-10 -1.33555e-24 1.43475e-10 -4.40707e-10 -2.50046e-10 -2.07226e-10 
3.80774e-11 -4.48359e-11 -8.96719e-12 -6.82296e-12 -1.9669e-10 -6.10539e-11 -9.9187e-11 3.19456e-11 7.62211e-11 
1.18124e-09 8.49989e-10 6.09368e-10 2.03537e-10 -1.21698e-10 -2.88231e-10 5.89154e-10 3.92566e-10 2.94516e-10 
9.74404e-11 2.39125e-11 1.19562e-10 -5.1168e-10 -3.38201e-10 -2.54964e-10 1.13174e-10 -6.14893e-11 2.04964e-11 
-5.48063e-11 1.95619e-10 4.22439e-11 6.9879e-12 3.58687e-11 1.79344e-11 3.70456e-10 3.18665e-11 1.20697e-10 
9.1381e-11 -3.07446e-11 -3.07446e-11 5.54999e-10 3.72945e-10 2.78383e-10 1.4097e-10 1.22979e-10 7.68616e-11 
-1.05482e-11 -1.93424e-11 -8.96719e-12 -6.81998e-11 8.66828e-11 -5.97812e-12 5.99545e-10 3.30801e-10 2.79104e-10 
-6.60988e-11 -3.88578e-11 2.39125e-11 2.06265e-11 -2.63721e-10 -7.29284e-11 1.84587e-11 -1.59168e-10 -1.07606e-10 
3.26168e-10 2.61603e-10 1.76331e-10 1.6348e-10 3.36269e-12 2.29784e-11 1.26786e-10 4.05479e-11 5.02002e-11 
1.28854e-10 7.55806e-11 1.34508e-10 1.79132e-10 -7.63109e-11 3.08463e-11 1.19942e-10 -1.95804e-10 -8.578e-12 
-2.65089e-10 -5.73583e-10 -2.51602e-10 2.79704e-11 1.16496e-10 4.33666e-11 -3.00952e-11 -7.03693e-10 -2.20136e-10 
-9.27668e-11 2.0187e-11 5.29046e-11 -3.82529e-10 -2.62221e-10 -1.93425e-10 -1.20657e-10 2.72808e-11 -7.93323e-13 
-1.43434e-10 -1.28034e-10 -8.14403e-11 3.12346e-11 -3.00292e-11 -7.24356e-11 -7.04723e-11 -4.96282e-10 -1.70026e-10 
9.85147e-12 -6.02872e-12 -1.69946e-11 -1.36182e-10 -1.9098e-10 -9.81487e-11 -2.109e-10 8.45033e-11 2.16557e-11 
-1.87539e-10 -2.06877e-10 -1.18325e-10 -1.37987e-10 7.26899e-11 3.98108e-11 4.08194e-10 5.824e-10 2.97178e-10 
3.57505e-11 1.65156e-10 3.478e-11 6.89482e-11 3.2862e-10 1.19271e-10 5.19932e-12 7.77149e-11 2.53035e-11 
5.33087e-11 5.87811e-11 3.36269e-11 -5.74383e-11 1.46453e-10 2.5744e-11 9.16137e-11 1.73236e-11 3.26812e-11 
-2.994e-11 1.24541e-10 5.61994e-11 -1.9218e-10 -1.23773e-10 -9.4786e-11 -3.90465e-11 -5.56022e-11 -7.33798e-11 
-2.53577e-10 -2.62737e-10 -1.54894e-10 -8.19403e-11 1.156e-10 7.58257e-11 1.25959e-10 -1.52931e-10 -8.09148e-12 
-8.29696e-11 -1.41116e-11 -5.91877e-11 -1.51642e-10 -9.67071e-11 -7.45047e-11 7.63815e-11 2.49598e-11 -3.9316e-11 
-8.7632e-11 -1.51493e-10 -7.17375e-11 -1.93851e-12 -4.77617e-11 -8.96434e-11 2.28337e-11 3.70643e-11 1.79694e-11 
-1.07027e-10 -3.85943e-11 -2.08817e-11 -7.23276e-11 1.5079e-10 2.35389e-11 2.0622e-11 9.95346e-11 3.82515e-13 
2.85772e-10 3.59445e-10 1.93565e-10 1.36824e-10 9.22681e-11 1.64046e-11 2.96824e-10 1.17674e-10 1.2435e-10 
-3.58233e-11 2.19986e-11 -5.34606e-12 -4.09102e-11 2.15116e-10 5.22619e-11 -2.58516e-11 1.07125e-11 5.26389e-11 
-2.18906e-11 -8.95987e-11 -3.34468e-11 -2.77203e-11 -2.92731e-11 4.67227e-12 1.93041e-10 5.01939e-11 7.29705e-11 
-3.69281e-11 3.42114e-11 5.01239e-11 8.99626e-11 -3.39176e-11 1.68135e-11 -4.30714e-10 -2.81826e-10 3.84308e-11 
2.36931e-10 7.7608e-10 3.03904e-10 -5.2721e-11 1.9952e-10 7.17375e-11 -1.17041e-12 -2.57337e-10 -7.75521e-11 
-9.14667e-11 2.69016e-11 3.36269e-11 5.77195e-10 8.62693e-10 4.31966e-10 -1.2844e-10 -4.18469e-11 -1.16573e-10 
1.20332e-10 4.83505e-12 3.75501e-11 -2.348e-10 7.17375e-11 1.79344e-11 4.52353e-10 4.52772e-10 2.71538e-10 
1.52369e-10 -2.56205e-10 2.56205e-12 2.13457e-10 1.84062e-10 1.19256e-10 -2.27578e-10 -2.04964e-11 -7.17375e-11 
-7.89416e-10 -5.54261e-10 -4.03103e-10 -4.24527e-10 1.83827e-10 -1.1209e-11 7.3829e-10 1.01031e-09 5.2458e-10 
-1.95476e-11 2.56205e-11 -1.28103e-11 -1.39741e-10 3.31227e-10 5.7446e-11 -2.09058e-11 -1.43475e-10 8.36937e-11 
8.51944e-10 1.0704e-09 5.76702e-10 5.25755e-10 2.76702e-10 6.14893e-11 1.15742e-10 7.31236e-10 2.54094e-10 
-9.26432e-11 4.48359e-11 -3.13852e-11 -3.98901e-10 -6.08156e-10 -3.02117e-10 -3.56173e-10 -4.52843e-10 5.38031e-11 
-5.16758e-11 -3.88744e-10 -1.32126e-10 -4.53496e-10 -2.92928e-10 8.07047e-11 -8.73088e-11 3.35991e-11 -1.61129e-11 
-2.76701e-10 -4.7825e-11 -1.913e-10 5.24019e-10 7.66882e-10 3.8727e-10 2.11409e-10 1.67387e-10 1.67387e-10 
-1.35268e-10 2.48915e-10 3.4094e-11 1.26565e-10 -1.59417e-11 7.97083e-11 -4.84168e-10 -4.1255e-10 -2.69016e-10 
-3.67958e-10 -7.17375e-11 -3.58687e-11 5.70258e-10 5.90222e-10 3.48144e-10 -8.35704e-12 2.69016e-10 1.16573e-10 
6.63114e-10 8.09266e-10 4.41714e-10 3.15081e-11 2.8695e-10 -2.04964e-11 -5.41279e-11 1.40997e-10 2.60609e-11 
-1.9363e-10 1.47959e-10 1.61409e-10 -5.26271e-11 -2.0518e-10 -7.7342e-11 1.70816e-10 1.86517e-10 -1.43475e-10 
-1.92142e-10 -8.03856e-10 -2.98799e-10 -1.49695e-10 1.51161e-10 2.69016e-11 -1.07442e-10 -9.15177e-11 -5.96878e-11 
4.22974e-11 9.4796e-11 -1.38351e-10 1.6741e-10 5.8219e-10 2.2488e-10 4.52298e-11 2.10168e-11 8.67996e-11 
-1.115e-09 -1.18565e-09 -6.90193e-10 -2.52616e-11 -1.25541e-10 -4.7825e-11 -8.48505e-10 -1.60303e-10 -3.02643e-10 
1.33467e-10 1.53723e-11 2.80651e-25 6.02519e-10 1.09517e-09 5.09308e-10 1.98836e-10 7.17375e-11 -7.17375e-11 
2.31384e-10 6.62065e-10 2.68035e-10 -1.77232e-10 4.7825e-11 5.97812e-11 -3.65044e-10 -1.41695e-10 -1.52022e-10 
4.29418e-11 7.17375e-11 -2.98906e-11 1.21002e-10 3.96012e-10 1.55104e-10 -1.41518e-10 7.3232e-11 -4.93195e-11 
4.35579e-10 1.4107e-09 5.53884e-10 -9.02707e-11 3.94556e-10 1.10168e-10 2.76305e-10 2.4211e-10 1.55525e-10 
-6.25105e-11 1.51161e-10 7.68616e-11 -3.79213e-10 -2.61941e-10 -1.92346e-10 -3.73331e-10 -1.10296e-10 -1.2016e-10 
2.26949e-10 -1.3105e-10 2.87697e-11 -2.11277e-10 1.08603e-10 1.09599e-11 2.05363e-11 1.18525e-10 4.17184e-11 
-1.77648e-10 -1.07606e-10 -1.54684e-10 -4.7973e-10 -2.72673e-10 -2.25721e-10 -5.28771e-11 -3.36269e-12 1.80465e-10 
4.20391e-10 5.30505e-10 2.85269e-10 -1.22252e-11 -2.39125e-11 -1.19562e-11 -1.85734e-10 1.05403e-10 -2.40993e-11 
-1.25838e-10 -3.58687e-11 -7.77156e-11 6.3714e-10 1.33478e-10 2.31185e-10 3.08962e-11 3.58687e-11 5.21296e-25 
1.28396e-09 8.56154e-10 6.42034e-10 -7.06526e-11 -3.58687e-11 -3.84308e-12 1.25119e-10 -3.04029e-11 2.84148e-11 
-2.77408e-11 -9.41555e-12 -3.13852e-11 4.15485e-10 2.66395e-10 2.04564e-10 -1.47122e-10 -7.17375e-11 2.39125e-11 
2.92332e-10 4.24576e-10 2.15072e-10 1.17106e-10 1.15079e-10 6.80012e-11 5.18932e-10 3.35753e-10 2.56405e-10 
1.04295e-10 2.2418e-11 1.42354e-10 3.30127e-10 -4.36549e-12 9.77283e-11 -1.70247e-10 -2.15212e-10 -8.96719e-12 
-2.40696e-10 -8.68059e-10 -3.32627e-10 1.37452e-10 1.31519e-10 -1.913e-10 -1.00951e-10 -4.05855e-10 -1.52042e-10 
6.52885e-11 -1.43475e-10 -8.19857e-11 2.43997e-10 2.95785e-10 1.61935e-10 -2.0142e-10 5.38031e-11 -1.03123e-10 
3.64409e-10 1.62724e-10 1.5814e-10 -1.9409e-10 7.17375e-11 -2.98906e-12 1.59604e-10 6.03073e-10 2.28803e-10 
-1.6852e-10 -2.03256e-10 9.565e-11 -2.16199e-10 -3.30238e-10 -1.63931e-10 5.10246e-11 -1.33227e-10 -1.02482e-11 
4.11177e-10 4.44208e-10 2.56616e-10 -1.85157e-10 -2.33147e-10 3.58687e-11 -3.68715e-10 8.84902e-11 -8.40674e-11 
9.85353e-11 1.00432e-10 -1.00432e-10 -2.17952e-10 9.83897e-11 -3.58687e-11 -3.45801e-10 2.83961e-11 1.7486e-10 
2.44849e-11 -5.09061e-11 -7.92635e-12 -1.30356e-10 2.69016e-11 -3.07446e-10 3.25082e-10 8.22945e-11 1.22213e-10 
-2.30846e-11 1.22785e-25 1.07606e-10 -2.05264e-10 -1.89088e-10 -1.18306e-10 5.47286e-11 6.52159e-11 7.17375e-11 
-7.56931e-10 -6.89829e-10 -4.34028e-10 -1.4043e-10 2.04964e-11 5.12411e-11 1.38956e-10 1.12446e-10 7.54204e-11 
1.2847e-10 6.14893e-11 -8.19857e-11 3.71747e-10 4.8901e-10 2.58227e-10 -6.11498e-12 -2.58494e-26 6.57594e-11 
2.4029e-10 1.90321e-10 1.29184e-10 3.15137e-11 1.49453e-11 5.38031e-11 1.58104e-10 2.34522e-10 1.17788e-10 
2.47809e-11 8.47286e-25 8.36937e-11 6.8187e-11 1.11157e-10 5.38031e-11 1.26606e-10 -1.17694e-10 -7.28584e-12 
4.55707e-10 1.06743e-10 1.68735e-10 8.57053e-12 1.47318e-10 1.03763e-10 -3.99546e-10 -2.46972e-10 -1.93955e-10 
-2.82874e-10 2.51081e-10 1.51161e-10 5.94845e-10 1.06163e-09 4.96943e-10 -3.5116e-10 3.42995e-10 -5.38031e-11 
4.72149e-10 3.34897e-10 2.42114e-10 -2.20086e-10 1.03398e-25 -1.59417e-10 1.54369e-10 5.24242e-10 2.03583e-10 
-3.54525e-10 5.38031e-11 2.09234e-11 -1.87629e-10 -6.33896e-10 -2.46457e-10 9.19167e-11 -1.67387e-10 -7.17375e-11 
-2.05173e-12 1.32607e-11 3.36269e-12 6.2558e-11 8.19857e-11 -3.69277e-25 -7.30242e-10 -3.87854e-10 -3.35429e-10 
-1.51793e-11 6.14893e-11 -8.78879e-25 7.88042e-10 1.7513e-09 7.61803e-10 -5.00452e-11 -3.65209e-10 -5.86943e-11 
-3.0204e-10 -1.56477e-10 -1.37555e-10 -1.47847e-10 1.70377e-10 2.2418e-11 -3.09245e-10 -1.3709e-09 -5.04044e-10 
-3.6675e-11 1.94716e-10 3.07446e-11 6.63003e-11 -3.65674e-10 -8.9812e-11 -2.68834e-10 -3.826e-10 -9.565e-11 
2.85719e-10 9.03554e-10 3.56782e-10 -3.48895e-10 -1.43475e-11 3.01297e-10 1.3081e-10 1.1894e-10 7.4925e-11 
-3.0803e-10 -2.3763e-10 6.05285e-11 2.41608e-10 2.56257e-10 1.4936e-10 6.71724e-11 1.51446e-10 6.77521e-11 
1.81412e-10 3.05245e-10 1.45997e-10 2.53629e-10 1.67387e-10 8.36937e-11 -8.13107e-11 -1.04572e-10 -5.57647e-11 
2.12516e-11 1.19562e-11 9.565e-11 4.05164e-10 2.8734e-10 2.07751e-10 3.13214e-11 2.28663e-10 1.07606e-10 
2.9563e-10 2.05972e-10 1.50481e-10 -1.4935e-10 2.04964e-11 9.22339e-11 -6.09056e-10 -8.68662e-10 -4.43315e-10 
-1.35242e-10 3.826e-10 2.8695e-10 4.05104e-11 -3.28042e-11 2.31185e-12 -8.45111e-11 1.52442e-10 8.96719e-11 
3.71305e-10 4.01415e-10 2.31816e-10 -1.60169e-11 8.96719e-11 -1.09214e-24 1.2309e-09 1.16502e-09 7.18776e-10 
6.18168e-10 -2.66027e-10 -1.52442e-10 4.68162e-10 2.79104e-10 2.2418e-10 4.61366e-10 -1.19562e-10 -5.97812e-11 
-2.24638e-10 -1.01311e-09 -3.71326e-10 -3.04138e-10 -4.75261e-11 -1.48855e-10 4.92439e-10 9.27099e-10 4.25861e-10 
3.12399e-11 4.09929e-11 -8.19857e-11 8.32587e-10 1.16121e-09 5.98139e-10 4.57999e-11 7.17375e-11 -5.97812e-11 
-4.09301e-10 -1.13318e-10 -1.56786e-10 -2.34472e-11 7.47266e-11 -9.8639e-11 -1.02542e-10 7.26513e-11 -8.96719e-12 
-1.75059e-10 8.36937e-11 -2.98906e-11 -7.67227e-11 -4.2723e-11 -3.58337e-11 -1.17814e-10 -4.48359e-12 -1.54684e-10 
-3.1597e-10 -7.83911e-10 -3.29964e-10 -3.18975e-10 2.15212e-10 1.07606e-10 -4.22137e-10 -5.24087e-10 -2.83867e-10 
-4.45972e-11 4.48359e-12 -1.29526e-11 2.95256e-10 5.50822e-10 2.53823e-10 1.488e-10 -4.08175e-11 -2.22352e-11 
-2.80962e-10 -6.90296e-10 -2.91378e-10 -3.4781e-11 1.06981e-10 1.61747e-10 -2.63753e-10 -7.83267e-10 -3.14106e-10 
-1.52296e-10 1.82771e-10 6.35756e-11 -3.73179e-10 -3.64746e-10 -2.21377e-10 -1.66731e-10 8.52273e-12 -1.79532e-11 
-1.99571e-10 -9.1687e-11 -8.73775e-11 4.17665e-11 -8.19291e-11 -1.73489e-11 -5.89542e-12 -3.23945e-10 -9.89522e-11 
9.4021e-11 -1.02446e-10 -8.01207e-12 -4.08538e-11 -1.06089e-10 -4.40828e-11 -1.40389e-10 -1.53895e-10 3.26041e-11 
-1.99533e-10 5.88957e-11 -4.21913e-11 -1.4471e-10 -5.40353e-11 8.07565e-11 5.45379e-11 -5.32342e-12 1.47643e-11 
-3.20786e-11 4.18222e-11 -3.2216e-11 2.96636e-10 4.69778e-10 2.29924e-10 1.23526e-11 2.60379e-11 -3.45672e-11 
9.52732e-11 1.63935e-10 7.77623e-11 1.98689e-11 8.62138e-11 -3.34408e-11 2.02808e-10 1.65337e-10 1.10444e-10 
-5.29384e-12 2.38696e-10 7.26845e-11 -5.4094e-11 -1.13866e-10 -5.03879e-11 5.65885e-12 9.76211e-11 4.75455e-11 
-3.15919e-10 -3.26146e-10 -1.92619e-10 2.90992e-11 -3.90952e-12 4.56702e-11 1.53289e-10 2.43031e-11 5.32777e-11 
-7.4106e-11 1.16541e-11 1.86094e-11 -8.41101e-11 -6.73863e-11 -4.54489e-11 2.43834e-11 -3.45145e-11 -1.20883e-11 
-3.21789e-11 -5.28225e-11 -2.55004e-11 -1.29607e-11 -8.84748e-12 -7.79739e-12 4.00325e-11 6.11986e-11 3.03693e-11 
-1.06955e-10 5.94313e-11 7.45321e-11 -2.15243e-10 -4.66841e-11 -7.85783e-11 5.96688e-11 1.25803e-10 7.73855e-12 
2.3615e-10 6.05379e-11 8.90063e-11 4.36886e-11 4.94968e-11 -3.3271e-11 2.08871e-10 1.51529e-10 1.0812e-10 
1.67733e-11 6.35505e-12 -1.32327e-11 -5.39842e-11 2.95408e-10 7.24273e-11 1.15979e-11 -9.43278e-13 1.05221e-11 
2.36954e-10 1.30141e-10 1.10128e-10 6.36949e-11 -3.91706e-11 4.73613e-11 2.7139e-10 1.93316e-10 1.39412e-10 
4.874e-11 -1.696e-11 1.36802e-10 0 0 0 0 0 0 
0 0 0 0 0 0 0 0 0 
0 0 0 0 0 0 0 0 0 
0 0 0 0 0 0 0 0 0 
0 0 0 0 0 0 0 0 0 
0 0 0 0 0 0 0 0 0 
0 0 0 0 0 0 0 0 0 
0 0 0 0 0 0 0 0 0 
0 0 0 0 0 0 0 0 0 
0 0 0 0 0 0 0 0 0 
0 0 0 0 0 0 0 0 0 
0 0 0 0 0 0 0 0 0 
0 0 0 0 0 0 0 0 0 
0 0 0 0 0 0 0 0 0 
0 0 0 0 0 0 0 0 0 
0 0 0 0 0 0 0 0 0 
0 0 0 0 0 0 0 0 0 
0 0 0 0 0 0 0 0 0 
0 0 0 0 0 0 0 0 0 
0 0 0 0 0 0 0 0 0 
0 0 0 0 0 0 0 0 0 
0 0 0 0 0 0 0 0 0 
0 0 0 0 0 0 0 0 0 
0 0 0 0 0 0 0 0 0 
0 0 0 0 0 0 0 0 0 
0 0 0 0 0 0 0 0 0 
0 0 0 0 0 0 0 0 0 
0 0 0 0 0 0 0 0 0 
0 0 0 0 0 0 0 0 0 
0 0 0 0 0 0 0 0 0 
0 0 0 0 0 0 0 0 0 
0 0 0 0 0 0 0 0 0 
0 0 0 0 0 0 0 0 0 
0 0 0 0 0 0 0 0 0 
0 0 0 0 0 0 0 0 0 
0 0 0 0 0 0 0 0 0 
0 0 0 0 0 0 0 0 0 
0 0 0 0 0 0 0 0 0 
0 0 0 0 0 0 0 0 0 
0 0 0 0 0 0 0 0 0 
0 0 0 0 0 0 0 0 0 
0 0 0 0 0 0 0 0 0 
0 0 0 0 0 0 0 0 0 
0 0 0 0 0 0 0 0 0 
0 0 0 0 0 0 0 0 0 
0 0 0 0 0 0 0 0 0 
0 0 0 0 0 0 0 0 0 
0 0 0 0 0 0 0 0 0 
0 0 0 0 0 0 0 0 0 
0 0 0 0 0 0 0 0 0 
0 0 0 0 0 0 0 0 0 
0 0 0 0 0 0 0 0 0 
0 0 0 0 0 0 0 0 0 
0 0 0 0 0 0 0 0 0 
0 0 0 0 0 0 0 0 0 
0 0 0 0 0 0 0 0 0 
0 0 0 0 0 0 0 0 0 
0 0 0 0 0 0 0 0 0 
0 0 0 0 0 0 0 0 0 
0 0 0 0 0 0 0 0 0 
0 0 0 0 0 0 0 0 0 
0 0 0 0 0 0 0 0 0 
0 0 0 0 0 0 0 0 0 
0 0 0 0 0 0 0 0 0 
0 0 0 0 0 0 0 0 0 
0 0 0 0 0 0 0 0 0 
0 0 0 0 0 0 0 0 0 
0 0 0 0 0 0 0 0 0 
0 0 0 0 0 0 0 0 0 
0 0 0 0 0 0 0 0 0 
0 0 0 0 0 0 0 0 0 
0 0 0 0 0 0 0 0 0 
0 0 0 0 0 0 0 0 0 
0 0 0 0 0 0 0 0 0 
0 0 0 0 0 0 0 0 0 
0 0 0 0 0 0 0 0 0 
0 0 0 0 0 0 0 0 0 
0 0 0 0 0 0 0 0 0 
0 0 0 0 0 0 0 0 0 
0 0 0 0 0 0 0 0 0 
0 0 0 0 0 0 0 0 0 
0 0 0 0 0 0 0 0 0 
0 0 0 0 0 0 0 0 0 
0 0 0 0 0 0 0 0 0 
0 0 0 0 0 0 0 0 0 
0 0 0 0 0 0 0 0 0 
0 0 0 0 0 0 0 0 0 
0 0 0 0 0 0 0 0 0 
0 0 0 0 0 0 0 0 0 
0 0 0 0 0 0 0 0 0 
0 0 0 0 0 0 0 0 0 
0 0 0 0 0 0 0 0 0 
0 0 0 0 0 0 0 0 0 
0 0 0 0 0 0 0 0 0 
0 0 0 0 0 0 0 0 0 
0 0 0 0 0 0 0 0 0 
0 0 0 0 0 0 0 0 0 
0 0 0 0 0 0 0 0 0 
0 0 0 0 0 0 0 0 0 
0 0 0 0 0 0 0 0 0 
0 0 0 0 0 0 0 0 0 
0 0 0 0 0 0 0 0 0 
0 0 0 0 0 0 0 0 0 
0 0 0 0 0 0 0 0 0 
0 0 0 0 0 0 0 0 0 
0 0 0 0 0 0 0 0 0 
0 0 0 0 0 0 0 0 0 
0 0 0 0 0 0 0 0 0 
0 0 0 0 0 0 0 0 0 
0 0 0 0 0 0 0 0 0 
0 0 0 0 0 0 0 0 0 
0 0 0 0 0 0 0 0 0 
0 0 0 0 0 0 0 0 0 
0 0 0 0 0 0 0 0 0 
0 0 0 0 0 0 0 0 0 
0 0 0 0 0 0 0 0 0 
0 0 0 0 0 0 0 0 0 
0 0 0 0 0 0 0 0 0 
0 0 0 0 0 0 0 0 0 
0 0 0 0 0 0 0 0 0 
0 0 0 0 0 0 0 0 0 
0 0 0 0 0 0 0 0 0 
0 0 0 0 0 0 0 0 0 
0 0 0 0 0 0 0 0 0 
0 0 0 0 0 0 0 0 0 
0 0 0 0 0 0 0 0 0 
0 0 0 0 0 0 0 0 0 
0 0 0 0 0 0 0 0 0 
0 0 0 0 0 0 0 0 0 
0 0 0 0 0 0 0 0 0 
0 0 0 0 0 0 0 0 0 
0 0 0 0 0 0 0 0 0 
0 0 0 0 0 0 0 0 0 
0 0 0 0 0 0 0 0 0 
0 0 0 0 0 0 0 0 0 
0 0 0 0 0 0 0 0 0 
0 0 0 0 0 0 0 0 0 
0 0 0 0 0 0 0 0 0 
0 0 0 0 0 0 0 0 0 
0 0 0 0 0 0 0 0 0 
0 0 0 0 0 0 0 0 0 
0 0 0 0 0 0 0 0 0 
0 0 0 0 0 0 0 0 0 
0 0 0 0 0 0 0 0 0 
0 0 0 0 0 0 0 0 0 
0 0 0 0 0 0 0 0 0 
0 0 0 0 0 0 0 0 0 
0 0 0 0 0 0 0 0 0 
0 0 0 0 0 0 0 0 0 
0 0 0 0 0 0 0 0 0 
0 0 0 0 0 0 0 0 0 
0 0 0 0 0 0 0 0 0 
0 0 0 0 0 0 0 0 0 
0 0 0 0 0 0 0 0 0 
0 0 0 0 0 0 0 0 0 
0 0 0 0 0 0 0 0 0 
0 0 0 0 0 0 0 0 0 
0 0 0 0 0 0 0 0 0 
0 0 0 0 0 0 0 0 0 
0 0 0 0 0 0 0 0 0 
0 0 0 0 0 0 0 0 0 
0 0 0 0 0 0 0 0 0 
0 0 0 0 0 0 0 0 0 
0 0 0 0 0 0 0 0 0 
0 0 0 0 0 0 0 0 0 
0 0 0 0 0 0 0 0 0 
0 0 0 0 0 0 0 0 0 
0 0 0 0 0 0 0 0 0 
0 0 0 0 0 0 0 0 0 
0 0 0 0 0 0 0 0 0 
0 0 0 0 0 0 0 0 0 
0 0 0 0 0 0 0 0 0 
0 0 0 0 0 0 0 0 0 
0 0 0 0 0 0 0 0 0 
0 0 0 0 0 0 0 0 0 
0 0 0 0 0 0 0 0 0 
0 0 0 0 0 0 0 0 0 
0 0 0 0 0 0 0 0 0 
0 0 0 0 0 0 0 0 0 
0 0 0 0 0 0 0 0 0 
0 0 0 0 0 0 0 0 0 
0 0 0 0 0 0 0 0 0 
0 0 0 0 0 0 0 0 0 
0 0 0 0 0 0 0 0 0 
0 0 0 0 0 0 0 0 0 
0 0 0 0 0 0 0 0 0 
0 0 0 0 0 0 0 0 0 
0 0 0 0 0 0 0 0 0 
0 0 0 0 0 0 0 0 0 
0 0 0 0 0 0 0 0 0 
0 0 0 0 0 0 0 0 0 
0 0 0 0 0 0 0 0 0 
0 0 0 0 0 0 0 0 0 
0 0 0 0 0 0 0 0 0 
0 0 0 0 0 0 0 0 0 
0 0 0 0 0 0 0 0 0 
0 0 0 0 0 0 0 0 0 
0 0 0 0 0 0 0 0 0 
0 0 0 0 0 0 0 0 0 
0 0 0 0 0 0 0 0 0 
0 0 0 0 0 0 0 0 0 
0 0 0 0 0 0 0 0 0 
0 0 0 0 0 0 0 0 0 
0 0 0 0 0 0 0 0 0 
0 0 0 0 0 0 0 0 0 
0 0 0 0 0 0 0 0 0 
0 0 0 0 0 0 0 0 0 
0 0 0 0 0 0 0 0 0 
0 0 0 0 0 0 0 0 0 
0 0 0 0 0 0 0 0 0 
0 0 0 0 0 0 0 0 0 
0 0 0 0 0 0 0 0 0 
0 0 0 0 0 0 0 0 0 
0 0 0 0 0 0 0 0 0 
0 0 0 0 0 0 0 0 0 
0 0 0 0 0 0 0 0 0 
0 0 0 0 0 0 0 0 0 
0 0 0 0 0 0 0 0 0 
0 0 0 0 0 0 0 0 0 
0 0 0 0 0 0 0 0 0 
0 0 0 0 0 0 0 0 0 
0 0 0 0 0 0 0 0 0 
0 0 0 0 0 0 0 0 0 
0 0 0 0 0 0 0 0 0 
0 0 0 0 0 0 0 0 0 
0 0 0 0 0 0 0 0 0 
0 0 0 0 0 0 0 0 0 
0 0 0 0 0 0 0 0 0 
0 0 0 0 0 0 0 0 0 
0 0 0 0 0 0 0 0 0 
0 0 0 0 0 0 0 0 0 
0 0 0 0 0 0 0 0 0 
0 0 0 0 0 0 0 0 0 
0 0 0 0 0 0 0 0 0 
0 0 0 0 0 0 0 0 0 
0 0 0 0 0 0 0 0 0 
0 0 0 0 0 0 0 0 0 
0 0 0 0 0 0 0 0 0 
0 0 0 0 0 0 0 0 0 
0 0 0 0 0 0 0 0 0 
0 0 0 0 0 0 0 0 0 
0 0 0 0 0 0 0 0 0 
0 0 0 0 0 0 0 0 0 
0 0 0 0 0 0 0 0 0 
0 0 0 0 0 0 0 0 0 
0 0 0 0 0 0 0 0 0 
0 0 0 0 0 0 0 0 0 
0 0 0 0 0 0 0 0 0 
0 0 0 0 0 0 0 0 0 
0 0 0 0 0 0 0 0 0 
0 0 0 0 0 0 0 0 0 
0 0 0 0 0 0 0 0 0 
0 0 0 0 0 0 0 0 0 
0 0 0 0 0 0 0 0 0 
0 0 0 0 0 0 0 0 0 
0 0 0 0 0 0 0 0 0 
0 0 0 0 0 0 0 0 0 
0 0 0 0 0 0 0 0 0 
0 0 0 0 0 0 0 0 0 
0 0 0 0 0 0 0 0 0 
0 0 0 0 0 0 0 0 0 
0 0 0 0 0 0 0 0 0 
0 0 0 0 0 0 0 0 0 
0 0 0 0 0 0 0 0 0 
0 0 0 0 0 0 0 0 0 
0 0 0 0 0 0 0 0 0 
0 0 0 0 0 0 0 0 0 
0 0 0 0 0 0 0 0 0 
0 0 0 0 0 0 0 0 0 
0 0 0 0 0 0 0 0 0 
0 0 0 0 0 0 0 0 0 
0 0 0 0 0 0 0 0 0 
0 0 0 0 0 0 0 0 0 
0 0 0 0 0 0 0 0 0 
0 0 0 0 0 0 0 0 0 
0 0 0 0 0 0 0 0 0 
0 0 0 0 0 0 0 0 0 
0 0 0 0 0 0 0 0 0 
0 0 0 0 0 0 0 0 0 
0 0 0 0 0 0 0 0 0 
0 0 0 0 0 0 0 0 0 
0 0 0 0 0 0 0 0 0 
0 0 0 0 0 0 0 0 0 
0 0 0 0 0 0 0 0 0 
0 0 0 0 0 0 0 0 0 
0 0 0 0 0 0 0 0 0 
0 0 0 0 0 0 0 0 0 
0 0 0 0 0 0 0 0 0 
0 0 0 0 0 0 0 0 0 
0 0 0 0 0 0 0 0 0 
0 0 0 0 0 0 0 0 0 
0 0 0 0 0 0 0 0 0 
0 0 0 0 0 0 0 0 0 
0 0 0 0 0 0 0 0 0 
0 0 0 0 0 0 0 0 0 
0 0 0 0 0 0 0 0 0 
0 0 0 0 0 0 0 0 0 
0 0 0 0 0 0 0 0 0 
0 0 0 0 0 0 0 0 0 
0 0 0 0 0 0 0 0 0 
0 0 0 0 0 0 0 0 0 
0 0 0 0 0 0 0 0 0 
0 0 0 0 0 0 0 0 0 
0 0 0 0 0 0 0 0 0 
0 0 0 0 0 0 0 0 0 
0 0 0 0 0 0 0 0 0 
0 0 0 0 0 0 0 0 0 
0 0 0 0 0 0 0 0 0 
0 0 0 0 0 0 0 0 0 
0 0 0 0 0 0 0 0 0 
0 0 0 0 0 0 0 0 0 
0 0 0 0 0 0 0 0 0 
0 0 0 0 0 0 0 0 0 
0 0 0 0 0 0 0 0 0 
0 0 0 0 0 0 0 0 0 
0 0 0 0 0 0 0 0 0 
0 0 0 0 0 0 0 0 0 
0 0 0 0 0 0 0 0 0 
0 0 0 0 0 0 0 0 0 
0 0 0 0 0 0 0 0 0 
0 0 0 0 0 0 0 0 0 
0 0 0 0 0 0 0 0 0 
0 0 0 0 0 0 0 0 0 
0 0 0 0 0 0 0 0 0 
0 0 0 0 0 0 0 0 0 
0 0 0 0 0 0 0 0 0 
0 0 0 0 0 0 0 0 0 
0 0 0 0 0 0 0 0 0 
0 0 0 0 0 0 0 0 0 
0 0 0 0 0 0 0 0 0 
0 0 0 0 0 0 0 0 0 
0 0 0 0 0 0 0 0 0 
0 0 0 0 0 0 0 0 0 
0 0 0 0 0 0 0 0 0 
0 0 0 0 0 0 0 0 0 
0 0 0 0 0 0 0 0 0 
0 0 0 0 0 0 0 0 0 
0 0 0 0 0 0 0 0 0 
0 0 0 0 0 0 0 0 0 
0 0 0 0 0 0 0 0 0 
0 0 0 0 0 0 0 0 0 
0 0 0 0 0 0 0 0 0 
0 0 0 0 0 0 0 0 0 
0 0 0 0 0 0 0 0 0 
0 0 0 0 0 0 0 0 0 
0 0 0 0 0 0 0 0 0 
0 0 0 0 0 0 0 0 0 
0 0 0 0 0 0 0 0 0 
0 0 0 0 0 0 0 0 0 
0 0 0 0 0 0 0 0 0 
0 0 0 0 0 0 0 0 0 
0 0 0 0 0 0 0 0 0 
0 0 0 0 0 0 0 0 0 
0 0 0 0 0 0 0 0 0 
0 0 0 0 0 0 0 0 0 
0 0 0 0 0 0 0 0 0 
0 0 0 0 0 0 0 0 0 
0 0 0 0 0 0 0 0 0 
0 0 0 0 0 0 0 0 0 
0 0 0 0 0 0 0 0 0 
0 0 0 0 0 0 0 0 0 
0 0 0 0 0 0 0 0 0 
0 0 0 0 0 0 0 0 0 
0 0 0 0 0 0 0 0 0 
0 0 0 0 0 0 0 0 0 
0 0 0 0 0 0 0 0 0 
0 0 0 0 0 0 0 0 0 
0 0 0 0 0 0 0 0 0 
0 0 0 0 0 0 0 0 0 
0 0 0 0 0 0 0 0 0 
0 0 0 0 0 0 0 0 0 
0 0 0 0 0 0 0 0 0 
0 0 0 0 0 0 0 0 0 
0 0 0 0 0 0 0 0 0 
0 0 0 0 0 0 0 0 0 
0 0 0 0 0 0 0 0 0 
0 0 0 0 0 0 0 0 0 
0 0 0 0 0 0 0 0 0 
0 0 0 0 0 0 0 0 0 
0 0 0 0 0 0 0 0 0 
0 0 0 0 0 0 0 0 0 
0 0 0 0 0 0 0 0 0 
0 0 0 0 0 0 0 0 0 
0 0 0 0 0 0 0 0 0 
0 0 0 0 0 0 0 0 0 
0 0 0 0 0 0 0 0 0 
0 0 0 0 0 0 0 0 0 
0 0 0 0 0 0 0 0 0 
0 0 0 0 0 0 0 0 0 
0 0 0 0 0 0 0 0 0 
0 0 0 0 0 0 0 0 0 
0 0 0 0 0 0 0 0 0 
0 0 0 0 0 0 0 0 0 
0 0 0 0 0 0 0 0 0 
0 0 0 0 0 0 0 0 0 
0 0 0 0 0 0 0 0 0 
0 0 0 0 0 0 0 0 0 
0 0 0 0 0 0 0 0 0 
0 0 0 0 0 0 0 0 0 
0 0 0 0 0 0 0 0 0 
0 0 0 0 0 0 0 0 0 
0 0 0 0 0 0 0 0 0 
0 0 0 0 0 0 0 0 0 
0 0 0 0 0 0 0 0 0 
0 0 0 0 0 0 0 0 0 
0 0 0 0 0 0 0 0 0 
0 0 0 0 0 0 0 0 0 
0 0 0 0 0 0 0 0 0 
0 0 0 0 0 0 0 0 0 
0 0 0 0 0 0 0 0 0 
0 0 0 0 0 0 0 0 0 
0 0 0 0 0 0 0 0 0 
0 0 0 0 0 0 0 0 0 
0 0 0 0 0 0 0 0 0 
0 0 0 0 0 0 0 0 0 
0 0 0 0 0 0 0 0 0 
0 0 0 0 0 0 0 0 0 
0 0 0 0 0 0 0 0 0 
0 0 0 0 0 0 0 0 0 
0 0 0 0 0 0 0 0 0 
0 0 0 0 0 0 0 0 0 
0 0 0 0 0 0 0 0 0 
0 0 0 0 0 0 0 0 0 
0 0 0 0 0 0 0 0 0 
0 0 0 0 0 0 0 0 0 
0 0 0 0 0 0 0 0 0 
0 0 0 0 0 0 0 0 0 
0 0 0 0 0 0 0 0 0 
0 0 0 0 0 0 0 0 0 
0 0 0 0 0 0 0 0 0 
0 0 0 0 0 0 0 0 0 
0 0 0 0 0 0 0 0 0 
0 0 0 0 0 0 0 0 0 
0 0 0 0 0 0 0 0 0 
0 0 0 0 0 0 0 0 0 
0 0 0 0 0 0 0 0 0 
0 0 0 0 0 0 0 0 0 
0 0 0 0 0 0 0 0 0 
0 0 0 0 0 0 0 0 0 
0 0 0 0 0 0 0 0 0 
0 0 0 0 0 0 0 0 0 
0 0 0 0 0 0 0 0 0 
0 0 0 0 0 0 0 0 0 
0 0 0 0 0 0 0 0 0 
0 0 0 0 0 0 0 0 0 
0 0 0 0 0 0 0 0 0 
0 0 0 0 0 0 0 0 0 
0 0 0 0 0 0 0 0 0 
0 0 0 0 0 0 0 0 0 
0 0 0 0 0 0 0 0 0 
0 0 0 0 0 0 0 0 0 
0 0 0 0 0 0 0 0 0 
0 0 0 0 0 0 0 0 0 
0 0 0 0 0 0 0 0 0 
0 0 0 0 0 0 0 0 0 
0 0 0 0 0 0 0 0 0 
0 0 0 0 0 0 0 0 0 
0 0 0 0 0 0 0 0 0 
0 0 0 0 0 0 0 0 0 
0 0 0 0 0 0 0 0 0 
0 0 0 0 0 0 0 0 0 
0 0 0 0 0 0 0 0 0 
0 0 0 0 0 0 0 0 0 
0 0 0 0 0 0 0 0 0 
0 0 0 0 0 0 0 0 0 
0 0 0 0 0 0 0 0 0 
0 0 0 0 0 0 0 0 0 
0 0 0 0 0 0 0 0 0 
0 0 0 0 0 0 0 0 0 
0 0 0 0 0 0 0 0 0 
0 0 0 0 0 0 0 0 0 
0 0 0 0 0 0 0 0 0 
0 0 0 0 0 0 0 0 0 
0 0 0 0 0 0 0 0 0 
0 0 0 0 0 0 0 0 0 
0 0 0 0 0 0 0 0 0 
0 0 0 0 0 0 0 0 0 
0 0 0 0 0 0 0 0 0 
0 0 0 0 0 0 0 0 0 
0 0 0 0 0 0 0 0 0 
0 0 0 0 0 0 0 0 0 
0 0 0 0 0 0 0 0 0 
0 0 0 0 0 0 0 0 0 
0 0 0 0 0 0 0 0 0 
0 0 0 0 0 0 0 0 0 
0 0 0 0 0 0 0 0 0 
0 0 0 0 0 0 0 0 0 
0 0 0 0 0 0 0 0 0 
0 0 0 0 0 0 0 0 0 
0 0 0 0 0 0 0 0 0 
0 0 0 0 0 0 0 0 0 
0 0 0 0 0 0 0 0 0 
0 0 0 0 0 0 0 0 0 
0 0 0 0 0 0 0 0 0 
0 0 0 0 0 0 0 0 0 
0 0 0 0 0 0 0 0 0 
0 0 0 0 0 0 0 0 0 
0 0 0 0 0 0 0 0 0 
0 0 0 0 0 0 0 0 0 
0 0 0 0 0 0 0 0 0 
0 0 0 0 0 0 0 0 0 
0 0 0 0 0 0 0 0 0 
0 0 0 0 0 0 0 0 0 
0 0 0 0 0 0 0 0 0 
0 0 0 0 0 0 0 0 0 
0 0 0 0 0 0 0 0 0 
0 0 0 0 0 0 0 0 0 
0 0 0 0 0 0 0 0 0 
0 0 0 0 0 0 0 0 0 
0 0 0 0 0 0 0 0 0 
0 0 0 0 0 0 0 0 0 
0 0 0 0 0 0 0 0 0 
0 0 0 0 0 0 0 0 0 
0 0 0 0 0 0 0 0 0 
0 0 0 0 0 0 0 0 0 
0 0 0 0 0 0 0 0 0 
0 0 0 0 0 0 0 0 0 
0 0 0 0 0 0 0 0 0 
0 0 0 0 0 0 0 0 0 
0 0 0 0 0 0 0 0 0 
0 0 0 0 0 0 0 0 0 
0 0 0 0 0 0 0 0 0 
0 0 0 0 0 0 0 0 0 
0 0 0 0 0 0 0 0 0 
0 0 0 0 0 0 0 0 0 
0 0 0 0 0 0 0 0 0 
0 0 0 0 0 0 0 0 0 
0 0 0 0 0 0 0 0 0 
0 0 0 0 0 0 0 0 0 
0 0 0 0 0 0 0 0 0 
0 0 0 0 0 0 0 0 0 
0 0 0 0 0 0 0 0 0 
0 0 0 0 0 0 0 0 0 
0 0 0 0 0 0 0 0 0 
0 0 0 0 0 0 0 0 0 
0 0 0 0 0 0 0 0 0 
0 0 0 0 0 0 0 0 0 
0 0 0 0 0 0 0 0 0 
0 0 0 0 0 0 0 0 0 
0 0 0 0 0 0 0 0 0 
0 0 0 0 0 0 0 0 0 
0 0 0 0 0 0 0 0 0 
0 0 0 0 0 0 0 0 0 
0 0 0 0 0 0 0 0 0 
0 0 0 0 0 0 0 0 0 
0 0 0 0 0 0 0 0 0 
0 0 0 0 0 0 0 0 0 
0 0 0 0 0 0 0 0 0 
0 0 0 0 0 0 0 0 0 
0 0 0 0 0 0 0 0 0 
0 0 0 0 0 0 0 0 0 
0 0 0 0 0 0 0 0 0 
0 0 0 0 0 0 0 0 0 
0 0 0 0 0 0 0 0 0 
0 0 0 0 0 0 0 0 0 
0 0 0 0 0 0 0 0 0 
0 0 0 0 0 0 0 0 0 
0 0 0 0 0 0 0 0 0 
0 0 0 0 0 0 0 0 0 
0 0 0 0 0 0 0 0 0 
0 0 0 0 0 0 0 0 0 
0 0 0 0 0 0 0 0 0 
0 0 0 0 0 0 0 0 0 
0 0 0 0 0 0 0 0 0 
0 0 0 0 0 0 0 0 0 
0 0 0 0 0 0 0 0 0 
0 0 0 0 0 0 0 0 0 
0 0 0 0 0 0 0 0 0 
0 0 0 0 0 0 0 0 0 
0 0 0 0 0 0 0 0 0 
0 0 0 0 0 0 0 0 0 
0 0 0 0 0 0 0 0 0 
0 0 0 0 0 0 0 0 0 
0 0 0 0 0 0 0 0 0 
0 0 0 0 0 0 0 0 0 
0 0 0 0 0 0 0 0 0 
0 0 0 0 0 0 0 0 0 
0 0 0 0 0 0 0 0 0 
0 0 0 0 0 0 0 0 0 
0 0 0 0 0 0 0 0 0 
0 0 0 0 0 0 0 0 0 
0 0 0 0 0 0 0 0 0 
0 0 0 0 0 0 0 0 0 
0 0 0 0 0 0 0 0 0 
0 0 0 0 0 0 0 0 0 
0 0 0 0 0 0 0 0 0 
0 0 0 0 0 0 0 0 0 
0 0 0 0 0 0 0 0 0 
0 0 0 0 0 0 0 0 0 
0 0 0 0 0 0 0 0 0 
0 0 0 0 0 0 0 0 0 
0 0 0 0 0 0 0 0 0 
0 0 0 0 0 0 0 0 0 
0 0 0 0 0 0 0 0 0 
0 0 0 0 0 0 0 0 0 
0 0 0 0 0 0 0 0 0 
0 0 0 0 0 0 0 0 0 
0 0 0 0 0 0 0 0 0 
0 0 0 0 0 0 0 0 0 
0 0 0 0 0 0 0 0 0 
0 0 0 0 0 0 0 0 0 
0 0 0 0 0 0 0 0 0 
0 0 0 0 0 0 0 0 0 
0 0 0 0 0 0 0 0 0 
0 0 0 0 0 0 0 0 0 
0 0 0 0 0 0 0 0 0 
0 0 0 0 0 0 0 0 0 
0 0 0 0 0 0 0 0 0 
0 0 0 0 0 0 0 0 0 
0 0 0 0 0 0 0 0 0 
0 0 0 0 0 0 0 0 0 
0 0 0 0 0 0 0 0 0 
0 0 0 0 0 0 0 0 0 
0 0 0 0 0 0 0 0 0 
0 0 0 0 0 0 0 0 0 
0 0 0 0 0 0 0 0 0 
0 0 0 0 0 0 0 0 0 
0 0 0 0 0 0 0 0 0 
0 0 0 0 0 0 0 0 0 
0 0 0 0 0 0 0 0 0 
0 0 0 0 0 0 0 0 0 
0 0 0 0 0 0 0 0 0 
0 0 0 0 0 0 0 0 0 
0 0 0 0 0 0 0 0 0 
0 0 0 0 0 0 0 0 0 
0 0 0 0 0 0 0 0 0 
0 0 0 0 0 0 0 0 0 
0 0 0 0 0 0 0 0 0 
0 0 0 0 0 0 0 0 0 
0 0 0 0 0 0 0 0 0 
0 0 0 0 0 0 0 0 0 
0 0 0 0 0 0 0 0 0 
0 0 0 0 0 0 0 0 0 
0 0 0 0 0 0 0 0 0 
0 0 0 0 0 0 0 0 0 
0 0 0 0 0 0 0 0 0 
0 0 0 0 0 0 0 0 0 
0 0 0 0 0 0 0 0 0 
0 0 0 0 0 0 0 0 0 
0 0 0 0 0 0 0 0 0 
0 0 0 0 0 0 0 0 0 
0 0 0 0 0 0 0 0 0 
0 0 0 0 0 0 0 0 0 
0 0 0 0 0 0 0 0 0 
0 0 0 0 0 0 0 0 0 
0 0 0 0 0 0 0 0 0 
0 0 0 0 0 0 0 0 0 
0 0 0 0 0 0 0 0 0 
0 0 0 0 0 0 0 0 0 
0 0 0 0 0 0 0 0 0 
0 0 0 0 0 0 0 0 0 
0 0 0 0 0 0 0 0 0 
0 0 0 0 0 0 0 0 0 
0 0 0 0 0 0 0 0 0 
0 0 0 0 0 0 0 0 0 
0 0 0 0 0 0 0 0 0 
0 0 0 0 0 0 0 0 0 
0 0 0 0 0 0 0 0 0 
0 0 0 0 0 0 0 0 0 
0 0 0 0 0 0 0 0 0 
0 0 0 0 0 0 0 0 0 
0 0 0 0 0 0 0 0 0 
0 0 0 0 0 0 0 0 0 
0 0 0 0 0 0 0 0 0 
0 0 0 0 0 0 0 0 0 
0 0 0 0 0 0 0 0 0 
0 0 0 0 0 0 0 0 0 
0 0 0 0 0 0 0 0 0 
0 0 0 0 0 0 0 0 0 
0 0 0 0 0 0 0 0 0 
0 0 0 0 0 0 0 0 0 
0 0 0 0 0 0 0 0 0 
0 0 0 0 0 0 0 0 0 
0 0 0 0 0 0 0 0 0 
0 0 0 0 0 0 0 0 0 
0 0 0 0 0 0 0 0 0 
0 0 0 0 0 0 0 0 0 
0 0 0 0 0 0 0 0 0 
0 0 0 0 0 0 0 0 0 
0 0 0 0 0 0 0 0 0 
0 0 0 0 0 0 0 0 0 
0 0 0 0 0 0 0 0 0 
0 0 0 0 0 0 0 0 0 
0 0 0 0 0 0 0 0 0 
0 0 0 0 0 0 0 0 0 
0 0 0 0 0 0 0 0 0 
0 0 0 0 0 0 0 0 0 
0 0 0 0 0 0 0 0 0 
0 0 0 0 0 0 0 0 0 
0 0 0 0 0 0 0 0 0 
0 0 0 0 0 0 0 0 0 
0 0 0 0 0 0 0 0 0 
0 0 0 0 0 0 0 0 0 
0 0 0 0 0 0 0 0 0 
0 0 0 0 0 0 0 0 0 
0 0 0 0 0 0 0 0 0 
0 0 0 0 0 0 0 0 0 
0 0 0 0 0 0 0 0 0 
0 0 0 0 0 0 0 0 0 
0 0 0 0 0 0 0 0 0 
0 0 0 0 0 0 0 0 0 
0 0 0 0 0 0 0 0 0 
0 0 0 0 0 0 0 0 0 
0 0 0 0 0 0 0 0 0 
0 0 0 0 0 0 0 0 0 
0 0 0 0 0 0 0 0 0 
0 0 0 0 0 0 0 0 0 
0 0 0 0 0 0 0 0 0 
0 0 0 0 0 0 0 0 0 
0 0 0 0 0 0 0 0 0 
0 0 0 0 0 0 0 0 0 
0 0 0 0 0 0 0 0 0 
0 0 0 0 0 0 0 0 0 
0 0 0 0 0 0 0 0 0 
0 0 0 0 0 0 0 0 0 
0 0 0 0 0 0 0 0 0 
0 0 0 0 0 0 0 0 0 
0 0 0 0 0 0 0 0 0 
0 0 0 0 0 0 0 0 0 
0 0 0 0 0 0 0 0 0 
0 0 0 0 0 0 0 0 0 
0 0 0 0 0 0 0 0 0 
0 0 0 0 0 0 0 0 0 
0 0 0 0 0 0 0 0 0 
0 0 0 0 0 0 0 0 0 
0 0 0 0 0 0 0 0 0 
0 0 0 0 0 0 0 0 0 
0 0 0 0 0 0 0 0 0 
0 0 0 0 0 0 0 0 0 
0 0 0 0 0 0 0 0 0 
0 0 0 0 0 0 0 0 0 
0 0 0 0 0 0 0 0 0 
0 0 0 0 0 0 0 0 0 
0 0 0 0 0 0 0 0 0 
0 0 0 0 0 0 0 0 0 
0 0 0 0 0 0 0 0 0 
0 0 0 0 0 0 0 0 0 
0 0 0 0 0 0 0 0 0 
0 0 0 0 0 0 0 0 0 
0 0 0 0 0 0 0 0 0 
0 0 0 0 0 0 0 0 0 
0 0 0 0 0 0 0 0 0 
0 0 0 0 0 0 0 0 0 
0 0 0 0 0 0 0 0 0 
0 0 0 0 0 0 0 0 0 
0 0 0 0 0 0 0 0 0 
0 0 0 0 0 0 0 0 0 
0 0 0 0 0 0 0 0 0 
0 0 0 0 0 0 0 0 0 
0 0 0 0 0 0 0 0 0 
0 0 0 0 0 0 0 0 0 
0 0 0 0 0 0 0 0 0 
0 0 0 0 0 0 0 0 0 
0 0 0 0 0 0 0 0 0 
0 0 0 0 0 0 0 0 0 
0 0 0 0 0 0 0 0 0 
0 0 0 0 0 0 0 0 0 
0 0 0 0 0 0 0 0 0 
0 0 0 0 0 0 0 0 0 
0 0 0 0 0 0 0 0 0 
0 0 0 0 0 0 0 0 0 
0 0 0 0 0 0 0 0 0 
0 0 0 0 0 0 0 0 0 
0 0 0 0 0 0 0 0 0 
0 0 0 0 0 0 0 0 0 
0 0 0 0 0 0 0 0 0 
0 0 0 0 0 0 0 0 0 
0 0 0 0 0 0 0 0 0 
0 0 0 0 0 0 0 0 0 
0 0 0 0 0 0 0 0 0 
0 0 0 0 0 0 0 0 0 
0 0 0 0 0 0 0 0 0 
0 0 0 0 0 0 0 0 0 
0 0 0 0 0 0 0 0 0 
0 0 0 0 0 0 0 0 0 
0 0 0 0 0 0 0 0 0 
0 0 0 0 0 0 0 0 0 
0 0 0 0 0 0 0 0 0 
0 0 0 0 0 0 0 0 0 
0 0 0 0 0 0 0 0 0 
0 0 0 0 0 0 0 0 0 
0 0 0 0 0 0 0 0 0 
0 0 0 0 0 0 0 0 0 
0 0 0 0 0 0 0 0 0 
0 0 0 0 0 0 0 0 0 
0 0 0 0 0 0 0 0 0 
0 0 0 0 0 0 0 0 0 
0 0 0 0 0 0 0 0 0 
0 0 0 0 0 0 0 0 0 
0 0 0 0 0 0 0 0 0 
0 0 0 0 0 0 0 0 0 
0 0 0 0 0 0 0 0 0 
0 0 0 0 0 0 0 0 0 
0 0 0 0 0 0 0 0 0 
0 0 0 0 0 0 0 0 0 
0 0 0 0 0 0 0 0 0 
0 0 0 0 0 0 0 0 0 
0 0 0 0 0 0 0 0 0 
0 0 0 0 0 0 0 0 0 
0 0 0 0 0 0 0 0 0 
0 0 0 0 0 0 0 0 0 
0 0 0 0 0 0 0 0 0 
0 0 0 0 0 0 0 0 0 
0 0 0 0 0 0 0 0 0 
0 0 0 0 0 0 0 0 0 
0 0 0 0 0 0 0 0 0 
0 0 0 0 0 0 0 0 0 
0 0 0 0 0 0 0 0 0 
0 0 0 0 0 0 0 0 0 
0 0 0 0 0 0 0 0 0 
0 0 0 0 0 0 0 0 0 
0 0 0 0 0 0 0 0 0 
0 0 0 0 0 0 0 0 0 
0 0 0 0 0 0 0 0 0 
0 0 0 0 0 0 0 0 0 
0 0 0 0 0 0 0 0 0 
0 0 0 0 0 0 0 0 0 
0 0 0 0 0 0 0 0 0 
0 0 0 0 0 0 0 0 0 
0 0 0 0 0 0 0 0 0 
0 0 0 0 0 0 0 0 0 
0 0 0 0 0 0 0 0 0 
0 0 0 0 0 0 0 0 0 
0 0 0 0 0 0 0 0 0 
0 0 0 0 0 0 0 0 0 
0 0 0 0 0 0 0 0 0 
0 0 0 0 0 0 0 0 0 
0 0 0 0 0 0 0 0 0 
0 0 0 0 0 0 0 0 0 
0 0 0 0 0 0 0 0 0 
0 0 0 0 0 0 0 0 0 
0 0 0 0 0 0 0 0 0 
0 0 0 0 0 0 0 0 0 
0 0 0 0 0 0 0 0 0 
0 0 0 0 0 0 0 0 0 
0 0 0 0 0 0 0 0 0 
0 0 0 0 0 0 0 0 0 
0 0 0 0 0 0 0 0 0 
0 0 0 0 0 0 0 0 0 
0 0 0 0 0 0 0 0 0 
0 0 0 0 0 0 0 0 0 
0 0 0 0 0 0 0 0 0 
0 0 0 0 0 0 0 0 0 
0 0 0 0 0 0 0 0 0 
0 0 0 0 0 0 0 0 0 
0 0 0 0 0 0 0 0 0 
0 0 0 0 0 0 0 0 0 
0 0 0 0 0 0 0 0 0 
0 0 0 0 0 0 0 0 0 
0 0 0 0 0 0 0 0 0 
0 0 0 0 0 0 0 0 0 
0 0 0 0 0 0 0 0 0 
0 0 0 0 0 0 0 0 0 
0 0 0 0 0 0 0 0 0 
0 0 0 0 0 0 0 0 0 
0 0 0 0 0 0 0 0 0 
0 0 0 0 0 0 0 0 0 
0 0 0 0 0 0 0 0 0 
0 0 0 0 0 0 0 0 0 
0 0 0 0 0 0 0 0 0 
0 0 0 0 0 0 0 0 0 
0 0 0 0 0 0 0 0 0 
0 0 0 0 0 0 0 0 0 
0 0 0 0 0 0 0 0 0 
0 0 0 0 0 0 0 0 0 
0 0 0 0 0 0 0 0 0 
0 0 0 0 0 0 0 0 0 
0 0 0 0 0 0 0 0 0 
0 0 0 0 0 0 0 0 0 
0 0 0 0 0 0 0 0 0 
0 0 0 0 0 0 0 0 0 
0 0 0 0 0 0 0 0 0 
0 0 0 0 0 0 0 0 0 
0 0 0 0 0 0 0 0 0 
0 0 0 0 0 0 0 0 0 
0 0 0 0 0 0 0 0 0 
0 0 0 0 0 0 0 0 0 
0 0 0 0 0 0 0 0 0 
0 0 0 0 0 0 0 0 0 
0 0 0 0 0 0 0 0 0 
0 0 0 0 0 0 0 0 0 
0 0 0 0 0 0 0 0 0 
0 0 0 0 0 0 0 0 0 
0 0 0 0 0 0 0 0 0 
0 0 0 0 0 0 0 0 0 
0 0 0 0 0 0 0 0 0 
0 0 0 0 0 0 0 0 0 
0 0 0 0 0 0 0 0 0 
0 0 0 0 0 0 0 0 0 
0 0 0 0 0 0 0 0 0 
0 0 0 0 0 0 0 0 0 
0 0 0 0 0 0 0 0 0 
0 0 0 0 0 0 0 0 0 
0 0 0 0 0 0 0 0 0 
0 0 0 0 0 0 0 0 0 
0 0 0 0 0 0 0 0 0 
0 0 0 0 0 0 0 0 0 
0 0 0 0 0 0 0 0 0 
0 0 0 0 0 0 0 0 0 
0 0 0 0 0 0 0 0 0 
0 0 0 0 0 0 0 0 0 
0 0 0 0 0 0 0 0 0 
0 0 0 0 0 0 0 0 0 
0 0 0 0 0 0 0 0 0 
0 0 0 0 0 0 0 0 0 
0 0 0 0 0 0 0 0 0 
0 0 0 0 0 0 0 0 0 
0 0 0 0 0 0 0 0 0 
0 0 0 0 0 0 0 0 0 
0 0 0 0 0 0 0 0 0 
0 0 0 0 0 0 0 0 0 
0 0 0 0 0 0 0 0 0 
0 0 0 0 0 0 0 0 0 
0 0 0 0 0 0 0 0 0 
0 0 0 0 0 0 0 0 0 
0 0 0 0 0 0 0 0 0 
0 0 0 0 0 0 0 0 0 
0 0 0 0 0 0 0 0 0 
0 0 0 0 0 0 0 0 0 
0 0 0 0 0 0 0 0 0 
0 0 0 0 0 0 0 0 0 
0 0 0 0 0 0 0 0 0 
0 0 0 0 0 0 0 0 0 
0 0 0 0 0 0 0 0 0 
0 0 0 0 0 0 0 0 0 
0 0 0 0 0 0 0 0 0 
0 0 0 0 0 0 0 0 0 
0 0 0 0 0 0 0 0 0 
0 0 0 0 0 0 0 0 0 
0 0 0 0 0 0 0 0 0 
0 0 0 0 0 0 0 0 0 
0 0 0 0 0 0 0 0 0 
0 0 0 0 0 0 0 0 0 
0 0 0 0 0 0 0 0 0 
0 0 0 0 0 0 0 0 0 
0 0 0 0 0 0 0 0 0 
0 0 0 0 0 0 0 0 0 
0 0 0 0 0 0 0 0 0 
0 0 0 0 0 0 0 0 0 
0 0 0 0 0 0 0 0 0 
0 0 0 0 0 0 0 0 0 
0 0 0 0 0 0 0 0 0 
0 0 0 0 0 0 0 0 0 
0 0 0 0 0 0 0 0 0 
0 0 0 0 0 0 0 0 0 
0 0 0 0 0 0 0 0 0 
0 0 0 0 0 0 0 0 0 
0 0 0 0 0 0 0 0 0 
0 0 0 0 0 0 0 0 0 
0 0 0 0 0 0 0 0 0 
0 0 0 0 0 0 0 0 0 
0 0 0 0 0 0 0 0 0 
0 0 0 0 0 0 0 0 0 
0 0 0 0 0 0 0 0 0 
0 0 0 0 0 0 0 0 0 
0 0 0 0 0 0 0 0 0 
0 0 0 0 0 0 0 0 0 
0 0 0 0 0 0 0 0 0 
0 0 0 0 0 0 0 0 0 
0 0 0 0 0 0 0 0 0 
0 0 0 0 0 0 0 0 0 
0 0 0 0 0 0 0 0 0 
0 0 0 0 0 0 0 0 0 
0 0 0 0 0 0 0 0 0 
0 0 0 0 0 0 0 0 0 
0 0 0 0 0 0 0 0 0 
0 0 0 0 0 0 0 0 0 
0 0 0 0 0 0 0 0 0 
0 0 0 0 0 0 0 0 0 
0 0 0 0 0 0 0 0 0 
0 0 0 0 0 0 0 0 0 
0 0 0 0 0 0 0 0 0 
0 0 0 0 0 0 0 0 0 
0 0 0 0 0 0 0 0 0 
0 0 0 0 0 0 0 0 0 
0 0 0 0 0 0 0 0 0 
0 0 0 0 0 0 0 0 0 
0 0 0 0 0 0 0 0 0 
0 0 0 0 0 0 0 0 0 
0 0 0 0 0 0 0 0 0 
0 0 0 0 0 0 0 0 0 
0 0 0 0 0 0 0 0 0 
0 0 0 0 0 0 0 0 0 
0 0 0 0 0 0 0 0 0 
0 0 0 0 0 0 0 0 0 
0 0 0 0 0 0 0 0 0 
0 0 0 0 0 0 0 0 0 
0 0 0 0 0 0 0 0 0 
0 0 0 0 0 0 0 0 0 
0 0 0 0 0 0 0 0 0 
0 0 0 0 0 0 0 0 0 
0 0 0 0 0 0 0 0 0 
0 0 0 0 0 0 0 0 0 
0 0 0 0 0 0 0 0 0 
0 0 0 0 0 0 0 0 0 
0 0 0 0 0 0 0 0 0 
0 0 0 0 0 0 0 0 0 
0 0 0 0 0 0 0 0 0 
0 0 0 0 0 0 0 0 0 
0 0 0 0 0 0 0 0 0 
0 0 0 0 0 0 0 0 0 
0 0 0 0 0 0 0 0 0 
0 0 0 0 0 0 0 0 0 
0 0 0 0 0 0 0 0 0 
0 0 0 0 0 0 0 0 0 
0 0 0 0 0 0 0 0 0 
0 0 0 0 0 0 0 0 0 
0 0 0 0 0 0 0 0 0 
0 0 0 0 0 0 0 0 0 
0 0 0 0 0 0 0 0 0 
0 0 0 0 0 0 0 0 0 
0 0 0 0 0 0 0 0 0 
0 0 0 0 0 0 0 0 0 
0 0 0 0 0 0 0 0 0 
0 0 0 0 0 0 0 0 0 
0 0 0 0 0 0 0 0 0 
0 0 0 0 0 0 0 0 0 
0 0 0 0 0 0 0 0 0 
0 0 0 0 0 0 0 0 0 
0 0 0 0 0 0 0 0 0 
0 0 0 0 0 0 0 0 0 
0 0 0 0 0 0 0 0 0 
0 0 0 0 0 0 0 0 0 
0 0 0 0 0 0 0 0 0 
0 0 0 0 0 0 0 0 0 
0 0 0 0 0 0 0 0 0 
0 0 0 0 0 0 0 0 0 
0 0 0 0 0 0 0 0 0 
0 0 0 0 0 0 0 0 0 
0 0 0 0 0 0 0 0 0 
0 0 0 0 0 0 0 0 0 
0 0 0 0 0 0 0 0 0 
0 0 0 0 0 0 0 0 0 
0 0 0 0 0 0 0 0 0 
0 0 0 0 0 0 0 0 0 
0 0 0 0 0 0 0 0 0 
0 0 0 0 0 0 0 0 0 
0 0 0 0 0 0 0 0 0 
0 0 0 0 0 0 0 0 0 
0 0 0 0 0 0 0 0 0 
0 0 0 0 0 0 0 0 0 
0 0 0 0 0 0 0 0 0 
0 0 0 0 0 0 0 0 0 
0 0 0 0 0 0 0 0 0 
0 0 0 0 0 0 0 0 0 
0 0 0 0 0 0 0 0 0 
0 0 0 0 0 0 0 0 0 
0 0 0 0 0 0 0 0 0 
0 0 0 0 0 0 0 0 0 
0 0 0 0 0 0 0 0 0 
0 0 0 0 0 0 0 0 0 
0 0 0 0 0 0 0 0 0 
0 0 0 0 0 0 0 0 0 
0 0 0 0 0 0 0 0 0 
0 0 0 0 0 0 0 0 0 
0 0 0 0 0 0 0 0 0 
0 0 0 0 0 0 0 0 0 
0 0 0 0 0 0 0 0 0 
0 0 0 0 0 0 0 0 0 
0 0 0 0 0 0 0 0 0 
0 0 0 0 0 0 0 0 0 
0 0 0 0 0 0 0 0 0 
0 0 0 0 0 0 0 0 0 
0 0 0 0 0 0 0 0 0 
0 0 0 0 0 0 0 0 0 
0 0 0 0 0 0 0 0 0 
0 0 0 0 0 0 0 0 0 
0 0 0 0 0 0 0 0 0 
0 0 0 0 0 0 0 0 0 
0 0 0 0 0 0 0 0 0 
0 0 0 0 0 0 0 0 0 
0 0 0 0 0 0 0 0 0 
0 0 0 0 0 0 0 0 0 
0 0 0 0 0 0 0 0 0 
0 0 0 0 0 0 0 0 0 
0 0 0 0 0 0 0 0 0 
0 0 0 0 0 0 0 0 0 
0 0 0 0 0 0 0 0 0 
0 0 0 0 0 0 0 0 0 
0 0 0 0 0 0 0 0 0 
0 0 0 0 0 0 0 0 0 
0 0 0 0 0 0 0 0 0 
0 0 0 0 0 0 0 0 0 
0 0 0 0 0 0 0 0 0 
0 0 0 0 0 0 0 0 0 
0 0 0 0 0 0 0 0 0 
0 0 0 0 0 0 0 0 0 
0 0 0 0 0 0 0 0 0 
0 0 0 0 0 0 0 0 0 
0 0 0 0 0 0 0 0 0 
0 0 0 0 0 0 0 0 0 
0 0 0 0 0 0 0 0 0 
0 0 0 0 0 0 0 0 0 
0 0 0 0 0 0 0 0 0 
0 0 0 0 0 0 0 0 0 
0 0 0 0 0 0 0 0 0 
0 0 0 0 0 0 0 0 0 
0 0 0 0 0 0 0 0 0 
0 0 0 0 0 0 0 0 0 
0 0 0 0 0 0 0 0 0 
0 0 0 0 0 0 0 0 0 
0 0 0 0 0 0 0 0 0 
0 0 0 0 0 0 0 0 0 
0 0 0 0 0 0 0 0 0 
0 0 0 0 0 0 0 0 0 
0 0 0 0 0 0 0 0 0 
0 0 0 0 0 0 0 0 0 
0 0 0 0 0 0 0 0 0 
0 0 0 0 0 0 0 0 0 
0 0 0 0 0 0 0 0 0 
0 0 0 0 0 0 0 0 0 
0 0 0 0 0 0 0 0 0 
0 0 0 0 0 0 0 0 0 
0 0 0 0 0 0 0 0 0 
0 0 0 0 0 0 0 0 0 
0 0 0 0 0 0 0 0 0 
0 0 0 0 0 0 0 0 0 
0 0 0 0 0 0 0 0 0 
0 0 0 0 0 0 0 0 0 
0 0 0 0 0 0 0 0 0 
0 0 0 0 0 0 0 0 0 
0 0 0 0 0 0 0 0 0 
0 0 0 0 0 0 0 0 0 
0 0 0 0 0 0 0 0 0 
0 0 0 0 0 0 0 0 0 
0 0 0 0 0 0 0 0 0 
0 0 0 0 0 0 0 0 0 
0 0 0 0 0 0 0 0 0 
0 0 0 0 0 0 0 0 0 
0 0 0 0 0 0 0 0 0 
0 0 0 0 0 0 0 0 0 
0 0 0 0 0 0 0 0 0 
0 0 0 0 0 0 0 0 0 
0 0 0 0 0 0 0 0 0 
0 0 0 0 0 0 0 0 0 
0 0 0 0 0 0 0 0 0 
0 0 0 0 0 0 0 0 0 
0 0 0 0 0 0 0 0 0 
0 0 0 0 0 0 0 0 0 
0 0 0 0 0 0 0 0 0 
0 0 0 0 0 0 0 0 0 
0 0 0 0 0 0 0 0 0 
0 0 0 0 0 0 0 0 0 
0 0 0 0 0 0 0 0 0 
0 0 0 0 0 0 0 0 0 
0 0 0 0 0 0 0 0 0 
0 0 0 0 0 0 0 0 0 
0 0 0 0 0 0 0 0 0 
0 0 0 0 0 0 0 0 0 
0 0 0 0 0 0 0 0 0 
0 0 0 0 0 0 0 0 0 
0 0 0 0 0 0 0 0 0 
0 0 0 0 0 0 0 0 0 
0 0 0 0 0 0 0 0 0 
0 0 0 0 0 0 0 0 0 
0 0 0 0 0 0 0 0 0 
0 0 0 0 0 0 0 0 0 
0 0 0 0 0 0 0 0 0 
0 0 0 0 0 0 0 0 0 
0 0 0 0 0 0 0 0 0 
0 0 0 0 0 0 0 0 0 
0 0 0 0 0 0 0 0 0 
0 0 0 0 0 0 0 0 0 
0 0 0 0 0 0 0 0 0 
0 0 0 0 0 0 0 0 0 
0 0 0 0 0 0 0 0 0 
0 0 0 0 0 0 0 0 0 
0 0 0 0 0 0 0 0 0 
0 0 0 0 0 0 0 0 0 
0 0 0 0 0 0 0 0 0 
0 0 0 0 0 0 0 0 0 
0 0 0 0 0 0 0 0 0 
0 0 0 0 0 0 0 0 0 
0 0 0 0 0 0 1.52377e-11 3.23226e-11 1.42681e-11 
9.31272e-13 -4.60814e-12 -4.98177e-13 1.673e-12 -2.29572e-12 -1.86816e-13 -2.41437e-12 9.46536e-13 -2.61543e-13 
5.28977e-11 8.62182e-11 4.17348e-11 6.42203e-11 4.10498e-11 9.565e-12 -1.72361e-10 -2.63388e-10 -1.30725e-10 
-5.87691e-12 -4.68286e-11 -6.72539e-12 5.6805e-12 4.0106e-12 2.90733e-12 1.50378e-12 -5.79131e-12 -8.87378e-13 
1.41849e-11 2.70704e-11 1.23766e-11 3.62836e-12 -3.14474e-12 3.58065e-13 5.14128e-12 7.12633e-12 3.68028e-12 
3.41347e-12 -1.94289e-12 -2.80225e-14 -1.2662e-12 -7.4998e-12 -2.6298e-12 2.04746e-12 1.96876e-12 -3.52077e-13 
3.53501e-12 4.87173e-12 2.52202e-12 -1.38352e-12 2.9551e-12 -5.09499e-14 2.31496e-12 9.54323e-13 9.80786e-13 
-1.57962e-12 -6.22721e-14 -1.24544e-13 -1.64785e-13 -4.03858e-12 -1.26101e-12 1.68474e-12 5.74071e-13 3.10388e-13 
2.28224e-12 3.58913e-12 1.76141e-12 -3.36598e-13 1.65132e-13 -4.02823e-13 3.65878e-12 3.96955e-12 2.2885e-12 
-4.86019e-13 -2.80225e-13 -3.72173e-13 2.60498e-12 1.90975e-12 1.35442e-12 -2.63479e-13 -4.67041e-14 -6.38533e-14 
2.48742e-12 3.65083e-12 1.84148e-12 -2.86632e-12 -4.67041e-13 -1.85253e-13 -1.45659e-13 -1.34565e-13 -8.40674e-14 
1.55957e-12 -1.19562e-12 4.67041e-14 -4.21316e-13 -3.08149e-12 -1.05084e-12 2.04916e-12 -2.15617e-12 2.54197e-13 
1.1498e-12 2.35301e-12 1.05084e-12 2.4396e-12 6.22721e-13 -1.51302e-13 -9.28333e-12 -2.1915e-11 -9.3595e-12 
-2.24707e-12 8.96719e-13 -1.81562e-13 -2.496e-12 -1.03476e-11 -3.85309e-12 -4.17696e-12 1.86816e-13 -2.64657e-13 
-5.39065e-12 -1.53593e-11 -6.22499e-12 1.35853e-13 1.81479e-12 2.0016e-13 4.781e-12 2.61382e-12 2.21844e-12 
1.69774e-12 -1.99271e-12 3.89201e-13 6.51891e-12 9.9832e-12 4.95063e-12 -1.63077e-12 -6.4763e-12 -4.35905e-13 
5.6428e-14 -8.59661e-12 -2.56205e-12 -7.86908e-12 -1.23833e-11 -5.87137e-13 1.66562e-12 7.6752e-12 2.80225e-12 
-2.50124e-12 -3.48724e-12 6.84993e-13 -6.28194e-12 -1.09207e-11 -5.1608e-12 3.80373e-12 -7.72174e-12 -1.36999e-12 
8.4965e-12 1.75911e-11 7.82627e-12 5.04413e-12 2.98906e-12 7.20577e-13 7.52376e-12 -4.40309e-13 2.12504e-12 
4.26564e-12 1.60039e-11 2.34299e-12 -1.00346e-12 -1.13398e-11 -3.70297e-12 -6.94323e-13 1.8308e-11 4.27009e-13 
-1.49261e-11 -7.49191e-12 -6.72539e-12 3.06842e-12 -1.79344e-12 1.27035e-12 2.03555e-11 2.96179e-11 1.4992e-11 
-3.75615e-12 8.21992e-12 2.18575e-12 -2.04739e-12 -5.03606e-12 -2.12504e-12 -6.22169e-12 2.11725e-12 3.58065e-12 
-2.35888e-11 -2.33155e-11 -1.40713e-11 -1.45435e-11 -9.71445e-12 -7.07233e-13 -1.86004e-13 -1.94297e-11 -5.88472e-12 
-5.78984e-12 1.19562e-11 -1.21431e-12 -2.30067e-11 -3.25712e-11 -1.66734e-11 1.2321e-12 4.73268e-12 1.80589e-12 
-1.28003e-11 -2.37624e-11 -1.09688e-11 -9.6203e-12 -2.02829e-12 6.67201e-13 2.79427e-11 6.77229e-11 2.86997e-11 
-1.66734e-11 -1.04617e-11 2.2418e-12 1.69064e-11 3.79709e-11 1.64632e-11 2.17414e-11 5.23086e-12 2.81781e-12 
2.43279e-11 5.71708e-11 2.44496e-11 -7.34796e-12 1.56926e-11 5.3087e-12 9.16558e-12 3.17783e-11 1.22832e-11 
2.49546e-11 1.59417e-11 3.23815e-12 2.56529e-11 5.82277e-11 2.51642e-11 4.20953e-12 -5.38031e-12 -1.19562e-12 
4.00352e-11 1.06616e-10 4.39953e-11 3.759e-12 4.12117e-11 -2.25581e-12 9.70129e-12 4.08325e-11 1.51601e-11 
-1.21949e-11 9.71445e-12 -1.08353e-12 8.88746e-12 2.03493e-11 8.77103e-12 -9.53732e-12 -1.25541e-11 -1.39178e-12 
3.99299e-11 6.48429e-11 3.14319e-11 -6.40348e-12 -1.79344e-11 -8.7181e-13 3.77295e-13 8.6833e-12 2.71818e-12 
-1.3573e-11 -2.39125e-12 2.2418e-12 1.61485e-11 2.87653e-11 1.34741e-11 3.17727e-12 -6.84993e-12 4.09439e-12 
2.13273e-12 -6.40282e-12 -1.28103e-12 -1.00943e-11 3.30932e-12 -2.44196e-12 -4.82638e-11 -9.09922e-11 -4.17768e-11 
2.47199e-12 1.29526e-11 -3.36269e-12 -1.12959e-11 -4.60723e-11 -1.72105e-11 8.77936e-12 1.3949e-11 3.73633e-13 
8.3301e-12 1.94588e-11 8.33668e-12 1.69454e-11 -1.79344e-11 -8.84264e-12 3.956e-11 7.27634e-11 3.3697e-11 
2.62917e-13 3.98542e-11 -3.73633e-12 5.16416e-11 9.13664e-11 4.29024e-11 -3.21696e-12 1.67387e-11 -5.38031e-12 
-8.9571e-12 -7.1091e-12 -4.81986e-12 1.44719e-11 -1.89058e-11 -1.96157e-12 1.60256e-11 1.66673e-11 9.80786e-12 
3.06874e-12 -1.36643e-11 2.13504e-13 1.72022e-11 2.52985e-11 1.27502e-11 1.69964e-11 3.58687e-12 3.51215e-12 
-2.03165e-12 1.90319e-11 5.10009e-12 -4.27009e-11 -8.36937e-12 -3.88578e-12 9.1719e-12 6.33385e-12 4.65173e-12 
2.39642e-11 -1.88311e-11 -1.98717e-26 3.46575e-11 5.38801e-11 2.65613e-11 -8.46764e-12 -3.67228e-11 -3.84308e-12 
-4.60693e-11 -8.26783e-11 -3.86243e-11 -3.20397e-11 -4.98177e-11 8.32027e-26 -6.99364e-11 -1.85768e-10 -7.67115e-11 
1.90546e-11 -1.02126e-11 6.84993e-13 -4.49854e-11 -1.31222e-10 -5.28624e-11 1.88904e-11 -1.55858e-11 2.93569e-12 
3.22316e-11 8.49956e-11 3.51682e-11 -1.38689e-11 -1.99271e-12 -2.73997e-12 1.87803e-11 4.65276e-11 1.95924e-11 
-1.26938e-12 3.18833e-11 4.73268e-12 -1.61648e-12 -2.27553e-12 -1.1676e-12 -6.30452e-13 -2.83961e-11 -3.11361e-13 
-5.60001e-11 -1.0832e-10 -4.92962e-11 1.68726e-11 1.79344e-11 -3.11361e-13 7.56979e-11 1.213e-10 5.90994e-11 
4.90382e-11 6.27703e-11 -1.56926e-12 1.04437e-11 -2.46688e-13 3.05912e-12 4.31749e-11 -1.79344e-11 2.05498e-12 
-1.13475e-11 -1.7609e-11 -8.68696e-12 2.23302e-11 9.39419e-12 4.6971e-12 -6.17818e-12 -1.21298e-11 -5.4924e-12 
4.40189e-11 -3.46731e-11 1.04617e-12 3.73041e-11 7.92693e-11 3.4972e-11 1.24035e-11 -1.913e-11 4.48359e-12 
-8.57665e-11 -1.76633e-10 -7.87198e-11 6.31382e-12 -1.3949e-11 2.73997e-12 4.80843e-11 1.12967e-10 4.83154e-11 
-1.21103e-11 -1.19562e-11 -1.5568e-12 -4.68155e-11 -9.63325e-11 -4.29444e-11 1.77649e-11 -2.59052e-11 -9.77672e-12 
-1.47744e-11 -3.02173e-11 -1.34975e-11 3.99777e-12 -4.58323e-11 -7.97083e-12 4.11135e-11 9.71306e-11 4.14732e-11 
-1.92122e-11 1.19562e-11 -5.97812e-12 1.87934e-11 -2.19848e-11 -9.57434e-13 3.8909e-11 -1.99271e-11 4.98177e-12 
-2.75396e-12 -1.51804e-11 -5.38031e-12 2.00292e-11 3.34775e-11 1.79344e-12 -1.46942e-11 -7.01205e-11 -2.54444e-11 
3.24943e-11 -2.92928e-11 4.91327e-12 4.48601e-11 8.89939e-11 4.01562e-11 -3.08214e-12 9.50522e-11 6.2023e-12 
9.02567e-11 1.69952e-10 7.80626e-11 -3.92456e-12 -5.80732e-11 4.27009e-13 1.35788e-10 2.32614e-10 1.10521e-10 
5.78649e-11 -1.02824e-10 -3.58687e-12 4.40131e-11 8.47034e-11 3.86149e-11 -1.06948e-11 -2.33147e-11 8.51883e-12 
5.5237e-13 5.43716e-11 1.64772e-11 -1.37177e-11 5.53911e-11 1.00087e-11 -1.52249e-11 -1.07738e-11 -7.79958e-12 
5.72668e-11 8.56864e-11 7.47266e-12 -2.24245e-11 -3.79016e-11 -1.80978e-11 -2.40331e-11 2.59052e-11 -6.97448e-12 
-1.06671e-10 -2.07515e-10 -9.42555e-11 -3.86957e-11 -2.56205e-11 1.06752e-12 8.47717e-11 2.06351e-10 8.73367e-11 
-2.0779e-11 -1.79344e-11 -7.47266e-12 3.90622e-11 6.05732e-11 2.98906e-11 1.0311e-11 -3.18833e-11 -1.59417e-11 
-2.66782e-11 -1.89361e-11 -1.36843e-11 -5.63195e-12 -2.86452e-11 3.67406e-12 -2.9797e-12 4.9606e-11 1.39879e-11 
-1.19124e-11 -3.01397e-11 4.35905e-13 5.79246e-11 1.07688e-10 4.96838e-11 6.94805e-11 -2.98906e-11 -2.5407e-12 
7.61898e-11 1.17912e-10 5.82307e-11 7.83398e-11 8.96719e-12 3.96051e-12 5.82493e-11 1.09652e-10 5.03704e-11 
-2.89198e-11 5.55312e-11 -3.67406e-12 -5.74399e-11 -9.02228e-11 -4.42988e-11 -3.50498e-11 5.20595e-11 -4.35905e-13 
7.05209e-11 5.90051e-11 3.88578e-11 -7.49052e-11 1.99271e-12 -3.86087e-12 5.87836e-11 1.46528e-10 6.15934e-11 
-1.35109e-12 -1.19562e-11 1.34508e-12 2.31493e-12 -7.25866e-11 -2.10815e-11 -6.20321e-11 -4.96644e-11 6.26553e-12 
-3.8032e-11 -5.42552e-11 -2.76862e-11 9.82535e-12 -5.88845e-11 4.33414e-12 -6.54944e-12 1.30102e-11 1.93822e-12 
-1.40819e-11 3.98542e-11 7.97083e-12 -3.3844e-11 -2.18825e-10 -7.58007e-11 7.54554e-12 9.26609e-12 -2.93302e-12 
1.69399e-11 1.06822e-11 8.28664e-12 1.59782e-12 -9.6077e-13 1.73099e-27 7.52099e-12 2.00863e-11 8.28219e-12 
6.81282e-12 5.97812e-12 4.98177e-12 9.48092e-11 1.24233e-10 6.57127e-11 2.53046e-11 -2.04964e-11 -2.98906e-12 
-8.82274e-11 -1.04401e-10 -5.77885e-11 -8.82067e-11 5.31389e-12 9.96354e-12 1.64176e-11 5.8136e-12 6.66934e-12 
-1.5548e-11 -1.49453e-12 -4.63305e-12 8.16147e-11 2.06269e-10 8.63652e-11 -4.39531e-11 1.19562e-10 2.74994e-11 
-4.5715e-13 -2.55267e-12 -9.02946e-13 -1.14896e-11 -9.2993e-12 -3.98542e-12 1.48043e-11 2.91559e-11 1.31881e-11 
-2.68241e-12 1.40112e-12 -2.80225e-13 4.41086e-11 5.06488e-11 2.84272e-11 9.61913e-12 5.84528e-11 -1.59417e-11 
3.67948e-11 3.35283e-11 2.10969e-11 2.00302e-11 6.14893e-11 -1.28103e-12 6.44349e-12 1.00586e-11 4.95063e-12 
-1.00477e-11 -3.98542e-12 -7.9397e-13 2.0332e-11 3.05236e-11 1.52567e-11 -9.46476e-12 2.26255e-12 -1.54642e-12 
8.77817e-11 1.45272e-10 6.9916e-11 -4.95215e-11 1.3949e-11 -5.72904e-12 -6.15431e-11 -1.16451e-10 -5.33983e-11 
-8.30844e-11 2.62802e-25 -1.32847e-12 9.16941e-12 8.42246e-12 5.27756e-12 4.08565e-13 2.36634e-12 -2.49089e-13 
1.22102e-10 8.17766e-11 6.11637e-11 3.21641e-11 6.37667e-12 1.72867e-11 -3.44386e-12 -1.12212e-11 -4.39953e-12 
8.61887e-11 -6.21725e-11 -2.83961e-12 -7.67791e-12 -1.62969e-11 -7.19243e-12 -1.12066e-12 1.29526e-12 2.93924e-12 
-1.08827e-11 -1.45074e-11 -7.61701e-12 3.96804e-12 -1.08693e-12 2.02526e-12 6.09794e-12 9.50123e-12 4.67975e-12 
-1.28799e-12 -8.21992e-12 -7.47265e-14 1.77419e-12 1.49509e-12 9.80786e-13 -8.31098e-12 2.83961e-12 -1.86816e-12 
-3.18746e-12 -8.95561e-12 -3.64292e-12 -9.30422e-12 -3.73633e-12 1.97714e-12 -2.65185e-12 1.94328e-14 -7.89724e-13 
-5.15692e-12 -3.46459e-12 -2.58146e-12 -9.85169e-12 -1.15284e-11 -6.41403e-12 9.04016e-12 -3.32118e-13 -1.07938e-12 
-1.77539e-12 5.97876e-12 1.26101e-12 3.20583e-12 -3.7897e-12 1.52122e-12 3.18351e-12 8.35908e-12 3.46277e-12 
7.27729e-12 3.5762e-12 -1.49453e-12 1.07318e-11 6.2892e-12 5.10631e-12 -9.54858e-13 6.22721e-13 2.78149e-12 
-2.41646e-12 8.59652e-13 -4.67041e-13 5.86201e-13 -1.53605e-12 8.09538e-12 1.09295e-11 1.31565e-11 7.22579e-12 
-2.90605e-12 -5.33761e-14 1.62797e-12 1.13345e-11 1.12392e-11 6.77209e-12 -2.65071e-12 -7.9397e-13 2.19509e-12 
9.90913e-12 6.90435e-12 5.04404e-12 -1.94257e-13 2.07574e-13 -3.52875e-12 8.97248e-12 3.70434e-12 3.80305e-12 
-2.20005e-14 -1.20096e-13 -1.14759e-12 -1.86233e-12 1.86233e-12 -1.70534e-27 -2.87401e-12 -9.13325e-13 -3.32118e-13 
8.63264e-12 4.97827e-12 4.08327e-12 -2.0244e-12 -4.06993e-13 -2.66881e-13 6.44634e-12 4.55507e-12 3.30042e-12 
-3.50379e-12 5.18934e-15 -4.89874e-12 -7.40956e-12 7.15309e-13 -2.00828e-12 1.32498e-12 2.29628e-13 9.34082e-13 
-6.10805e-12 4.8626e-12 -3.73633e-13 -6.81966e-13 -4.7742e-13 3.73633e-13 1.17989e-11 4.49561e-12 4.88836e-12 
5.23164e-12 1.4115e-12 1.87854e-12 2.89158e-12 7.18316e-12 3.02242e-12 3.03904e-13 -1.10755e-12 1.44115e-12 
-6.46935e-12 -1.20347e-12 -2.30184e-12 -2.69982e-12 9.47426e-13 3.31599e-12 -2.68875e-11 -5.07883e-12 -9.58991e-12 
-5.28889e-12 -9.13325e-13 -2.07574e-12 3.41246e-12 -8.08287e-12 -1.40112e-12 6.09344e-12 -2.61543e-12 -8.30295e-13 
-1.01212e-12 -1.08974e-11 -3.57286e-12 3.52219e-12 -3.86087e-12 -5.60449e-13 -1.2738e-12 5.67733e-12 1.32106e-12 
1.81921e-12 1.5746e-12 2.02829e-12 4.7246e-11 4.51243e-11 2.77111e-11 -1.04555e-11 -2.88528e-12 1.53605e-12 
-1.40741e-11 -2.49498e-11 -1.17072e-11 7.257e-12 -3.57027e-12 4.85723e-12 1.94879e-11 1.89429e-11 1.15292e-11 
1.47397e-12 -6.87217e-12 -1.09421e-12 -8.73636e-12 -1.41486e-11 -6.8655e-12 -2.29798e-12 -3.23815e-12 -5.32427e-12 
-2.12762e-11 -1.42189e-11 -1.06485e-11 4.60637e-12 -5.18934e-12 1.59832e-12 1.8441e-11 1.19167e-11 9.1073e-12 
2.24678e-12 4.00321e-13 2.20176e-12 5.79549e-11 3.03678e-11 2.64968e-11 -7.55554e-12 -1.18317e-12 -3.23296e-12 
-5.45993e-12 1.95379e-11 4.22338e-12 -2.25454e-12 1.26768e-12 -2.93235e-12 2.51461e-12 1.71011e-11 5.88472e-12 
9.28469e-12 -3.98542e-12 -6.89145e-12 -5.96794e-13 2.41045e-11 7.05232e-12 -4.99305e-12 3.48724e-12 -8.7181e-13 
-7.95539e-12 -2.44706e-11 -9.7278e-12 7.04045e-12 8.54018e-12 8.54018e-13 -1.35536e-11 -1.32234e-11 -8.0331e-12 
-9.90448e-13 6.64236e-12 -3.32118e-12 -8.37073e-12 5.76864e-12 -7.80626e-13 -2.01664e-12 4.80385e-12 2.66881e-12 
1.08391e-11 1.95964e-11 9.13065e-12 -1.93319e-11 4.48359e-12 -4.98177e-13 2.55588e-11 4.51201e-11 2.12037e-11 
1.37547e-12 1.32847e-12 3.98542e-12 -1.76305e-12 8.70195e-12 2.08167e-12 9.46058e-12 2.02829e-12 7.47265e-13 
2.29939e-12 -1.57289e-12 2.17952e-13 2.04671e-11 1.19562e-11 4.64965e-12 -9.64651e-12 2.9366e-11 5.91585e-12 
-9.90739e-13 1.36168e-11 9.05022e-12 -9.45118e-12 -1.49684e-11 -7.32587e-12 6.04149e-12 1.14225e-11 3.09581e-12 
9.34624e-12 -1.3287e-12 2.40526e-12 -9.68779e-13 2.73997e-12 4.98177e-13 2.30607e-11 6.57808e-11 2.66525e-11 
-2.336e-11 -7.8878e-12 1.66059e-12 2.09673e-11 2.48028e-11 1.3731e-11 -4.94506e-12 -8.38598e-12 1.57756e-12 
1.90216e-11 1.24703e-11 9.44757e-12 2.04813e-11 -9.02056e-12 -7.20577e-13 -8.3372e-14 4.31846e-11 1.29304e-11 
-1.27983e-11 4.80385e-13 2.13504e-13 -2.2494e-11 -1.68829e-12 -7.2547e-12 1.40086e-12 3.44572e-12 2.78149e-12 
1.10326e-11 -2.38734e-13 3.23815e-12 1.03236e-11 1.16241e-12 3.15512e-12 1.76157e-11 4.42338e-11 1.85549e-11 
-3.2899e-12 1.0435e-11 7.73954e-13 4.9363e-13 2.08346e-11 6.39846e-12 -7.44257e-13 -4.10996e-12 -2.98906e-12 
-5.61891e-11 -4.43803e-11 -3.01708e-11 -1.23278e-11 -2.05706e-11 -6.88107e-12 -3.10311e-11 -3.96255e-11 -2.1197e-11 
-5.47732e-12 -6.8188e-12 -6.18496e-12 1.49345e-11 3.18734e-11 1.40424e-11 -1.0021e-11 -8.46901e-12 -3.32118e-12 
-6.11221e-12 -4.07995e-11 -1.40735e-11 2.6449e-11 1.01296e-11 -1.56926e-11 1.45587e-11 -1.13562e-11 9.6077e-13 
-1.8909e-12 -4.59035e-12 -3.89646e-12 -2.80625e-11 -1.77075e-11 -1.3731e-11 -6.98717e-12 -3.73633e-12 -3.48724e-12 
-9.3627e-12 -1.28477e-11 -6.66312e-12 -7.64969e-12 -1.56095e-11 6.55933e-12 -3.26136e-11 -4.94521e-11 -2.46197e-11 
-3.10536e-12 2.13504e-13 6.40513e-13 2.08069e-11 5.45119e-12 7.87742e-12 -1.31478e-11 -1.81835e-11 1.66059e-13 
2.17004e-11 6.27673e-11 2.53403e-11 4.2567e-12 1.44115e-12 5.01735e-12 -6.97246e-11 -9.4051e-11 -4.91327e-11 
5.77309e-11 -6.97448e-12 7.47265e-13 9.0244e-12 4.05275e-12 3.92314e-12 8.76104e-12 1.8308e-11 -8.65583e-12 
2.05323e-11 -2.37497e-11 -9.65218e-13 -3.3773e-11 -1.77683e-11 -2.49089e-13 3.35227e-12 3.1734e-13 1.10088e-12 
-6.30944e-12 -1.25968e-11 8.54018e-13 -1.67126e-11 -7.29592e-11 -2.69016e-11 1.79901e-11 1.66059e-11 -1.49453e-12 
-2.95337e-11 -7.68738e-11 -3.19222e-11 -4.3318e-11 2.49088e-12 3.06962e-26 1.26266e-11 3.06525e-11 1.29837e-11 
-7.86318e-12 -1.42811e-11 2.90603e-12 8.84343e-11 9.39192e-11 5.47061e-11 -2.13899e-11 1.81004e-11 1.09599e-11 
-1.3094e-11 -5.56945e-11 -2.06365e-11 4.68399e-12 5.12411e-12 1.3344e-12 1.56121e-11 5.09413e-11 1.9966e-11 
-6.6553e-12 -5.10631e-12 2.11725e-12 3.44432e-12 5.15627e-11 1.65021e-11 2.95108e-12 -3.17276e-11 -1.10118e-11 
-2.77509e-11 -2.95617e-11 -1.71938e-11 -3.42074e-11 -5.66454e-12 -5.58448e-12 -1.4827e-11 -4.73414e-11 -1.86505e-11 
-2.25307e-11 -6.64236e-12 -6.39327e-12 1.17705e-11 -9.27958e-12 7.47265e-13 2.4658e-11 2.19198e-11 9.96354e-13 
-3.35649e-11 -5.28376e-11 -2.59208e-11 -9.36782e-12 -2.73997e-12 -2.92679e-12 3.02464e-12 -3.78525e-11 -1.04484e-11 
6.77316e-12 1.19562e-11 2.34855e-12 1.32592e-11 1.73579e-11 9.18514e-12 7.76608e-12 6.64236e-12 -1.82665e-12 
1.13118e-12 -2.85309e-11 -8.21992e-12 -1.19647e-11 1.72701e-11 -3.57027e-12 1.6085e-11 4.08273e-11 1.70737e-11 
-3.28009e-12 -7.47266e-12 -3.20257e-12 3.1346e-11 4.47817e-11 2.28383e-11 -3.80189e-12 3.23815e-12 -7.06789e-12 
-2.49131e-12 -1.93039e-11 -6.53857e-12 -3.34678e-13 2.65694e-11 6.97448e-12 -2.69807e-11 -7.24471e-11 -2.98283e-11 
-2.16523e-11 -5.97812e-12 -6.80842e-12 -3.36701e-12 1.69112e-11 4.06326e-12 2.40282e-11 5.12411e-12 -5.12411e-12 
1.61893e-11 1.41683e-11 9.1073e-12 -2.18769e-11 8.11317e-12 -2.56205e-12 -5.60395e-12 -1.55686e-11 -6.35176e-12 
4.03904e-11 -4.11826e-11 4.98177e-13 4.35294e-12 -1.13586e-11 -2.10168e-12 1.31975e-11 2.17775e-11 -1.06752e-12 
2.33968e-11 -1.28106e-11 3.17588e-12 -8.74105e-12 4.15148e-12 9.38233e-12 -8.16055e-12 -2.42209e-11 -9.71445e-12 
-1.1895e-11 -2.39125e-11 1.02957e-11 -2.07999e-11 1.23264e-11 -2.54204e-12 -1.01471e-13 1.1209e-11 7.95304e-12 
4.04027e-11 4.2397e-11 2.48399e-11 9.73384e-12 -7.2009e-26 -5.44436e-12 -1.412e-11 -3.51787e-11 -1.47896e-11 
7.50696e-11 -1.52774e-11 -1.36168e-11 -7.78754e-12 3.04724e-11 6.80545e-12 5.00609e-12 2.98906e-12 1.70804e-12 
1.41565e-11 1.10076e-10 3.72699e-11 -3.08463e-11 -2.823e-11 1.3949e-11 1.92336e-11 3.92244e-11 1.75374e-11 
2.9591e-11 -3.98542e-12 3.23815e-12 3.17707e-11 6.94215e-11 3.03577e-11 2.45052e-11 3.68651e-11 1.06278e-11 
5.32494e-11 1.56815e-10 6.30194e-11 -4.58766e-11 -3.71972e-11 -9.96354e-13 2.96169e-12 4.39426e-11 1.40713e-11 
-6.30896e-12 -7.89966e-12 5.49774e-12 2.82525e-11 3.15287e-11 1.79344e-11 -4.32572e-11 -1.02482e-11 -1.81479e-12 
-1.17489e-11 -1.29524e-11 -7.41038e-12 3.92894e-11 -1.72701e-11 -4.31753e-12 -2.74096e-11 -2.2497e-11 -1.4972e-11 
-1.54238e-11 -8.96719e-12 1.06752e-13 1.40322e-11 1.86607e-11 9.80786e-12 -2.6119e-11 -3.32118e-11 -1.52774e-11 
1.09723e-11 2.62872e-11 1.11778e-11 -3.16182e-11 -1.99271e-11 -8.30295e-13 -3.7336e-12 4.35099e-11 1.19329e-11 
6.5823e-12 9.46536e-12 3.86087e-12 1.34184e-11 4.19575e-12 5.28423e-12 -1.60913e-12 1.57993e-11 2.34855e-12 
-4.48025e-11 -8.56576e-11 -3.9138e-11 -3.36382e-12 1.72329e-26 -4.98177e-13 -4.40862e-11 -1.01631e-10 -4.3715e-11 
-8.47e-12 -2.39125e-11 -1.76023e-11 -1.92104e-11 -4.47743e-11 -1.91954e-11 -2.00708e-11 -5.55112e-12 4.16334e-12 
-5.18643e-11 -1.75195e-10 -6.81179e-11 -2.22073e-11 -4.48359e-12 2.61543e-12 -2.70221e-11 -1.2461e-10 -4.54898e-11 
2.10981e-11 -1.3949e-11 6.64236e-13 6.6423e-11 3.65336e-11 3.0887e-11 3.25715e-11 -2.65694e-11 1.1126e-11 
-7.33752e-11 -2.24463e-10 -8.93516e-11 -1.04543e-11 6.40513e-12 -4.6971e-12 -3.47914e-11 -1.38081e-10 -5.18616e-11 
-2.93864e-11 5.80732e-11 5.33761e-13 1.51637e-11 1.1457e-10 3.89201e-11 -3.99119e-11 3.18833e-11 2.32483e-12 
-1.55892e-12 -4.40109e-11 -1.3671e-11 3.71026e-11 4.7825e-11 1.81479e-12 1.36922e-10 2.58506e-10 1.18628e-10 
-4.00412e-11 -1.06278e-11 -1.85986e-11 -9.36524e-12 -7.70373e-11 -2.59208e-11 -1.67933e-11 -2.49088e-12 -1.74362e-12 
4.82737e-11 6.36086e-11 3.35647e-11 5.33214e-11 1.06278e-11 -3.98542e-12 -7.24621e-12 -1.26432e-12 -2.55316e-12 
3.7184e-11 1.59417e-11 -3.98542e-12 -4.36492e-11 -5.523e-11 -2.96638e-11 -6.03238e-12 -1.28103e-11 -3.62958e-12 
6.83211e-11 1.92021e-10 7.81026e-11 3.07456e-11 2.26315e-11 1.70804e-12 2.34886e-11 2.72632e-11 1.52255e-11 
2.74705e-11 9.565e-11 -1.85986e-11 4.58743e-11 1.00361e-10 4.38707e-11 -2.9423e-11 -2.12556e-11 -1.32847e-12 
1.01512e-10 2.14753e-10 9.48794e-11 2.54854e-11 8.91737e-11 8.21992e-12 -4.33812e-11 -2.72754e-11 -2.1197e-11 
-4.04179e-11 -5.97812e-12 3.84308e-12 -6.98691e-11 -8.61226e-11 -4.67975e-11 -1.50276e-11 1.06278e-11 -1.59417e-11 
-3.22046e-11 1.0654e-11 -6.46518e-12 2.28542e-11 4.35549e-11 5.65787e-12 6.97184e-11 1.99297e-10 8.07047e-11 
-5.13124e-11 -6.37667e-11 -1.46132e-11 -2.76214e-11 -9.22524e-11 -3.59622e-11 4.9301e-11 -1.06278e-11 6.64236e-12 
7.16322e-11 1.43007e-10 6.43916e-11 -2.89909e-11 -1.28103e-12 -4.48359e-12 6.44933e-11 1.69961e-10 7.03364e-11 
2.37656e-11 2.13504e-12 -5.55112e-12 1.46042e-10 2.53433e-10 1.19843e-10 3.53513e-11 1.06278e-11 1.32847e-11 
1.6862e-10 3.74237e-10 1.62857e-10 5.98687e-11 3.31288e-11 5.10631e-12 -6.8976e-11 -1.45863e-10 -6.44517e-11 
3.97651e-12 3.50147e-11 4.9106e-12 6.04932e-11 2.22637e-10 8.49392e-11 -5.1504e-11 2.65694e-11 3.98542e-12 
1.70214e-11 5.69045e-11 2.21778e-11 -1.85739e-12 -1.11022e-11 -5.23086e-12 3.91338e-11 1.30713e-10 5.09542e-11 
8.54318e-12 -3.18833e-11 1.24544e-12 5.05038e-12 6.58064e-11 2.1257e-11 6.50609e-11 -2.04964e-11 -1.70804e-12 
-2.08684e-11 -8.24811e-11 -3.10048e-11 -1.20773e-11 -1.87884e-11 3.52282e-12 -1.40584e-11 -1.69748e-10 -5.5142e-11 
-3.0902e-11 3.18833e-11 1.99271e-11 3.37867e-11 -1.2225e-11 6.46852e-12 -4.87443e-12 1.17072e-11 7.22357e-12 
7.5854e-12 1.65531e-10 5.1935e-11 -5.43817e-11 3.05549e-11 1.22884e-11 -1.2503e-11 -8.95195e-11 -3.06067e-11 
1.79015e-12 6.24382e-11 2.49088e-12 3.89528e-11 1.17573e-10 4.69576e-11 4.37642e-12 1.70804e-11 -1.88418e-11 
2.54427e-11 -2.24403e-11 9.00722e-13 1.45926e-11 6.50121e-11 5.07073e-13 -4.78118e-11 -1.50421e-10 -5.94699e-11 
2.5353e-12 -6.31024e-11 -6.31024e-12 -5.42207e-11 -1.46607e-10 -6.02483e-11 1.7417e-11 4.60814e-11 1.1209e-11 
-3.96713e-11 -7.97874e-11 -3.58376e-11 4.14996e-11 -5.11462e-11 7.63871e-12 -5.20469e-11 -3.02561e-11 -2.46909e-11 
2.11067e-12 -1.99271e-11 8.30295e-13 -1.43895e-11 -2.73773e-11 -1.253e-11 2.22732e-11 -1.77209e-11 1.04083e-12 
-1.37855e-11 -7.39404e-11 -2.63178e-11 4.46775e-11 1.04617e-11 -3.42497e-12 -2.70709e-11 -1.18646e-10 -4.3715e-11 
1.64362e-10 6.64236e-12 6.64236e-13 7.3642e-11 1.32894e-10 6.19608e-11 -5.58883e-11 9.2993e-12 1.04617e-11 
6.49406e-11 1.18607e-10 5.50641e-11 1.30637e-11 4.01388e-11 2.50868e-12 5.27783e-11 1.55589e-10 6.25101e-11 
-2.32315e-12 6.83214e-12 -8.54018e-13 -2.24013e-11 3.70352e-11 4.39018e-12 5.71254e-11 -7.83798e-11 -9.96354e-13 
2.11398e-11 1.67441e-10 5.65742e-11 -8.4647e-11 2.65136e-25 1.59417e-11 6.63676e-11 1.20449e-10 5.60449e-11 
3.74025e-11 9.3942e-11 6.19163e-12 1.01507e-10 1.74281e-10 8.27363e-11 8.0754e-12 5.67922e-11 -2.49089e-13 
5.99826e-11 1.80907e-10 7.22668e-11 1.72709e-11 4.5168e-11 -1.46132e-11 5.60683e-11 2.09522e-10 7.96772e-11 
4.4094e-11 1.42147e-10 1.62738e-11 5.86057e-11 2.40234e-10 8.96518e-11 -7.474e-11 5.46571e-11 1.00347e-11 
-7.05259e-11 -1.13288e-10 -5.51442e-11 8.65637e-11 2.81826e-11 8.11317e-12 -1.23664e-10 -1.33832e-10 -7.72486e-11 
-6.75547e-11 -2.65694e-11 1.26205e-11 6.05639e-11 1.82965e-10 7.30585e-11 -7.98774e-11 2.81826e-11 8.75368e-12 
1.0749e-10 1.10255e-10 6.53235e-11 -1.85078e-11 -4.7825e-11 -3.32118e-12 1.48171e-10 2.70531e-10 1.25611e-10 
8.79205e-11 -1.04617e-11 6.28948e-12 9.91514e-11 4.84335e-11 4.42755e-11 1.77539e-11 1.32847e-11 1.79344e-11 
-7.98885e-12 -5.71893e-11 -1.95534e-11 3.33742e-11 -9.2993e-12 -1.79344e-11 3.51445e-11 5.21255e-11 2.6181e-11 
1.0491e-11 -2.2418e-11 1.14759e-11 -3.92294e-11 -6.07174e-11 -2.9984e-11 -2.27379e-11 -6.42648e-11 1.86816e-12 
-6.94437e-11 -8.42647e-11 -4.61125e-11 3.00912e-12 -7.57229e-11 1.64398e-11 3.47357e-11 9.43677e-11 3.8731e-11 
-5.58123e-12 -7.79291e-12 -9.01723e-12 1.06145e-12 5.47759e-11 1.67512e-11 -1.03302e-11 -1.06278e-11 8.63507e-12 
2.78022e-11 -2.18863e-11 1.77476e-12 5.59682e-12 -8.63507e-12 5.81206e-12 5.96274e-11 1.32593e-10 5.76662e-11 
-1.75959e-11 2.25247e-11 -2.14038e-11 -2.10943e-11 -7.44156e-11 -2.8653e-11 -1.47772e-11 -2.98906e-12 -7.09902e-12 
-1.07793e-10 -2.35119e-10 -1.02874e-10 -1.91591e-11 -5.31389e-12 2.98906e-12 -9.63332e-11 -1.82278e-10 -8.35833e-11 
-2.33843e-11 2.90754e-11 8.83132e-12 -1.01969e-11 2.22065e-11 3.60289e-12 -3.27802e-11 -2.75421e-11 -6.93889e-12 
1.9901e-10 4.61573e-10 1.98175e-10 1.67683e-12 7.59409e-12 1.71999e-11 4.72133e-11 2.00007e-10 7.41661e-11 
-7.35538e-11 8.75974e-11 1.0595e-11 2.03951e-11 8.12642e-11 3.04978e-11 -1.55857e-11 4.2096e-11 -3.26929e-12 
-2.68389e-11 -2.59792e-11 -1.58454e-11 1.07319e-10 -1.53257e-10 1.07334e-11 -6.66758e-11 -2.25879e-10 -8.77663e-11 
-2.5662e-11 4.06512e-11 1.07606e-11 1.15997e-10 2.72954e-10 1.16686e-10 -2.22016e-12 -1.67387e-11 -2.98906e-13 
1.07532e-10 1.42594e-10 7.50379e-11 -2.3001e-11 -5.57958e-11 -8.80113e-12 1.03991e-10 1.26048e-10 6.90117e-11 
6.26504e-11 -7.2281e-11 -3.87219e-12 2.06848e-11 1.06817e-10 3.82507e-11 -2.66962e-11 -3.826e-11 8.33201e-12 
-6.53883e-11 -1.39976e-10 -6.16094e-11 -2.82533e-11 -1.75074e-11 2.52202e-12 2.70396e-11 3.8865e-11 1.97714e-11 
-3.63097e-11 -2.92264e-11 -8.30295e-13 -7.06544e-11 -1.50879e-10 -6.64599e-11 -4.75694e-11 9.66463e-11 4.85723e-12 
-6.90211e-11 -1.20731e-10 -5.69256e-11 2.60439e-12 3.41607e-12 -1.06752e-12 8.6073e-11 2.74067e-10 1.08042e-10 
-4.70544e-11 7.97083e-12 -3.98542e-12 -1.52669e-10 -3.30518e-10 -1.44956e-10 -3.52585e-11 -1.36643e-11 5.97812e-12 
3.05372e-11 4.63911e-11 2.30785e-11 4.53169e-11 4.52629e-11 -2.02829e-12 7.33073e-11 1.57722e-10 6.93089e-11 
-2.35648e-11 -8.50222e-11 7.97083e-12 5.69663e-11 1.0523e-10 4.8659e-11 -2.62679e-11 -5.0387e-11 1.60128e-13 
-3.14817e-11 -2.16942e-11 -1.59528e-11 -5.93567e-12 -2.81826e-11 3.20257e-12 -6.64258e-11 -1.83241e-10 -7.49e-11 
8.64823e-12 -1.1273e-10 -1.23833e-11 -1.20077e-10 -1.48731e-10 -8.06424e-11 -5.86871e-11 -1.06278e-11 1.32847e-12 
-1.46081e-10 -4.11165e-10 -1.67174e-10 2.1249e-11 -9.39419e-12 -6.51189e-12 -1.26464e-11 -6.17688e-11 -2.23246e-11 
-1.18549e-10 4.64965e-12 -1.78513e-11 -1.12267e-10 -2.58831e-10 -1.11329e-10 -1.15233e-12 -1.66533e-11 -2.21511e-12 
-6.73419e-11 -2.17657e-10 -8.54996e-11 -4.24386e-11 -2.12556e-11 -5.97812e-12 -3.6407e-11 -1.07508e-10 -4.31746e-11 
-1.81773e-13 -4.6971e-12 -4.80385e-13 3.30495e-11 8.75805e-11 3.6189e-11 2.464e-12 -3.20257e-13 -7.90634e-12 
-5.42603e-11 -1.25217e-10 -5.38431e-11 -1.01711e-11 5.55112e-11 5.01735e-12 8.81935e-11 1.21041e-10 6.27703e-11 
7.33897e-11 6.11097e-11 1.62738e-11 9.08126e-12 -5.99887e-11 -1.52722e-11 1.87545e-11 -4.05658e-12 -1.86816e-13 
1.26288e-10 2.95517e-10 1.26541e-10 2.96626e-12 3.4054e-11 -7.87298e-13 1.40075e-10 3.62595e-10 1.50801e-10 
6.3019e-11 2.56205e-12 -3.20257e-12 -2.39486e-10 -5.248e-10 -2.29286e-10 -7.44101e-12 -2.65694e-11 -1.32847e-12 
-6.08519e-11 -9.52732e-11 -4.68375e-11 -1.74495e-11 5.20951e-11 6.19163e-12 -9.8698e-11 -2.82407e-10 -1.14332e-10 
2.23748e-11 3.45877e-11 6.99227e-12 1.2429e-11 -8.34192e-11 -2.12971e-11 -2.63685e-11 1.36643e-11 1.17427e-11 
-2.0008e-10 -3.56737e-10 -1.67045e-10 -6.0088e-12 -5.97812e-12 9.46536e-12 7.11251e-11 1.49719e-10 6.62531e-11 
4.90194e-11 3.67228e-11 -1.86816e-12 5.89719e-11 1.77417e-10 7.09168e-11 -2.92166e-11 -1.82546e-11 1.21431e-12 
1.03832e-10 1.49972e-10 7.6141e-11 5.74914e-12 -3.41607e-12 -7.68616e-12 3.19786e-12 7.3812e-11 2.3103e-11 
5.68092e-11 -8.23653e-11 -1.90138e-11 6.17133e-11 1.7154e-10 6.99761e-11 -2.84509e-12 -3.69363e-11 -1.49453e-12 
5.81008e-11 1.4802e-10 6.18362e-11 5.08875e-11 1.79344e-11 4.98177e-13 -2.27777e-11 -9.61176e-11 -3.56686e-11 
5.31423e-11 1.49453e-11 -2.2418e-12 -3.24087e-11 -4.3252e-11 -2.26982e-11 -8.48874e-11 2.73286e-11 -2.19509e-12 
4.49501e-11 1.28166e-10 5.1935e-11 2.2946e-11 -7.43944e-11 -7.8878e-12 1.84882e-11 9.41205e-11 3.37826e-11 
6.73612e-11 -2.78979e-11 7.47266e-12 2.69687e-11 6.19693e-11 2.66814e-11 1.13314e-11 4.10996e-11 -4.27009e-13 
4.90692e-11 1.5373e-10 6.08399e-11 -6.45431e-11 4.64965e-11 4.48359e-12 -2.81557e-11 -7.90636e-11 -3.21658e-11 
-2.12983e-11 -4.22739e-11 -6.93889e-13 3.18195e-12 8.32725e-11 2.59363e-11 -1.74663e-11 -4.38396e-11 7.3066e-12 
5.27355e-11 1.3328e-10 5.58047e-11 -5.54473e-11 -2.81826e-11 -9.6077e-13 8.02725e-12 -2.3106e-11 -4.52362e-12 
-1.06408e-11 -2.43395e-11 3.09581e-12 -3.79853e-13 7.39647e-11 2.20755e-11 -4.93438e-11 -3.05549e-11 2.15877e-12 
7.56131e-11 9.02383e-11 4.97554e-11 1.41499e-10 -5.57958e-11 2.42338e-26 2.60743e-11 8.56152e-11 3.35069e-11 
-2.98654e-11 -6.40513e-13 2.34855e-12 -1.74944e-11 7.32328e-12 -3.05133e-12 -2.02683e-11 2.32483e-11 2.65694e-12 
4.29809e-11 7.47801e-11 3.53283e-11 3.27571e-11 -6.61864e-12 -7.57941e-12 4.02362e-11 5.81093e-11 2.95036e-11 
-2.79696e-11 -4.01388e-11 2.93569e-12 -6.77103e-11 -1.39789e-10 -6.22499e-11 -4.04728e-11 -6.31973e-11 2.44646e-25 
6.919e-12 -9.72124e-12 -8.40674e-13 5.96203e-11 2.39125e-11 -9.96354e-13 -5.0334e-11 -1.20469e-10 -5.12411e-11 
-2.39315e-11 -2.56205e-12 5.33761e-12 -3.20169e-11 -9.5552e-11 -3.82707e-11 2.94847e-11 1.02482e-11 6.40513e-12 
-1.97773e-11 -6.49573e-11 -2.54204e-11 3.78669e-11 1.83614e-11 2.56205e-12 -3.87542e-11 -1.10699e-10 -4.48359e-11 
-6.44117e-12 -4.01922e-11 -2.58874e-12 -7.48891e-12 -5.04242e-11 -1.73739e-11 3.32776e-11 -1.72701e-11 -3.32118e-12 
1.11581e-10 2.61948e-10 1.12059e-10 -6.73709e-11 6.11097e-11 2.49088e-12 -5.29218e-11 -1.30492e-10 -5.50241e-11 
-1.24295e-11 -4.48359e-11 -4.75047e-12 -7.37521e-12 -1.43756e-11 -6.52523e-12 -9.72645e-12 2.56205e-11 9.07394e-13 
-2.22029e-11 -1.05633e-10 -3.83507e-11 5.15582e-11 1.62263e-11 4.6971e-12 2.04164e-11 6.90479e-11 2.68393e-11 
2.22737e-11 -3.45403e-11 -2.98906e-12 -2.83596e-11 -3.70262e-11 -1.96157e-11 1.20672e-11 7.1524e-12 -4.60369e-13 
3.31905e-13 1.64816e-11 5.04404e-12 5.27564e-11 -4.38396e-11 -2.15877e-12 9.33452e-11 2.20106e-10 9.40354e-11 
-1.7404e-11 -2.47665e-11 -3.52282e-12 1.61713e-11 1.6314e-11 9.74559e-12 -2.48145e-11 -1.99271e-11 4.44208e-12 
-1.23826e-11 -4.21277e-11 -1.63531e-11 -1.5017e-11 -3.41607e-12 -4.53697e-13 1.23061e-11 4.60073e-11 1.7494e-11 
-2.9237e-12 2.77022e-11 8.74034e-13 3.00527e-11 7.57654e-11 3.17454e-11 1.11199e-11 4.09929e-11 -4.27009e-13 
-1.31451e-10 -2.68203e-10 -1.19896e-10 7.61114e-12 6.83214e-11 1.70804e-12 -7.47844e-11 -1.548e-10 -6.88752e-11 
-5.73773e-12 1.40913e-11 9.07394e-13 -2.81369e-11 -4.9592e-11 -2.33187e-11 1.39196e-12 -1.39845e-11 1.86816e-12 
2.93705e-12 9.93252e-12 3.86087e-12 -5.19684e-11 5.11462e-11 4.56662e-13 5.65927e-11 1.19282e-10 5.27623e-11 
-1.23202e-10 1.36643e-11 -8.54018e-13 3.93253e-11 6.85611e-11 3.23659e-11 -9.4119e-12 -1.23833e-11 2.62877e-12 
1.56434e-11 3.91339e-11 1.64332e-11 -1.63189e-11 8.75368e-12 2.93569e-13 3.29176e-11 7.74078e-11 3.30976e-11 
1.74235e-11 -4.64965e-12 -1.57756e-12 2.44669e-11 5.53452e-11 2.39436e-11 -9.3045e-12 -8.63507e-12 3.6533e-12 
2.19458e-11 4.7243e-11 2.07566e-11 1.13257e-11 -9.8212e-12 -2.29517e-12 2.26191e-11 7.78466e-11 3.01397e-11 
-1.27487e-12 -2.22519e-11 3.03058e-12 1.23969e-11 2.59671e-11 1.15092e-11 -1.7627e-11 2.5834e-11 -2.50868e-12 
3.45031e-11 7.46511e-11 3.27462e-11 -4.38411e-12 8.2733e-12 -1.46451e-12 3.80116e-11 1.09366e-10 4.42132e-11 
-5.7739e-12 -2.22519e-11 4.15147e-14 5.67761e-12 -2.6435e-11 -6.22721e-12 -3.30553e-11 3.78615e-11 -1.28696e-12 
-3.49375e-13 1.2359e-11 3.60289e-12 6.35454e-12 -7.89966e-12 3.92314e-12 1.23496e-11 4.96112e-11 1.85882e-11 
2.08558e-12 3.75293e-11 -9.54839e-13 2.49761e-11 7.03669e-11 2.86029e-11 -2.3789e-11 1.52656e-11 -2.4086e-12 
1.48045e-12 -5.42435e-12 -1.18317e-12 2.68246e-11 9.2993e-12 -2.83338e-12 -4.7963e-12 -1.27524e-12 -1.82146e-12 
2.67608e-12 1.55858e-11 -1.1676e-12 1.90194e-12 -3.27266e-11 -9.24741e-12 3.66772e-11 1.92154e-12 -1.4545e-12 
3.5988e-11 6.42701e-11 3.00774e-11 -2.1735e-11 3.20874e-27 -1.07938e-12 -2.51052e-11 -6.14531e-11 -2.59675e-11 
-6.81603e-12 -1.32847e-12 -8.30295e-14 1.39372e-11 4.08401e-11 1.64332e-11 -3.39475e-11 -2.30585e-11 1.46784e-13 
8.1673e-12 1.80908e-11 7.87742e-12 -1.47844e-11 -2.05913e-11 -2.49089e-13 -4.80162e-11 -1.17783e-10 -4.97399e-11 
-1.02457e-11 -1.86816e-11 4.00321e-14 -2.66288e-11 -6.14418e-11 -2.64212e-11 2.21189e-12 -3.84308e-12 3.06913e-13 
-6.5354e-12 -5.78125e-11 -1.93044e-11 3.14288e-11 -1.99271e-11 -1.07938e-12 -5.41445e-11 -1.07971e-10 -4.86345e-11 
1.61781e-11 9.96354e-12 2.63619e-12 -4.39112e-11 -1.16017e-10 -4.79784e-11 2.93126e-11 -2.77556e-12 8.00642e-14 
-1.23866e-11 -2.15739e-11 -1.01882e-11 5.06114e-12 -2.39125e-11 3.30265e-13 -1.99221e-11 -4.26614e-11 -1.8775e-11 
-3.2594e-11 -2.65694e-11 1.06122e-12 -2.71772e-11 -7.51715e-11 -3.07046e-11 -2.34852e-11 -1.53723e-11 -4.00321e-13 
-1.97661e-11 -5.04235e-11 -2.10569e-11 -2.94672e-11 1.00347e-11 1.65132e-13 -1.2388e-11 -2.49085e-11 -1.1189e-11 
-2.43765e-12 -6.83214e-12 -2.69549e-12 -4.54896e-11 -7.81206e-11 -3.70831e-11 1.07728e-11 -2.60713e-11 -2.36115e-12 
-2.17952e-11 -6.16495e-11 -2.50334e-11 3.15206e-11 -1.16241e-11 8.45863e-13 1.79377e-11 2.89666e-11 1.40713e-11 
1.15849e-11 -7.47265e-13 2.3352e-12 -4.03292e-11 -9.97831e-11 -4.20337e-11 -1.78077e-11 -1.99271e-12 -7.01859e-13 
1.72276e-12 1.45403e-13 5.60449e-13 -1.78212e-11 -7.25915e-12 1.58294e-12 -2.48816e-11 -5.23136e-11 -2.31586e-11 
-7.35739e-12 1.06752e-11 4.17001e-14 -4.24745e-12 -1.17357e-11 -4.79495e-12 2.00236e-11 1.32847e-12 -2.05263e-13 
1.78324e-11 3.1674e-11 1.48519e-11 -3.32826e-12 2.49088e-11 2.20547e-13 8.18913e-12 7.89042e-12 4.82387e-12 
1.89301e-12 1.11022e-11 3.79288e-13 -2.33855e-11 -5.86062e-11 -2.45975e-11 2.17846e-11 5.97812e-12 1.82146e-12 
2.48788e-11 5.0248e-11 2.25381e-11 6.0252e-12 1.05685e-11 -6.90553e-13 -8.65427e-12 -1.57356e-11 -7.31697e-12 
-3.15516e-11 4.18469e-11 -1.069e-12 -1.73792e-11 -3.89326e-11 -1.68935e-11 2.38079e-11 6.83214e-12 5.87137e-13 
5.30965e-11 1.14416e-10 5.02536e-11 1.18045e-11 3.98542e-12 3.3601e-12 4.49811e-11 1.01003e-10 4.37951e-11 
-2.32329e-11 9.18069e-12 1.14592e-12 1.11533e-11 2.28888e-11 1.02126e-11 3.9437e-11 1.32847e-11 5.5007e-13 
1.94429e-12 1.4202e-11 4.84388e-12 1.24994e-11 -1.53723e-11 2.20176e-13 -1.88498e-11 -5.32821e-11 -2.16396e-11 
-1.10441e-11 -7.63871e-12 -1.82795e-12 -2.28856e-11 -5.61111e-11 -2.3699e-11 5.08091e-12 -2.98906e-12 3.76135e-13 
-1.74513e-11 -4.7067e-11 -1.93555e-11 -8.25874e-13 2.34855e-12 -3.24427e-13 -1.54649e-11 -4.01649e-11 -1.66889e-11 
-5.61446e-12 4.98177e-12 -5.72125e-13 -1.77007e-11 -2.81731e-11 -1.37621e-11 3.79171e-12 1.19562e-11 1.33885e-12 
-1.30183e-11 -2.40781e-11 -1.11289e-11 1.56029e-11 1.17427e-11 8.0231e-13 -2.15711e-12 -3.13602e-12 -1.58794e-12 
-1.02037e-11 -7.47266e-12 -9.23703e-13 -8.10658e-12 -5.83792e-12 -4.18335e-12 -3.77596e-12 -4.48359e-12 1.13424e-13 
7.17752e-13 -1.28608e-11 -3.64292e-12 2.11623e-12 -1.43048e-11 -5.27089e-13 -3.73036e-12 -2.77171e-11 -9.43423e-12 
9.67777e-12 1.34508e-11 -3.00982e-13 -1.28241e-11 1.19999e-12 -3.48724e-12 -3.20519e-13 -6.64236e-13 5.18934e-13 
8.33254e-12 4.14413e-12 3.743e-12 1.27945e-12 5.97812e-12 2.46864e-13 2.38545e-11 5.72105e-11 2.43195e-11 
1.01439e-11 2.34855e-12 -3.66961e-13 1.81137e-12 6.284e-12 2.42861e-12 -1.2965e-12 1.07108e-11 1.08976e-12 
3.02911e-12 -1.61063e-11 -3.92314e-12 4.50413e-12 1.09599e-11 2.59467e-12 -2.00111e-11 -4.09044e-11 -1.82746e-11 
8.64724e-12 6.245e-12 9.9413e-13 -2.53441e-12 -2.75564e-11 -9.02723e-12 -4.78143e-12 7.1524e-12 1.10755e-12 
3.40838e-12 -1.30161e-11 -2.88231e-12 2.72058e-12 2.13504e-13 2.69549e-12 1.00071e-11 2.07138e-11 9.21627e-12 
7.03251e-12 4.98177e-12 7.47265e-13 -5.36289e-12 -1.30519e-11 -5.52443e-12 1.46178e-12 1.17427e-12 1.02749e-12 
2.12944e-11 2.79006e-11 1.47585e-11 7.18153e-12 -8.30295e-13 -1.95119e-12 1.45927e-11 3.93172e-11 1.6173e-11 
1.35978e-11 7.79291e-12 -1.26768e-13 1.1277e-11 2.86216e-11 1.19696e-11 -4.63563e-12 -8.38005e-12 -6.53857e-13 
1.74267e-12 -4.97227e-13 3.73633e-13 1.17585e-12 1.49453e-12 -1.07938e-12 8.46372e-12 6.06644e-12 4.35905e-12 
-1.02867e-11 -3.6533e-12 1.82665e-12 8.44986e-12 1.25003e-11 6.28504e-12 6.17257e-12 -6.56526e-12 4.67041e-13 
-4.74458e-12 -1.25878e-11 -5.19972e-12 -3.17233e-12 5.14783e-12 -1.43226e-12 -1.10995e-11 -1.74567e-11 -8.56687e-12 
4.19203e-12 3.76302e-12 -2.20844e-12 -1.08215e-11 -2.77455e-12 -4.07882e-12 -6.14717e-12 -7.55568e-12 6.84993e-13 
1.84333e-12 2.76036e-12 1.38111e-12 1.52784e-12 2.02829e-12 -1.3344e-14 6.28823e-12 1.05252e-11 5.04404e-12 
3.57658e-12 2.07574e-12 1.10014e-12 -4.49038e-12 -5.85124e-12 -3.10249e-12 -2.73351e-12 4.43022e-12 2.7889e-12 
-7.83781e-12 -2.03677e-12 -2.96237e-12 4.42404e-12 -1.01415e-12 7.07233e-13 1.15676e-12 -9.87486e-12 -2.61543e-12 
-2.00123e-13 1.18317e-12 -1.49453e-12 -1.27421e-12 6.77492e-12 1.65021e-12 -4.90065e-12 3.98542e-12 1.24544e-13 
-1.50082e-11 -2.29555e-11 -1.13891e-11 -5.12033e-13 -4.73713e-12 -1.41447e-12 -3.66249e-12 -2.94281e-12 -1.98159e-12 
-7.99981e-13 4.64372e-12 2.66881e-14 2.11507e-12 1.01318e-11 3.67406e-12 5.37489e-13 3.40421e-12 -2.20028e-12 
-1.28865e-14 -4.0348e-12 -1.21431e-12 -9.1719e-13 -2.70884e-12 -6.84993e-13 1.23446e-12 1.66665e-13 4.20337e-13 
-2.36427e-12 -1.76141e-12 2.53537e-13 -3.67264e-12 -4.7341e-12 -2.52202e-12 1.43949e-13 -1.60796e-12 1.60128e-13 
1.10651e-11 -2.56441e-13 3.2426e-12 4.79526e-13 -1.92154e-12 1.28103e-12 -5.06228e-12 -1.06115e-12 -1.83703e-12 
-7.11966e-13 -2.07574e-12 -4.15147e-13 -1.01779e-11 -2.83253e-12 -3.90313e-12 1.63205e-13 -3.29597e-12 1.5746e-12 
-2.98517e-12 -1.27009e-12 -1.27658e-12 1.63792e-13 6.84993e-13 2.73997e-12 -4.89539e-12 -8.42538e-13 -1.72138e-12 
-2.69519e-12 -2.26848e-13 -1.52122e-12 -7.94966e-13 -1.38456e-12 -6.53857e-13 6.56916e-13 4.64446e-13 1.03787e-13 
-8.51583e-13 3.17822e-13 -1.60128e-13 -2.74333e-12 2.1684e-13 -1.89485e-12 -1.80395e-11 -2.92542e-12 -6.28948e-12 
2.36087e-12 5.60449e-13 2.20028e-12 -1.00017e-11 -3.60924e-12 -4.08327e-12 -7.93765e-13 -6.21331e-14 5.47105e-13 
3.80552e-12 1.59881e-12 1.6213e-12 5.29252e-13 4.53697e-13 1.09421e-12 2.00757e-11 1.16831e-11 9.52763e-12 
8.09351e-13 1.96157e-12 5.52146e-12 1.70031e-11 4.06561e-12 6.32062e-12 2.8398e-12 3.6533e-12 1.99271e-12 
1.27292e-11 4.81818e-12 5.26422e-12 6.47931e-13 2.73553e-13 5.20417e-13 -7.89147e-12 -3.23259e-12 -3.33722e-12 
-8.94207e-13 -1.08693e-12 -1.08693e-12 8.619e-12 5.00303e-12 4.08661e-12 3.71864e-12 2.08612e-12 -2.92679e-12 
-1.15893e-11 -1.17628e-11 -7.00561e-12 -4.97699e-12 1.71871e-12 4.96932e-12 3.02859e-13 8.57092e-12 2.66213e-12 
1.97607e-12 3.83363e-12 3.05133e-12 3.32323e-12 6.95167e-12 3.08247e-12 -5.49217e-13 -1.47896e-13 7.23913e-13 
-1.95651e-11 -4.8453e-11 -2.04054e-11 -5.4268e-12 1.019e-12 4.65343e-12 1.69616e-13 5.85002e-12 1.80589e-12 
-8.86707e-12 -6.64236e-13 1.28696e-12 6.8268e-11 2.085e-10 8.30305e-11 1.8286e-11 -5.91834e-11 1.79344e-12 
3.05227e-11 9.55005e-11 3.7807e-11 1.50213e-11 -9.96354e-13 -6.35176e-12 1.7216e-10 4.29389e-10 1.80465e-10 
-5.35771e-11 5.43466e-11 3.94013e-12 9.61584e-11 1.67979e-10 7.92413e-11 9.31437e-11 2.2584e-11 8.05386e-12 
2.10912e-11 9.07965e-12 9.05125e-12 -3.24781e-12 3.36269e-13 2.5407e-12 1.53376e-12 5.67922e-13 6.30505e-13 
-5.19571e-12 -1.38945e-12 1.62686e-12 8.33882e-12 2.54735e-13 2.57807e-12 -1.73289e-11 7.47266e-12 3.28797e-12 
-5.40136e-11 -1.19539e-10 -5.20657e-11 -1.19717e-11 5.739e-11 1.61409e-11 2.66274e-12 5.91383e-12 2.57297e-12 
-2.18074e-12 2.10593e-12 5.96539e-13 -4.55419e-11 -1.01965e-10 -4.42521e-11 -2.90815e-11 1.09599e-11 -1.23299e-11 
6.60563e-11 1.22289e-10 5.65035e-11 6.45136e-11 -6.24986e-11 -6.11399e-12 1.53558e-11 1.14212e-11 8.0331e-12 
-5.32171e-12 6.10267e-12 -4.1878e-12 2.89066e-11 1.44763e-11 1.30149e-11 -1.03327e-11 8.30295e-13 -3.32118e-13 
8.64883e-12 7.77545e-12 4.92728e-12 -2.39548e-12 3.11361e-12 -3.21966e-12 9.48035e-11 1.78882e-10 8.21058e-11 
5.14788e-11 1.72701e-11 6.97448e-12 -8.68724e-12 -1.48628e-10 -4.71945e-11 -2.07948e-11 -4.38396e-11 -1.24544e-13 
6.43168e-13 2.23692e-12 8.64026e-13 4.90936e-12 5.29313e-12 3.69741e-13 1.15367e-11 5.84387e-15 3.46277e-12 
5.99092e-12 5.83801e-12 3.09748e-12 1.68066e-10 3.08916e-10 1.43095e-10 9.37604e-11 -1.19562e-11 -5.818e-12 
1.26751e-10 2.50151e-10 1.13071e-10 -7.11785e-12 -6.52612e-11 -1.99894e-11 -4.31511e-12 -3.66705e-12 -2.39465e-12 
3.84784e-12 8.01612e-12 3.22683e-13 -3.56112e-12 2.92059e-11 7.69344e-12 -3.5333e-12 -5.43466e-13 1.6304e-12 
-3.06114e-11 1.76192e-11 -3.89767e-12 -6.91373e-11 -4.67381e-11 5.16293e-12 -7.79799e-11 -6.28118e-11 -4.22375e-11 
-6.65245e-11 5.20369e-11 -4.31376e-12 -8.2629e-12 -6.96264e-12 -4.56766e-12 3.72483e-12 -6.72539e-13 3.73633e-13 
-6.067e-11 -2.27435e-11 -2.50241e-11 -2.64082e-11 3.826e-11 -8.36937e-12 7.78132e-12 1.47145e-11 6.74874e-12 
1.34118e-12 1.93044e-12 2.28072e-12 -2.33786e-12 2.67018e-11 7.30919e-12 8.47952e-12 -1.29526e-11 -1.13335e-11 
-2.87135e-11 -6.1759e-11 -2.71418e-11 -3.58142e-11 -2.73286e-11 2.13504e-12 -5.65333e-12 -8.24617e-11 -2.64345e-11 
6.49742e-11 -1.59417e-11 -5.31389e-12 -1.9949e-11 -2.08392e-11 -1.22365e-11 -1.76946e-12 1.42837e-12 7.00561e-13 
1.11221e-12 -3.6597e-12 -7.64249e-13 -3.46964e-12 -1.6304e-12 8.83132e-13 1.13041e-12 -7.38876e-12 -1.8775e-12 
-6.45231e-12 4.63305e-12 -7.33254e-13 -1.02616e-10 -1.84988e-10 -8.62811e-11 -4.06865e-11 -6.21725e-11 -1.3675e-11 
-7.0514e-11 -4.7087e-11 -3.52803e-11 -9.16431e-11 -4.54337e-11 -1.07606e-11 -2.91544e-13 -1.45986e-12 -5.25421e-13 
7.32883e-12 7.47266e-12 -2.61543e-12 -2.05666e-11 -2.38023e-11 -1.33107e-11 -4.74031e-12 -1.15826e-11 2.2418e-12 
3.85143e-11 3.60955e-11 2.23829e-11 -2.50054e-11 3.6616e-11 1.71871e-11 6.05358e-12 -2.31725e-12 1.1209e-12 
-3.09904e-12 -3.19025e-12 6.03561e-13 6.16126e-12 8.31701e-12 4.34348e-12 -1.86313e-12 -2.71662e-12 -2.99685e-13 
1.10859e-11 9.56766e-12 6.19608e-12 -2.84424e-13 -3.48724e-12 -2.07574e-12 9.57404e-12 1.0353e-11 5.97812e-12 
-1.06854e-12 -1.49453e-12 -3.98542e-12 -5.4189e-12 -2.28727e-12 -2.31185e-12 -7.61905e-13 7.47265e-13 1.24544e-13 
1.16992e-12 -1.57994e-13 3.03577e-13 -4.91404e-13 -1.07419e-12 1.41669e-12 -5.23835e-12 -2.2343e-12 -2.2418e-12 
5.72341e-13 -1.946e-13 2.36634e-12 -2.6739e-12 -4.39708e-13 -9.34082e-13 -8.76815e-13 7.39482e-14 1.02749e-12 
-4.31427e-12 -2.14647e-12 -1.93822e-12 -2.23995e-12 4.55365e-13 2.80225e-13 -5.51186e-12 -2.89488e-12 -2.52202e-12 
-2.58915e-12 3.11361e-13 1.74362e-12 -9.67655e-12 -4.49036e-12 -4.25007e-12 -1.24797e-13 2.02384e-12 9.65218e-13 
7.88507e-12 -8.01612e-13 2.12504e-12 1.35907e-12 5.29313e-13 -3.23815e-12 -7.29844e-12 -1.62093e-11 -7.05232e-12 
-3.99921e-13 -2.05498e-12 -9.96354e-13 -6.56753e-12 -5.26417e-12 -3.54951e-12 -3.06468e-12 -5.29313e-12 -6.84993e-13 
6.558e-12 1.08004e-11 5.20751e-12 -1.88601e-12 6.19608e-12 -2.80225e-13 3.62554e-12 -2.00576e-13 1.02749e-12 
3.77356e-12 4.73268e-12 -1.24544e-12 -1.71661e-11 -1.38921e-11 -9.31747e-12 -8.73023e-12 1.99271e-12 -9.96354e-13 
-1.18231e-11 -1.5888e-11 -8.31333e-12 1.50633e-12 3.86087e-12 -9.65218e-13 4.68006e-12 7.68752e-13 1.63464e-12 
8.22491e-14 -2.80225e-12 1.33885e-12 1.97399e-11 3.37363e-11 1.60429e-11 2.23316e-12 -2.86452e-12 6.84993e-13 
-1.06054e-11 -3.95075e-12 -4.36683e-12 7.27497e-12 -4.35905e-13 -3.30042e-12 -6.29357e-12 -2.05613e-11 -8.05646e-12 
-7.38665e-12 -6.78766e-12 -1.86816e-13 5.79594e-12 -1.20232e-11 -1.86816e-12 1.61215e-12 -7.22357e-12 4.10996e-12 
1.34e-12 2.24065e-12 1.07419e-12 1.22123e-12 -1.71871e-11 7.78402e-13 -3.48537e-13 1.0857e-11 3.15253e-12 
-6.44941e-12 -3.86087e-12 -2.49088e-12 2.1241e-11 3.69835e-11 1.74673e-11 -6.44722e-12 -8.96719e-12 -3.23815e-12 
8.72181e-12 1.53308e-11 7.21578e-12 -5.28922e-13 -1.29526e-11 -2.49089e-13 -1.02928e-12 -4.34169e-12 -1.61129e-12 
-4.54555e-12 4.2345e-12 2.02384e-12 -1.94445e-12 4.59102e-12 7.9397e-13 -6.61635e-12 1.28281e-11 -5.88472e-12 
-2.08216e-11 -5.12584e-11 -2.1624e-11 -7.51812e-13 -1.46962e-11 -5.72904e-12 -3.79287e-11 -7.08919e-11 -3.26462e-11 
7.79112e-12 -3.43742e-11 -2.42861e-12 5.99903e-12 8.32356e-12 4.29678e-12 2.65039e-11 -1.64398e-11 -1.80589e-12 
-6.5206e-12 -4.37702e-12 -3.26929e-12 4.89253e-12 -1.09599e-11 -6.4763e-12 -5.3019e-13 -7.15253e-13 -3.73633e-13 
-1.01813e-11 -1.6938e-11 -9.96354e-13 1.87872e-11 9.46876e-12 8.47679e-12 -2.16015e-11 -2.62788e-11 2.2418e-12 
9.39958e-12 1.73774e-11 8.0331e-12 -2.10461e-11 -1.56926e-11 -9.96354e-13 9.24627e-12 3.43442e-11 1.30771e-11 
-8.03021e-13 2.07989e-11 -3.98542e-12 3.56341e-12 2.18903e-11 7.63612e-12 1.63756e-11 1.72329e-26 3.48724e-12 
1.50497e-11 4.09952e-11 1.68135e-11 1.08439e-11 1.74362e-11 7.34811e-12 3.62379e-12 -4.48003e-12 -2.56873e-13 
-1.89965e-11 8.21992e-12 3.17588e-12 2.10732e-11 5.23301e-11 2.2021e-11 1.3575e-12 1.59417e-11 -2.49089e-13 
1.46313e-11 4.24255e-11 1.71171e-11 3.92316e-12 -2.69016e-11 -5.54222e-12 5.76558e-12 5.65065e-11 1.86816e-11 
-6.10204e-13 1.76853e-11 -6.84993e-13 1.61527e-11 1.42049e-11 9.1073e-12 1.23752e-11 -9.46536e-12 8.7181e-13 
3.30194e-12 6.67908e-13 1.19095e-12 5.77667e-12 6.4763e-12 3.98542e-12 1.06754e-11 4.87944e-11 1.7841e-11 
-1.49903e-11 2.64034e-11 1.1209e-11 -2.01032e-12 1.86681e-11 4.99734e-12 -9.76811e-12 2.04253e-11 1.05863e-11 
4.44253e-11 1.01447e-10 4.37617e-11 -6.62721e-12 -1.28776e-25 -1.86816e-13 2.3689e-11 7.22879e-11 2.87931e-11 
-5.33131e-12 4.73268e-12 -4.98177e-12 5.24262e-11 1.41007e-10 5.80298e-11 2.17352e-11 -1.59417e-11 -2.73997e-12 
6.43688e-11 1.22681e-10 5.6115e-11 5.51177e-12 -1.89307e-11 1.86816e-12 1.79282e-11 7.22886e-11 2.7065e-11 
-1.67437e-11 -1.56926e-11 -2.28875e-26 2.53909e-12 3.66924e-11 1.17694e-11 6.90516e-13 -6.97448e-12 -4.85723e-12 
1.23882e-11 4.34744e-12 5.02069e-12 -1.40117e-12 3.98542e-12 -2.05987e-26 5.27498e-11 1.15151e-10 5.03704e-11 
2.10827e-11 1.79344e-11 2.98906e-12 5.22309e-12 4.26486e-11 1.43615e-11 -3.05352e-13 2.93924e-11 5.29313e-12 
2.60205e-11 4.85504e-11 2.23713e-11 -1.60749e-11 1.02126e-11 -4.98177e-13 9.92454e-12 2.34689e-11 1.0018e-11 
2.08339e-11 -6.97448e-12 -7.97083e-12 -1.42742e-11 -2.26999e-11 -1.10922e-11 -8.75078e-12 -3.98542e-12 -6.4763e-12 
-4.57621e-12 1.345e-11 2.66213e-12 -1.8585e-11 -1.99271e-12 4.98177e-12 -2.07758e-12 -6.87404e-12 -2.68549e-12 
-1.39306e-11 1.29526e-11 -1.86816e-13 3.3144e-12 -1.81819e-11 -4.46024e-12 2.84206e-11 5.97812e-12 3.48724e-12 
7.60376e-11 1.56004e-10 6.96125e-11 -2.63303e-11 3.98542e-12 -3.48724e-12 3.65892e-11 7.62011e-11 3.38371e-11 
-7.8518e-12 7.97083e-12 -1.86816e-12 5.17513e-11 1.39658e-10 5.74227e-11 -3.46942e-11 6.97448e-11 4.48359e-12 
9.49747e-11 2.45498e-10 1.02142e-10 -1.52213e-11 9.96354e-11 2.98906e-12 7.69882e-11 1.84321e-10 7.83928e-11 
1.14728e-11 5.87849e-11 3.23815e-12 1.56313e-11 4.36829e-11 1.77943e-11 2.43302e-11 2.59052e-11 1.15826e-11 
1.09777e-10 2.64479e-10 1.12277e-10 -8.91613e-12 3.83596e-11 -2.73997e-12 7.57889e-11 1.55319e-10 6.93322e-11 
3.42771e-11 7.17375e-11 -3.98542e-12 3.22823e-11 2.69541e-11 1.77709e-11 2.66875e-11 9.06682e-11 9.58991e-12 
1.35612e-10 2.90252e-10 1.27759e-10 2.87294e-11 8.1701e-11 7.97083e-12 1.26582e-10 2.06262e-10 9.98534e-11 
9.13969e-11 5.52976e-11 1.02126e-11 8.81748e-11 1.81074e-10 8.07747e-11 1.76102e-11 1.99271e-12 6.4763e-12 
7.1454e-11 2.08848e-10 8.40907e-11 -4.81313e-11 6.17739e-11 7.47265e-13 3.79834e-11 1.76723e-11 1.66967e-11 
5.60169e-11 3.78615e-11 1.34508e-11 -1.20469e-11 1.5385e-12 -3.15253e-12 -2.77094e-11 -1.24544e-11 2.61543e-12 
6.25592e-11 1.37724e-10 6.00848e-11 1.0748e-11 9.96354e-12 8.46901e-12 3.24306e-11 4.93794e-11 2.4543e-11 
1.21468e-11 4.18469e-11 -3.7986e-12 5.47148e-11 1.2315e-10 5.33594e-11 6.57549e-11 6.17739e-11 -2.49088e-12 
5.81329e-11 1.908e-10 7.46798e-11 -4.34635e-13 1.99271e-12 -1.05863e-11 3.91924e-11 5.83932e-13 1.19329e-11 
6.74421e-12 -3.98542e-11 -1.59417e-11 -1.20829e-10 -2.7927e-10 -1.2003e-10 1.06659e-11 -7.3232e-11 -2.61543e-12 
-8.75647e-11 -1.63859e-10 -7.54271e-11 -6.82906e-12 -5.18104e-11 -4.98177e-13 -3.53256e-11 -9.5368e-11 -3.92081e-11 
-2.49423e-11 -5.67922e-11 -8.7181e-13 1.38065e-11 2.88499e-11 1.27969e-11 -8.03828e-12 3.98542e-12 6.4763e-12 
1.79534e-11 5.66175e-11 2.23713e-11 -1.39945e-11 6.97448e-11 -1.99271e-12 3.73376e-11 7.30398e-11 3.31132e-11 
4.125e-12 6.87484e-11 1.49453e-12 -1.11589e-11 -8.67641e-11 -2.93769e-11 1.36335e-11 -4.68286e-11 -1.24544e-12 
-4.52979e-11 -6.34448e-11 -3.26228e-11 3.75875e-12 1.3949e-11 1.49453e-11 6.69423e-11 1.76853e-10 7.31386e-11 
4.9736e-11 1.01168e-10 2.20731e-11 -1.1416e-10 -2.7449e-10 -1.16595e-10 -7.36647e-13 1.74745e-11 1.18413e-11 
-1.18167e-10 -2.57723e-10 -1.12767e-10 6.20166e-11 1.09599e-10 1.3949e-11 -6.58807e-11 -2.3041e-10 -8.88872e-11 
-7.67929e-12 9.565e-12 7.17375e-12 3.70312e-11 1.54269e-10 5.739e-11 -6.0351e-11 -5.57958e-12 -1.17072e-11 
4.41781e-11 7.79064e-11 3.66253e-11 -2.90367e-11 8.19003e-11 1.06859e-11 -6.15786e-11 -7.20989e-11 -4.01032e-11 
-1.66345e-10 1.59417e-11 -1.32847e-12 -8.66781e-12 -3.88925e-11 -1.42681e-11 4.44592e-11 1.89307e-11 -2.11725e-12 
-6.92143e-11 -1.40643e-10 -6.29571e-11 -9.02331e-12 -4.98177e-11 -8.7181e-13 -1.57983e-10 -2.75898e-10 -1.30164e-10 
-8.51032e-11 -2.73997e-11 -5.3554e-12 -6.28431e-11 -1.92161e-10 -7.65013e-11 4.34211e-12 -2.83961e-11 7.47265e-13 
-6.91519e-11 -1.11204e-10 -5.41067e-11 -4.37025e-11 -2.44107e-11 2.6777e-12 5.8987e-11 9.82501e-11 4.71711e-11 
1.73106e-11 -2.34143e-11 3.11361e-13 1.00226e-10 1.66922e-10 8.01442e-11 6.43826e-11 1.19562e-11 6.0404e-12 
3.75186e-11 1.26958e-10 4.93429e-11 -1.46009e-11 4.08505e-11 3.86087e-12 2.80357e-11 9.44847e-11 3.67561e-11 
-1.28979e-11 -2.98906e-11 3.86087e-12 1.09374e-10 2.1125e-10 9.61871e-11 2.11713e-11 -2.14216e-11 -1.17694e-11 
5.20811e-12 -3.19073e-11 -8.00975e-12 3.09501e-11 -1.84325e-11 -3.7986e-12 -3.93311e-11 -3.53955e-11 -2.2418e-11 
-4.57091e-11 2.98906e-11 -4.98177e-13 -4.64612e-12 -2.75797e-11 -9.66775e-12 1.02145e-11 -4.68286e-11 -1.50699e-11 
6.51235e-11 8.82216e-11 4.60035e-11 2.50019e-11 -9.46536e-11 -1.50699e-11 1.31246e-10 3.14855e-10 1.33831e-10 
1.00872e-11 -4.38396e-11 -9.34082e-12 1.61534e-10 2.7258e-10 1.30234e-10 6.15573e-11 -1.84325e-11 -3.30042e-12 
5.7245e-11 1.18207e-10 5.26355e-11 1.21877e-11 6.97448e-12 3.48724e-12 5.55591e-11 1.66519e-10 6.66234e-11 
-3.2323e-11 -3.28797e-11 -6.60085e-12 1.0575e-10 2.18065e-10 9.71445e-11 6.10005e-11 -4.7825e-11 -1.32017e-11 
1.24742e-10 2.36125e-10 1.0826e-10 1.09852e-11 -2.69016e-11 -8.46901e-12 1.28112e-11 2.73543e-11 1.20497e-11 
-2.15728e-11 -4.58323e-11 -4.98177e-12 -5.55997e-11 -1.0732e-10 -4.88758e-11 -8.33871e-13 -1.59417e-11 -1.61908e-12 
1.65758e-11 1.93085e-11 1.07653e-11 1.50478e-11 -4.14667e-26 1.49453e-12 9.12826e-11 1.62009e-10 7.59876e-11 
4.27512e-11 2.39125e-11 2.73997e-12 2.30563e-11 6.59928e-11 2.67147e-11 1.03305e-11 1.99271e-11 2.2418e-12 
2.28897e-12 1.29167e-12 1.07419e-12 4.35479e-12 1.99271e-12 -4.98177e-13 -2.90137e-12 -3.98329e-11 -1.28203e-11 
-1.89614e-11 1.3949e-11 9.71445e-12 -7.81015e-12 -2.69066e-11 -1.0415e-11 -2.67651e-11 -5.97812e-12 9.21627e-12 
2.79908e-11 6.05913e-11 2.65746e-11 -2.14101e-11 1.89307e-11 8.21992e-12 3.7033e-11 9.49061e-11 3.95817e-11 
1.98685e-11 2.39125e-11 7.72174e-12 6.08096e-11 1.50994e-10 6.35409e-11 -9.29436e-12 9.96354e-12 3.98542e-12 
1.04485e-10 2.48442e-10 1.05878e-10 4.09669e-11 -2.19198e-11 1.74362e-12 2.25607e-11 6.26742e-11 2.55705e-11 
3.51869e-11 -2.69016e-11 -2.05498e-12 -4.64079e-11 -1.09272e-10 -4.67041e-11 8.53354e-12 1.99271e-12 -9.96354e-13 
-1.8398e-11 -6.29449e-11 -2.44029e-11 -2.09927e-11 3.23815e-11 4.42132e-12 3.63301e-11 7.66159e-11 3.38838e-11 
1.34082e-11 1.3949e-11 5.41767e-12 3.5039e-12 1.67345e-11 6.07153e-12 -1.29365e-11 8.56261e-26 3.4561e-12 
2.08612e-11 4.6704e-11 2.02696e-11 4.50348e-12 3.98542e-12 5.47995e-12 3.23569e-11 6.96915e-11 3.06145e-11 
4.97163e-12 7.97083e-12 6.22721e-12 5.54858e-11 1.13349e-10 5.06506e-11 1.50142e-12 2.98906e-12 -4.35905e-13 
2.38331e-11 7.86045e-11 3.07313e-11 2.2392e-12 -2.86452e-11 -7.47265e-13 3.89187e-11 9.19306e-11 3.92548e-11 
2.4375e-11 1.42979e-25 2.73997e-12 8.97402e-12 3.24689e-12 3.66627e-12 1.03816e-11 7.97083e-12 3.73633e-12 
2.57962e-11 3.5464e-11 1.83781e-11 2.27573e-12 9.71445e-12 2.80225e-12 4.6684e-11 9.54522e-11 4.26408e-11 
5.42613e-12 8.96719e-12 3.89201e-12 1.4645e-11 2.71552e-11 1.254e-11 -1.92678e-11 2.04253e-11 1.77476e-12 
1.25524e-11 3.15829e-11 1.32406e-11 -1.64041e-12 1.44471e-11 -2.2418e-12 1.40096e-11 2.95031e-11 1.30538e-11 
2.06243e-11 1.79344e-11 3.73633e-13 3.70212e-11 7.81823e-11 3.4561e-11 1.5704e-11 2.39125e-11 1.1209e-12 
7.74878e-12 9.06469e-12 5.04404e-12 -7.80104e-12 1.99271e-12 7.47265e-13 9.25347e-12 3.61273e-11 1.36142e-11 
-7.4822e-12 1.91798e-11 1.46339e-12 6.11225e-11 1.34256e-10 5.86136e-11 6.30338e-12 2.59052e-11 1.33885e-12 
1.57892e-11 2.20411e-11 1.13491e-11 3.65508e-12 2.73997e-12 -9.02946e-13 3.04444e-11 7.59631e-11 3.19222e-11 
5.22585e-12 1.1209e-11 -5.13745e-13 4.25409e-11 8.55061e-11 3.84141e-11 3.98336e-12 2.80225e-11 -7.78402e-14 
-3.73379e-12 -9.18767e-12 -3.87644e-12 -2.66654e-12 1.49453e-11 2.05498e-12 1.14781e-13 1.00044e-11 3.03577e-12 
-6.55416e-12 3.23815e-11 2.02384e-13 2.7042e-11 6.56656e-11 2.78123e-11 -3.99326e-13 2.21689e-11 -3.58065e-13 
2.03648e-11 4.09733e-11 1.84014e-11 -2.53373e-12 -9.21627e-12 -1.40112e-12 -1.18166e-12 -2.47682e-12 -1.09755e-12 
1.36029e-12 1.81835e-11 -3.50281e-13 1.79715e-11 2.98223e-11 1.43382e-11 1.09615e-11 1.09599e-11 2.3352e-14 
-7.16554e-12 -2.51381e-11 -9.6911e-12 6.85358e-12 1.51944e-11 3.10582e-12 -1.04989e-11 -1.3398e-11 -7.16908e-12 
-3.27194e-12 -5.47995e-12 4.70933e-13 2.12865e-12 1.02479e-11 3.71298e-12 -4.75484e-12 -7.47265e-13 -1.12479e-12 
-2.727e-12 -1.22183e-11 -4.48359e-12 4.53676e-12 2.11725e-11 -1.18706e-12 6.79788e-12 1.58536e-11 6.79545e-12 
-5.91989e-12 1.03372e-11 -8.77648e-13 8.4492e-12 1.71602e-11 7.68282e-12 -4.67421e-12 -9.96354e-13 -1.18804e-12 
9.11191e-12 1.80543e-11 8.14986e-12 4.09949e-12 1.59417e-11 -1.39139e-12 -1.3468e-11 -3.3314e-11 -1.40346e-11 
-7.61263e-12 2.34143e-11 -1.47896e-12 -1.00812e-11 -2.5881e-11 -1.07886e-11 -8.39327e-12 1.99271e-12 -1.24544e-13 
5.0278e-12 4.62438e-12 2.89565e-12 1.77423e-12 1.19562e-11 -1.49064e-12 -1.46191e-11 -3.4498e-11 -1.47351e-11 
-5.37588e-12 1.94289e-11 -1.44102e-12 -5.79487e-12 -2.32395e-11 -8.71031e-12 -2.9766e-12 4.73268e-12 -4.80663e-13 
-1.17728e-11 -2.9249e-11 -1.23065e-11 4.28349e-12 9.96354e-13 -2.40526e-12 -6.85917e-12 -1.48582e-11 -6.51522e-12 
2.02127e-12 7.47265e-13 -2.59986e-12 8.29552e-12 1.97269e-11 8.40674e-12 8.25286e-13 -1.74362e-12 -1.75919e-12 
1.26013e-11 1.88461e-11 9.43423e-12 -2.59616e-12 -2.49088e-12 1.86816e-13 8.12163e-12 9.54809e-12 5.30091e-12 
5.0119e-12 4.60814e-12 -6.38289e-13 1.40951e-11 1.63404e-11 9.13065e-12 1.85009e-12 3.23815e-12 -8.40674e-13 
2.41445e-12 8.01613e-12 3.12917e-12 -1.51238e-12 -1.68135e-12 6.07153e-13 4.89678e-12 -3.49565e-12 4.20337e-13 
4.64493e-13 3.73633e-13 -1.36999e-12 -6.72614e-13 -2.28531e-12 -8.87378e-13 -1.62216e-12 -8.09538e-13 -1.49453e-12 
5.86981e-12 4.24941e-12 3.03577e-12 -4.27732e-12 1.05863e-12 -1.93044e-12 5.15583e-12 4.96339e-12 3.03577e-12 
-2.14787e-12 6.53857e-13 1.36999e-12 -5.44485e-12 -8.60207e-13 -1.89152e-12 5.64075e-13 -6.61641e-13 1.72805e-12 
1.14728e-12 1.18793e-12 7.00561e-13 4.184e-13 -4.98177e-13 -1.05863e-12 8.80415e-12 9.09909e-12 5.37097e-12 
8.53622e-13 3.11361e-14 -1.71248e-12 7.5282e-12 6.05191e-12 4.07403e-12 -2.72408e-14 2.8741e-13 -2.12683e-12 
-3.85694e-12 -7.28019e-12 -3.34114e-12 -1.9712e-12 1.72446e-12 -2.32802e-12 -1.71782e-11 -2.54003e-11 -1.27736e-11 
-4.63948e-12 1.83703e-12 2.3352e-12 1.09303e-11 1.82931e-11 8.76703e-12 1.65132e-12 -4.05658e-12 2.34855e-12 
6.16789e-12 7.14277e-12 3.9932e-12 -3.75869e-13 -2.67381e-12 6.57749e-13 1.13413e-13 5.30426e-12 1.6253e-12 
5.03447e-12 4.48359e-13 9.34082e-13 3.11437e-12 -3.11437e-12 9.31338e-27 -4.21405e-12 -5.71438e-12 -4.21985e-12 
-5.19514e-12 -4.53488e-12 -2.91901e-12 -1.21743e-12 1.65216e-12 -2.50062e-13 -7.29564e-12 2.12184e-13 -2.12504e-12 
3.84586e-12 -1.97714e-12 1.33885e-12 1.13895e-11 1.50761e-11 7.9397e-12 2.51831e-12 -1.802e-12 1.28047e-12 
1.26467e-11 9.61561e-12 6.67869e-12 -1.19613e-12 -9.34082e-13 -2.2418e-12 -3.12507e-12 3.96574e-12 2.52202e-13 
-6.51843e-13 6.72539e-13 -1.27035e-12 1.18708e-11 8.95919e-12 6.24901e-12 -3.68291e-12 1.49453e-13 -2.98906e-12 
-5.55001e-12 -6.77204e-13 -1.86816e-12 -2.05077e-12 -1.08976e-13 -3.48724e-12 2.35248e-12 2.94065e-12 1.58794e-12 
-2.28152e-12 -7.62834e-13 4.35905e-13 4.58409e-12 1.6876e-12 1.88151e-12 6.35376e-13 4.27009e-13 -1.73472e-12 
-2.09961e-12 9.78707e-13 -3.36269e-13 -2.30052e-12 2.69016e-12 -3.58687e-12 1.88235e-12 -1.69553e-12 5.60449e-14 
-2.71303e-12 -2.69016e-12 1.49453e-12 8.89113e-12 1.46477e-11 7.06166e-12 -5.65625e-12 -1.27035e-12 -1.94289e-12 
5.17957e-12 1.67036e-12 2.05498e-12 -3.66145e-12 1.24544e-13 1.93044e-12 3.39378e-12 -7.91692e-13 7.80626e-13 
-6.22262e-13 4.80385e-13 -1.60128e-13 -1.11534e-12 9.52207e-12 2.52202e-12 -1.39718e-12 -9.96354e-13 -8.09538e-13 
-2.69958e-12 -6.47544e-13 -1.00414e-12 1.27899e-12 7.47265e-13 -1.86816e-12 5.15282e-13 5.82313e-12 1.90152e-12 
-5.30092e-13 1.01415e-12 4.67041e-13 1.03341e-11 1.54466e-11 7.7342e-12 -4.31572e-12 -1.27035e-12 2.78356e-12 
-6.98155e-12 -3.38675e-12 -3.11049e-12 -4.59722e-12 -3.13852e-12 -2.69016e-12 -3.08203e-12 -4.46846e-12 -2.26515e-12 
-4.05129e-12 -7.8385e-12 -3.97374e-12 8.82848e-12 4.71571e-12 4.06326e-12 -6.69024e-12 -4.48359e-12 -2.49089e-13 
6.19603e-12 1.14181e-11 5.28423e-12 -3.24293e-12 5.33761e-13 -2.15506e-12 1.04961e-11 2.05154e-11 9.30346e-12 
3.37544e-12 2.09234e-12 -1.98025e-12 9.43274e-12 2.52617e-11 1.04083e-11 2.71082e-12 -1.06752e-12 -5.33761e-13 
2.75923e-12 6.78175e-12 2.86229e-12 1.73543e-12 8.54018e-13 1.3344e-13 8.599e-12 1.70104e-11 7.68282e-12 
7.97144e-12 3.48724e-12 -9.02946e-13 1.42428e-12 -1.06717e-11 -2.77422e-12 1.17796e-12 -8.96719e-13 7.47265e-13 
1.02132e-11 2.16338e-12 3.71298e-12 2.64347e-12 -2.631e-12 -1.34761e-12 2.09412e-12 8.41431e-12 3.15253e-12 
-8.33154e-12 1.32017e-11 -3.11361e-13 1.84283e-11 3.68382e-11 1.658e-11 1.57219e-12 -4.98177e-12 -1.68135e-12 
-1.74386e-11 -1.72781e-11 -1.0415e-11 5.86172e-12 1.24544e-12 1.18317e-12 -8.9042e-13 -3.07943e-12 -1.19095e-12 
4.37099e-12 -1.34508e-11 -1.28436e-12 1.25164e-11 3.014e-11 1.27969e-11 -1.12452e-11 -2.17952e-12 -2.64657e-12 
-2.14938e-12 -8.43688e-12 -3.17588e-12 -2.30337e-12 -9.21627e-12 9.02946e-13 2.24558e-11 1.97336e-11 1.26568e-11 
-5.55334e-14 1.46962e-11 -6.84993e-13 1.39542e-12 4.44259e-12 1.7514e-12 1.99778e-11 -1.49453e-12 -1.4595e-12 
5.61614e-12 3.9582e-12 2.8723e-12 3.55292e-12 1.3949e-11 -1.36999e-12 1.05802e-11 2.38252e-11 1.03216e-11 
9.76214e-12 6.4763e-12 8.09538e-13 -2.54327e-11 -5.09752e-11 -2.29224e-11 3.46467e-13 -4.52096e-12 -1.47527e-12 
3.64995e-12 8.18175e-12 3.54951e-12 -4.05832e-12 -4.98177e-13 -2.98906e-12 2.15676e-11 4.03154e-11 1.85649e-11 
4.00037e-12 -3.48724e-12 -1.06641e-12 2.66582e-11 3.04765e-11 1.71404e-11 -2.34027e-12 5.47995e-12 2.49089e-13 
-1.32072e-11 -4.29044e-11 -1.68335e-11 -5.29349e-12 -1.30771e-12 -1.38736e-12 -1.03936e-11 -2.59422e-11 -1.09007e-11 
-1.54432e-11 -1.15079e-11 1.63698e-12 -3.5253e-12 3.53775e-11 9.55566e-12 -1.33526e-11 -1.25541e-11 1.49453e-12 
-1.282e-11 -2.14297e-11 -1.02749e-11 -1.51646e-11 -2.2418e-12 5.21529e-13 -4.20703e-12 5.48544e-13 -1.09755e-12 
1.60738e-11 1.04617e-11 -1.95963e-12 3.46813e-11 5.88826e-11 2.80692e-11 -1.49813e-11 -6.97448e-12 -3.19145e-13 
6.29348e-12 3.41834e-11 1.21431e-11 -8.39549e-13 -1.53189e-11 -2.08222e-12 3.938e-11 7.99489e-11 3.57987e-11 
2.15098e-11 -3.36269e-12 5.33205e-13 1.43053e-11 1.02477e-11 7.3659e-12 -1.19101e-11 -3.03176e-11 -1.28103e-12 
5.15189e-12 2.23257e-11 8.24327e-12 1.36935e-12 1.17072e-11 -2.07055e-12 9.68074e-12 2.51916e-11 1.04617e-11 
-2.28556e-11 -8.96719e-12 -2.05498e-12 2.23905e-11 5.14019e-11 2.21377e-11 -8.44263e-12 -1.55431e-11 -4.48359e-12 
-4.29652e-12 -2.36481e-11 -8.38339e-12 7.25548e-12 -3.23815e-12 -2.00828e-12 5.50531e-11 9.44778e-11 4.48593e-11 
1.82706e-11 -1.17539e-12 6.40235e-13 -1.20907e-11 -2.86197e-11 -1.22131e-11 8.69548e-15 -1.49453e-11 -1.43226e-12 
1.68856e-11 4.30513e-11 1.79811e-11 1.46003e-11 -6.4763e-12 4.98177e-13 5.71898e-12 3.38461e-11 1.18695e-11 
1.0689e-11 -1.45183e-11 -9.87458e-13 2.7074e-11 5.55922e-11 2.47999e-11 -9.30279e-12 -3.03265e-11 -6.22721e-13 
2.9968e-11 4.95223e-11 2.38471e-11 -4.27164e-12 5.97812e-13 -4.46491e-12 -2.19971e-11 -3.83179e-11 -1.80945e-11 
-1.88752e-11 5.97812e-12 6.83214e-12 -2.78811e-11 -6.59941e-11 -2.81626e-11 1.78336e-11 1.43475e-11 -1.68135e-13 
1.22428e-11 1.3678e-11 7.77623e-12 2.00183e-12 -1.15203e-12 1.19095e-12 2.89973e-12 -5.42175e-12 -7.56606e-13 
-1.98729e-11 3.58687e-11 -1.08353e-12 4.38998e-12 -3.0929e-14 1.30771e-12 1.81271e-11 3.01397e-11 2.6777e-12 
1.26631e-11 2.39217e-11 1.09755e-11 7.33461e-12 3.98542e-12 3.36269e-12 2.17385e-11 4.63717e-11 2.0433e-11 
-1.18719e-11 2.51579e-11 -1.80589e-12 1.16766e-11 -1.92427e-11 -2.26982e-12 1.63799e-11 -5.97812e-12 -7.47265e-13 
1.56231e-11 2.78117e-11 1.30304e-11 1.26262e-11 1.07108e-11 2.42861e-12 1.37344e-11 2.45629e-11 1.14892e-11 
-1.21877e-12 9.96354e-13 -2.11725e-12 4.3238e-12 -1.87087e-11 -4.31546e-12 1.19301e-11 6.57594e-12 5.97812e-13 
-4.8184e-11 -7.47256e-11 -3.68729e-11 2.57499e-11 -3.23815e-12 -9.96354e-13 1.91411e-11 1.98569e-11 1.16994e-11 
4.02229e-11 9.96354e-12 -9.34082e-13 1.64621e-11 1.88598e-12 5.50441e-12 2.62207e-12 2.66881e-12 -6.93889e-13 
4.59518e-11 1.25764e-10 5.15146e-11 -3.42891e-11 -1.3949e-11 -6.22721e-12 9.69167e-12 5.95421e-12 4.69376e-12 
-1.43827e-11 1.6938e-11 2.61543e-12 -4.60081e-11 -1.2278e-10 -5.06366e-11 -6.34894e-12 1.61409e-11 -2.98906e-13 
2.12235e-11 5.20241e-11 2.19743e-11 -7.27194e-13 -1.09599e-11 1.61908e-12 2.98036e-11 8.51663e-11 3.4491e-11 
-1.21861e-11 2.49089e-13 6.66312e-12 -1.61406e-11 -1.45284e-11 -9.20071e-12 8.27212e-12 1.07108e-11 1.80589e-12 
1.29081e-11 3.50414e-11 1.43849e-11 1.27449e-13 -9.96354e-12 3.61178e-12 3.41381e-11 4.52588e-11 2.38191e-11 
-2.92773e-11 1.55858e-11 -1.60128e-12 3.30403e-11 4.88475e-11 2.45664e-11 2.22792e-11 2.59052e-11 1.86816e-12 
1.21586e-11 8.11095e-12 6.08087e-12 -1.87685e-11 -1.67387e-11 -6.42648e-12 -2.46822e-11 -8.73409e-11 -3.36069e-11 
4.7342e-12 5.55112e-12 -3.84308e-12 -1.22432e-11 -2.11836e-11 -1.0028e-11 2.16544e-12 -1.45183e-11 -6.40513e-13 
3.82285e-11 1.12003e-10 4.50695e-11 -1.3004e-11 -3.98542e-12 2.73997e-12 3.31467e-12 2.58287e-11 8.74301e-12 
3.91026e-11 -4.48359e-11 2.5407e-12 1.01084e-11 7.23884e-12 5.20417e-12 -8.20517e-12 -5.12411e-11 -5.76462e-12 
-2.35645e-11 -9.88781e-11 -3.67328e-11 8.79998e-12 2.49088e-12 7.22357e-12 5.23241e-11 9.57279e-11 4.44156e-11 
-2.04854e-11 -2.09234e-11 -5.15613e-12 8.45113e-11 1.85625e-10 8.10409e-11 7.39026e-13 -4.18469e-12 -5.52976e-12 
1.50426e-11 1.96519e-11 1.04083e-11 2.40692e-11 -2.56205e-11 -6.29838e-12 -1.34118e-11 -1.22218e-12 -4.39018e-12 
3.90709e-12 -3.48724e-11 -1.49453e-12 -8.50876e-11 -1.79631e-10 -7.94156e-11 -1.90703e-11 4.36403e-11 -8.96719e-12 
-1.29446e-11 -5.74229e-11 -2.11103e-11 2.68247e-12 -3.31288e-11 -5.60449e-13 -6.92725e-12 -4.72495e-11 -1.6253e-11 
-3.16356e-11 5.97812e-12 -2.49088e-12 -1.69441e-11 -1.03553e-10 -3.6149e-11 3.16575e-11 2.59052e-11 -3.86087e-12 
-1.00429e-10 -2.269e-10 -9.81987e-11 -3.75759e-11 -1.70804e-12 1.81479e-12 5.04782e-11 5.06695e-11 3.03443e-11 
2.97324e-11 -4.35549e-11 2.13504e-13 -4.56589e-11 -1.19113e-10 -4.94316e-11 -2.70314e-11 -1.19562e-11 -4.55832e-12 
6.53023e-12 -1.69919e-11 -3.13852e-12 -3.27512e-11 -1.13584e-11 5.67922e-12 7.35446e-12 -3.48848e-13 2.10168e-12 
-2.29116e-11 1.07606e-11 -6.50121e-12 -9.05696e-12 -1.90451e-13 -2.77422e-12 -2.15415e-11 -2.03256e-11 -6.42648e-12 
-4.6863e-11 -1.75635e-10 -6.67495e-11 4.32259e-11 -2.8695e-11 7.17375e-12 -5.07026e-11 -1.38649e-10 -5.68055e-11 
-2.1501e-11 9.39419e-12 -9.6077e-13 -8.76612e-12 -8.38095e-12 -5.14412e-12 -3.13313e-11 -4.35549e-11 5.33761e-13 
-3.01889e-11 -8.51035e-11 -3.45877e-11 8.03064e-12 -2.73286e-11 8.00642e-13 4.73261e-11 5.0152e-11 2.92434e-11 
6.77528e-12 -3.07446e-11 6.40513e-13 5.4953e-11 1.21028e-10 5.27943e-11 -1.01171e-11 -3.34775e-11 4.48359e-12 
1.19389e-10 2.77409e-10 1.19039e-10 -8.95939e-12 -3.58687e-12 -2.98906e-13 7.5967e-11 1.8595e-10 7.8575e-11 
-1.32675e-11 2.09234e-11 2.39125e-12 -2.3494e-11 3.99739e-11 4.94396e-12 -1.96274e-11 2.39125e-11 7.47266e-12 
-3.71201e-11 -8.97593e-11 -3.80638e-11 4.77834e-12 -7.97083e-12 1.74362e-12 3.8724e-11 -5.95327e-12 9.83121e-12 
6.74049e-11 -7.72174e-11 -5.97812e-12 2.58175e-11 7.01127e-11 2.87791e-11 6.80822e-12 4.54337e-11 7.77156e-12 
4.68176e-11 6.08353e-11 3.22959e-11 1.33522e-11 1.79344e-11 -1.1209e-11 -2.21327e-11 -7.02746e-11 -2.77222e-11 
7.36063e-11 -3.18655e-11 -1.16093e-12 -3.10676e-12 -3.12045e-12 -1.86816e-12 -1.32155e-12 4.58323e-11 8.96719e-12 
3.05776e-11 8.10451e-11 3.34868e-11 -3.6745e-11 -5.97812e-12 1.74362e-12 -4.13095e-11 -4.48596e-11 -2.58507e-11 
-5.32628e-11 3.78615e-11 -6.4763e-12 4.13783e-11 1.09398e-10 4.52329e-11 -2.15694e-11 -8.96719e-12 -1.49453e-12 
-1.77912e-11 -6.69767e-11 -2.54304e-11 2.17978e-11 3.98542e-11 4.73268e-12 9.69895e-11 2.97816e-10 1.18442e-10 
1.52924e-12 -6.57594e-11 -1.27035e-11 -5.21723e-11 -8.794e-11 -4.20337e-11 -7.20594e-11 -7.57229e-11 -1.22053e-11 
-6.29376e-13 9.58099e-12 2.68549e-12 -3.53444e-11 -8.96719e-12 -1.99271e-12 -1.13892e-10 -2.96715e-10 -1.23182e-10 
3.8984e-11 -3.33779e-11 -7.65947e-12 3.55131e-11 1.052e-10 4.22138e-11 -3.92714e-11 -4.44089e-11 5.12411e-12 
-1.7377e-11 1.23952e-11 -1.49453e-12 -8.11492e-11 -2.19198e-11 -7.47265e-13 1.2765e-10 2.7128e-10 1.19679e-10 
1.24428e-12 -2.78979e-11 3.48724e-12 -1.8848e-11 -3.35385e-11 -1.57159e-11 5.08821e-12 -1.99271e-11 -3.61178e-12 
-1.59566e-12 3.10971e-11 8.85043e-12 -2.85349e-11 2.19198e-11 -1.27035e-11 7.67792e-11 1.27162e-10 6.11824e-11 
-1.19168e-11 -1.01628e-10 -8.7181e-12 -7.91128e-11 -1.29265e-10 -6.25134e-11 1.845e-11 5.92831e-11 4.42132e-12 
-9.90702e-11 -2.81568e-10 -1.14192e-10 4.10255e-11 -1.99271e-12 4.2345e-12 -1.1021e-10 -2.53748e-10 -1.09187e-10 
-9.26614e-11 5.12411e-12 -7.89966e-12 -8.33183e-11 -1.69507e-10 -7.58474e-11 -6.4799e-11 -9.36573e-11 -1.99271e-12 
-5.53658e-11 -1.59706e-10 -6.45217e-11 -2.25179e-11 -9.96354e-12 -1.19562e-11 -1.51038e-10 -3.87554e-10 -1.61577e-10 
7.06632e-12 1.07606e-11 -5.67922e-12 -1.84636e-10 -4.38397e-10 -1.8691e-10 1.82569e-11 -3.48724e-11 -3.92314e-12 
-1.58101e-10 -3.15556e-10 -1.42097e-10 -1.0552e-10 3.98542e-11 -1.99271e-12 6.70448e-11 1.40244e-10 6.21865e-11 
1.13124e-11 2.19198e-11 -4.2345e-12 1.29151e-11 1.15988e-10 3.8671e-11 -9.6827e-12 5.97812e-12 -1.14581e-11 
7.75373e-12 3.73936e-11 1.35442e-11 -7.42888e-12 2.78979e-11 9.96354e-13 -1.46882e-10 -3.42671e-10 -1.46866e-10 
-1.99354e-11 1.913e-11 -4.7825e-12 1.10364e-10 3.05147e-10 1.24653e-10 2.46403e-11 2.19198e-11 -2.49089e-13 
1.85734e-10 4.09556e-10 1.78587e-10 3.15985e-11 -2.8695e-11 -1.01628e-11 1.06838e-11 1.3036e-12 3.59622e-12 
2.62402e-11 2.98906e-11 -6.22721e-12 -6.64657e-11 -1.13034e-10 -5.38498e-11 6.43031e-11 -8.61846e-11 -6.97448e-12 
6.25799e-11 1.27839e-10 5.71258e-11 2.47669e-11 2.73286e-11 -1.02482e-11 2.02411e-11 1.80013e-11 1.14727e-11 
2.77977e-11 -5.62647e-12 3.8682e-12 3.29405e-11 1.11936e-10 4.34628e-11 -6.79532e-11 -9.08675e-11 -1.85322e-11 
6.40563e-12 -2.86946e-12 1.06085e-12 4.85036e-14 -5.46521e-12 8.95301e-13 1.71305e-13 4.42126e-12 1.37777e-12 
-2.28472e-12 -4.98177e-13 -1.99271e-12 1.62573e-11 2.45621e-11 1.22458e-11 -3.11006e-12 4.48359e-12 -2.98906e-13 
-6.02703e-12 -7.86744e-12 -4.16834e-12 4.99999e-13 -1.00414e-12 3.36269e-12 -2.37624e-12 5.79924e-13 -5.38893e-13 
1.98468e-12 -2.01187e-12 1.20712e-12 -5.91082e-12 -1.24205e-11 -5.49941e-12 2.84472e-12 -2.52202e-12 -1.86816e-13 
1.69202e-11 9.63444e-12 7.96638e-12 1.29906e-12 -6.40513e-13 1.49453e-12 7.49067e-12 7.92168e-12 4.62371e-12 
-3.21959e-12 3.37826e-12 -3.86087e-12 2.26231e-12 1.2405e-12 1.05084e-12 2.32565e-12 3.5341e-28 3.73633e-13 
5.55209e-12 3.70381e-12 2.77677e-12 -7.21003e-13 -5.09499e-14 1.35866e-13 -1.4291e-11 2.79728e-13 -4.20337e-12 
2.77276e-12 4.29678e-13 -1.64398e-12 -4.25058e-12 -1.19823e-12 -1.63464e-12 2.11896e-12 -2.9482e-13 -7.47265e-13 
2.50115e-12 1.54654e-12 1.21431e-12 -9.41869e-13 -3.39578e-13 1.5568e-14 7.01819e-12 6.56192e-12 4.07403e-12 
-7.88837e-13 4.27522e-13 2.64417e-12 3.54385e-12 1.66033e-12 1.56125e-12 -1.33654e-12 -1.24266e-13 -9.34082e-14 
8.00185e-12 2.35089e-12 3.10582e-12 -7.47871e-13 -6.22721e-13 -1.24544e-13 3.81516e-14 -4.11784e-13 -1.1209e-13 
-1.49747e-12 1.27035e-12 9.71445e-13 -6.11382e-12 -8.32199e-12 -4.33074e-12 -3.26776e-12 1.35866e-13 -1.49453e-12 
1.47606e-12 -2.30621e-13 3.73633e-13 -2.30341e-12 1.29215e-12 -1.18317e-12 6.59402e-12 2.82464e-12 2.8256e-12 
1.05428e-12 3.05133e-12 -1.83703e-12 -3.95314e-12 -2.38528e-12 -1.90152e-12 6.22282e-13 2.94903e-12 4.40353e-13 
1.50683e-12 -2.44091e-12 -2.80225e-13 -8.313e-13 4.59856e-13 -1.40831e-12 6.40474e-12 -3.41568e-12 8.96719e-13 
7.61508e-12 6.8188e-13 -1.92421e-12 -2.05136e-11 -2.31548e-11 -1.31005e-11 -4.74569e-13 4.98177e-12 -3.73633e-12 
4.88154e-12 2.51327e-12 2.21844e-12 -3.05544e-12 4.28121e-13 -2.55316e-12 -7.31509e-12 -1.03606e-11 -5.30271e-12 
-1.77077e-12 9.19711e-13 -3.44892e-12 5.71212e-12 -1.97579e-12 1.1209e-12 5.32286e-13 1.60796e-12 -3.10916e-12 
-8.5867e-12 -1.22745e-11 -6.25835e-12 -8.57622e-12 -2.73997e-12 -1.43226e-12 -2.32372e-12 2.60394e-12 8.40674e-14 
6.28929e-12 2.98906e-12 -4.06326e-12 8.90911e-12 5.78145e-12 4.40717e-12 -4.28937e-12 1.6304e-12 1.15486e-12 
-1.06954e-11 -6.86533e-12 -5.26822e-12 3.56329e-12 -3.73633e-14 2.80225e-13 3.39182e-12 2.21267e-12 1.68135e-12 
4.56477e-12 1.28103e-12 2.66881e-13 -1.0234e-11 -1.27845e-11 -6.90553e-12 -3.73538e-12 1.04083e-12 8.40674e-13 
8.8867e-12 -1.41404e-12 2.2418e-12 -3.41246e-12 5.43466e-12 1.68902e-27 6.85948e-12 -1.34087e-13 2.01762e-12 
-8.42178e-12 3.58687e-12 1.19562e-12 2.08814e-11 2.73016e-11 1.44549e-11 -7.45696e-12 -1.24544e-12 6.84993e-13 
1.28073e-11 8.34297e-12 6.34508e-12 -8.7265e-12 5.97812e-12 2.21511e-12 -6.49795e-13 2.51796e-12 5.60449e-13 
7.69307e-12 5.81611e-27 9.71445e-13 7.8419e-12 4.47469e-11 1.57766e-11 -4.68052e-12 1.16573e-11 1.36376e-12 
9.84906e-13 -1.29627e-12 -9.34082e-14 1.14959e-11 8.96719e-12 -1.30771e-12 1.2542e-11 3.13599e-11 1.31706e-11 
5.83333e-13 -1.49453e-12 -1.61908e-12 -9.75337e-12 -2.57417e-11 -1.06485e-11 4.33221e-13 8.73726e-12 -1.86816e-12 
2.18487e-12 1.68304e-11 5.70457e-12 7.72156e-12 -1.17961e-11 6.29838e-12 -4.8327e-12 -1.71961e-11 -6.60863e-12 
-8.30759e-12 2.92679e-12 6.77209e-13 -1.89848e-11 -1.41751e-11 -9.94797e-12 -1.62769e-11 1.64398e-12 2.48466e-12 
1.62438e-11 1.49401e-11 9.35519e-12 -8.37767e-13 2.29928e-12 7.47265e-13 -5.64944e-13 -1.97046e-11 -6.08087e-12 
-2.77996e-12 5.97812e-13 2.09234e-12 3.00581e-11 6.27896e-11 2.78543e-11 8.84215e-12 5.15613e-12 -4.63071e-12 
7.52678e-12 3.15712e-11 1.17294e-11 -1.29156e-13 -7.76956e-12 3.85309e-12 5.41922e-12 9.88535e-12 4.59137e-12 
1.42293e-12 2.50047e-12 1.14066e-12 -1.70663e-11 -1.4926e-11 -9.59769e-12 -7.94595e-13 -1.08704e-11 2.45586e-12 
1.84256e-11 2.54762e-11 1.31706e-11 -4.79403e-13 4.98177e-13 -1.30577e-12 -1.2448e-11 -1.93108e-11 -9.52763e-12 
-5.4874e-12 7.51002e-12 4.67041e-13 2.14434e-11 3.19691e-11 1.60238e-11 9.6959e-12 -2.4456e-12 8.06707e-13 
4.15558e-12 1.81067e-11 6.67869e-12 4.35436e-12 2.98906e-12 1.24544e-12 7.14461e-12 3.09192e-11 1.14192e-11 
-1.78476e-11 -1.02126e-11 -6.22721e-13 3.94058e-12 3.40232e-11 1.13891e-11 8.68822e-12 9.39419e-12 3.84308e-12 
-1.96862e-11 -5.32656e-11 -2.18855e-11 -7.52447e-12 -1.67387e-11 3.54951e-13 6.66556e-12 2.39723e-11 9.19137e-12 
-4.224e-12 -1.43475e-11 1.19562e-12 -2.8477e-11 -6.29073e-11 -2.74153e-11 2.35167e-11 -4.48359e-12 -3.86087e-12 
-2.79593e-11 -4.06957e-11 -2.05965e-11 1.09759e-12 -6.35176e-12 2.05498e-12 2.96131e-11 5.66817e-11 2.58884e-11 
-6.88351e-12 -8.2774e-12 -4.02374e-13 1.48498e-11 4.03944e-11 1.65733e-11 2.07566e-12 -1.26501e-11 1.04083e-12 
4.46876e-12 2.88468e-11 9.99468e-12 -2.88323e-11 -3.48724e-12 4.90393e-13 3.12076e-11 8.20031e-11 3.39632e-11 
-3.5685e-11 -2.98906e-12 5.97812e-13 4.53697e-11 8.93536e-11 4.0417e-11 -1.79222e-12 2.02336e-11 -1.50172e-12 
-1.36559e-11 1.8393e-11 1.42114e-12 1.39849e-11 8.96719e-12 -1.38778e-12 -1.3199e-11 -2.60324e-11 -1.17694e-11 
2.52536e-11 5.97812e-12 -3.54951e-12 2.97957e-11 4.82001e-11 2.33988e-11 1.21306e-11 -5.33761e-12 1.17427e-12 
2.94236e-12 -8.25945e-12 -1.59512e-12 -3.40992e-12 1.47154e-11 -3.16151e-13 -1.03206e-12 3.586e-11 1.04484e-11 
-1.50545e-11 -1.3771e-11 -1.08087e-12 2.34686e-11 5.06041e-11 2.22218e-11 1.00555e-11 -3.58687e-11 -2.35389e-12 
6.3223e-14 1.48821e-11 4.48359e-12 -1.63531e-11 -1.8308e-12 1.53189e-12 -1.90123e-11 -5.47802e-11 -2.21377e-11 
-3.73445e-11 -9.19711e-13 -1.63824e-12 -1.68487e-11 -1.2775e-11 -8.88712e-12 -4.22793e-12 2.2418e-11 1.81479e-12 
-1.59641e-11 -3.02729e-11 -1.38711e-11 -1.05878e-11 1.79344e-11 -1.60886e-26 -2.25986e-11 -5.25016e-11 -2.25301e-11 
1.22888e-13 1.64398e-12 3.10115e-12 -1.26255e-11 -3.47324e-11 -1.42074e-11 1.87809e-11 -3.58687e-12 2.98906e-12 
2.56489e-11 3.67011e-11 1.8705e-11 -6.0599e-12 5.97812e-12 2.28875e-27 1.70738e-11 3.63246e-11 1.60195e-11 
8.9872e-12 -1.99271e-11 -1.24544e-13 -2.43216e-11 -6.44829e-11 -2.66413e-11 7.91761e-12 1.70804e-12 2.98906e-12 
1.173e-11 2.46274e-11 1.09072e-11 1.80571e-11 1.83942e-11 -9.19711e-13 -1.59307e-11 3.01288e-11 4.25941e-12 
-1.25672e-11 -4.7825e-12 3.05346e-26 1.66353e-11 1.90155e-11 1.06952e-11 -2.22946e-11 6.97448e-12 6.22721e-14 
1.01652e-11 -4.34808e-11 -9.99468e-12 9.63154e-12 -1.56926e-11 -1.61908e-12 -5.43569e-12 1.66447e-11 3.36269e-12 
-1.4352e-11 3.67885e-12 2.18431e-12 -2.93618e-11 -5.47056e-11 -2.52202e-11 5.53462e-12 3.41251e-11 3.36269e-12 
2.99989e-11 3.35965e-11 1.90786e-11 5.4052e-12 -1.29526e-11 9.96354e-13 3.81737e-11 4.963e-11 2.63411e-11 
-4.55899e-12 -2.73997e-12 -4.29678e-12 4.34235e-11 1.10916e-10 4.63017e-11 2.92443e-11 8.2774e-12 -1.60949e-12 
-1.66175e-12 1.65403e-11 4.46358e-12 -1.13465e-11 8.32667e-12 4.21671e-12 1.23093e-11 3.36942e-11 1.38011e-11 
-2.56432e-11 1.29526e-11 5.60449e-13 -5.62821e-11 -9.67516e-11 -4.59101e-11 2.58975e-12 -6.4763e-12 5.23086e-12 
4.26268e-11 9.70544e-11 4.19044e-11 -1.01712e-11 -2.02336e-11 2.58669e-12 -1.67677e-11 4.07972e-12 -3.80638e-12 
-1.83685e-11 7.97083e-12 3.48724e-12 3.03488e-11 7.01429e-11 3.01475e-11 2.47899e-12 -2.88943e-11 -6.22721e-13 
2.91754e-11 8.17935e-11 3.32907e-11 -4.58806e-12 -7.17375e-12 8.36937e-12 1.8715e-11 4.2144e-11 1.82577e-11 
-1.09273e-11 -1.56351e-11 1.55201e-12 9.89897e-12 4.03858e-11 1.50854e-11 -6.96287e-12 7.09902e-12 3.36269e-12 
5.23327e-12 1.89595e-11 7.25782e-12 4.24496e-11 2.63037e-11 -5.08141e-12 -1.22619e-11 -5.28549e-12 -5.26422e-12 
3.74165e-11 1.96424e-11 2.77556e-12 3.23881e-11 8.26476e-11 3.45107e-11 7.13786e-12 -3.67885e-12 -3.90877e-12 
4.94031e-11 8.97751e-11 4.17535e-11 -2.57927e-12 -2.76488e-11 1.1209e-12 -1.3047e-11 -7.10204e-11 -2.52202e-11 
1.16436e-11 5.97812e-12 -1.86816e-12 3.33025e-12 4.35607e-11 1.40673e-11 1.34077e-11 -9.565e-12 3.58687e-12 
2.16366e-11 5.32768e-11 2.2474e-11 5.13597e-11 -1.13584e-11 3.06379e-12 -1.19921e-11 -3.41515e-11 -1.38431e-11 
-2.02263e-12 1.913e-11 1.22552e-11 -6.1503e-12 -4.22218e-11 -1.45116e-11 1.98925e-11 5.93542e-11 2.2418e-12 
-9.02259e-11 -1.83327e-10 -8.20658e-11 2.23162e-11 1.81479e-11 6.80545e-12 -8.49173e-11 -1.74503e-10 -7.7826e-11 
-3.44253e-11 3.91295e-11 1.35866e-13 -1.40845e-11 -5.24222e-11 -1.9952e-11 -6.17438e-12 7.17375e-12 -4.7825e-12 
-1.46391e-11 -3.77362e-11 -1.57126e-11 -3.42802e-12 -3.07446e-11 -1.06752e-12 -7.49358e-11 -1.61293e-10 -7.08688e-11 
-2.32897e-11 1.04617e-12 3.06379e-12 4.06733e-11 7.65964e-11 3.51809e-11 3.48603e-11 -7.60852e-12 2.61543e-12 
-2.00376e-11 -5.91656e-12 -7.78624e-12 -1.54736e-11 -3.92848e-11 9.8212e-12 2.97121e-11 5.42774e-11 2.51969e-11 
6.25477e-11 6.15943e-26 5.47995e-12 -1.37608e-11 -4.06126e-13 -4.25007e-12 -4.7985e-11 -9.96354e-12 -3.98542e-12 
5.29379e-11 1.15915e-10 5.0656e-11 1.03687e-11 5.58725e-11 5.7482e-14 -3.33787e-11 -6.37658e-11 -2.91434e-11 
3.22198e-11 2.69016e-11 2.98906e-13 7.90545e-11 1.33216e-10 6.3681e-11 1.61343e-11 6.07776e-11 -5.23086e-12 
1.45189e-11 -1.97498e-11 -1.56926e-12 9.95081e-12 4.48359e-11 1.14332e-11 8.90732e-11 2.2003e-10 9.2731e-11 
8.91335e-12 3.88578e-11 1.61908e-12 -1.39673e-10 -3.46717e-10 -1.45917e-10 -2.42886e-11 6.19163e-12 7.01896e-12 
-1.09673e-11 1.39299e-12 -2.8723e-12 -7.20779e-11 -1.99271e-11 2.49089e-13 -1.4127e-10 -2.28066e-10 -1.10801e-10 
1.04049e-11 2.15212e-11 -4.18469e-12 4.33873e-11 8.39875e-11 3.82124e-11 1.96614e-11 -3.26079e-11 -4.48359e-12 
-1.0333e-10 -2.63831e-10 -1.10148e-10 1.12107e-11 1.36643e-11 -8.96719e-12 1.89043e-13 2.9468e-12 9.40754e-13 
7.37372e-13 1.28103e-11 1.60128e-13 -4.86549e-11 -9.29363e-11 -4.24774e-11 -5.07095e-11 2.59052e-11 -1.04617e-11 
4.98638e-11 8.65971e-11 4.09383e-11 5.30097e-11 -1.08693e-11 5.16293e-12 5.62328e-11 1.22844e-10 5.37231e-11 
4.08687e-11 1.36643e-11 -4.27009e-12 -2.20889e-11 -3.38893e-11 -1.67935e-11 3.19104e-11 -2.90366e-11 -7.3659e-12 
5.80881e-11 1.47955e-10 6.18129e-11 2.67099e-11 -1.6938e-11 -5.47995e-12 -4.33521e-12 -1.73185e-11 -6.49611e-12 
-1.65722e-11 -1.5217e-11 -9.78238e-12 -7.17025e-11 -1.59576e-10 -6.93836e-11 8.76001e-12 -1.02105e-25 5.38031e-12 
4.04726e-11 6.94377e-11 3.29731e-11 -1.3862e-11 -1.48634e-25 -4.73268e-12 -3.30656e-12 -4.56393e-11 -1.46838e-11 
-4.94165e-11 -3.34775e-11 -7.17375e-12 -1.37734e-10 -3.4584e-10 -1.45072e-10 -6.1328e-11 4.7825e-12 -1.19562e-12 
-1.05276e-10 -1.80353e-10 -8.56887e-11 -7.10397e-11 -1.11022e-11 2.34855e-12 4.54914e-11 1.08087e-10 4.60736e-11 
-3.36926e-12 -8.1701e-11 -1.02749e-11 -1.8057e-11 -3.20098e-11 -1.502e-11 1.99008e-11 1.913e-11 9.26609e-12 
9.29773e-12 2.5407e-11 1.04114e-11 -8.18268e-11 1.83942e-12 9.19711e-13 6.09759e-11 1.46791e-10 6.23299e-11 
3.62336e-11 -1.92688e-11 -3.77636e-12 -8.22167e-11 -2.33386e-10 -9.46809e-11 8.16708e-12 -2.98906e-11 -1.10222e-11 
-3.0127e-11 -4.6312e-11 -2.29317e-11 -2.98518e-12 -7.72174e-12 -7.65947e-12 1.18786e-10 3.41343e-10 1.38039e-10 
4.49935e-11 4.30425e-11 1.04617e-11 -2.55751e-11 -7.4305e-11 -2.9964e-11 -3.49616e-11 -1.28103e-11 -1.60128e-12 
-4.69562e-12 -5.22834e-11 -1.70937e-11 -2.14193e-11 -5.97812e-11 -1.32017e-11 -7.37072e-11 -2.07265e-10 -8.42915e-11 
4.07799e-11 4.7825e-11 -7.17375e-12 1.02674e-10 1.99753e-10 9.07281e-11 5.55091e-11 -7.72558e-11 -3.90877e-12 
-3.80905e-12 -6.47793e-11 -2.05765e-11 2.39439e-11 1.40913e-11 -1.65466e-12 -4.48277e-11 -8.89795e-11 -4.01422e-11 
2.9155e-11 -4.7825e-11 -9.46536e-12 9.75978e-11 1.98506e-10 8.88312e-11 4.63784e-11 -1.55431e-11 9.71445e-13 
-6.10098e-11 -2.18927e-10 -8.39811e-11 -1.91976e-11 -1.51101e-24 -4.59856e-12 -1.15612e-10 -2.32427e-10 -1.04412e-10 
-3.47965e-11 -6.24714e-11 -1.64025e-11 -1.68806e-10 -3.68291e-10 -1.61129e-10 -4.5682e-12 -6.77521e-11 -1.29526e-11 
-8.30872e-11 -2.44308e-10 -9.82187e-11 -4.01518e-11 -5.64185e-11 -6.38845e-12 -1.05521e-10 -3.14241e-10 -1.25929e-10 
3.48565e-11 -5.15038e-11 8.96719e-12 8.35572e-12 -5.7395e-11 -1.47118e-11 8.9234e-12 -3.98542e-12 7.97083e-12 
1.09918e-11 1.50604e-10 4.84788e-11 -9.22706e-11 -1.59417e-11 -3.23815e-12 5.48831e-11 1.20911e-10 5.27383e-11 
3.76121e-11 -4.7825e-12 -1.31519e-11 -9.25553e-11 -1.97369e-10 -8.69774e-11 -2.88983e-11 -4.41461e-11 -1.24161e-11 
9.4007e-13 -2.59735e-11 -7.51002e-12 -2.41877e-12 9.565e-11 1.43475e-11 1.67183e-11 4.53203e-11 1.86116e-11 
1.35749e-11 -4.58323e-11 -2.19198e-11 4.55153e-11 1.01669e-10 4.41554e-11 -3.19271e-11 -1.53723e-11 -1.00347e-11 
3.37674e-11 1.08716e-10 4.2745e-11 -1.31325e-11 2.20731e-11 1.40256e-11 -4.40103e-11 -1.53817e-11 -1.78176e-11 
1.06525e-11 -3.98542e-12 -2.49088e-12 -4.56581e-11 -3.07809e-11 -2.29317e-11 -2.37972e-11 -6.10267e-11 -1.04306e-11 
-2.94072e-11 -5.09239e-11 -2.40993e-11 3.64768e-11 4.7825e-11 5.97812e-12 1.47199e-11 7.18623e-11 2.59747e-11 
-7.08299e-11 -7.17375e-11 -2.39125e-11 8.49081e-11 9.03879e-11 5.25888e-11 2.06787e-11 3.89823e-11 -2.70884e-12 
6.1393e-11 9.8335e-11 4.79184e-11 3.8042e-11 2.98906e-11 1.54435e-11 -1.55337e-10 -3.11984e-10 -1.40196e-10 
1.19303e-11 2.13718e-11 -1.64772e-11 5.44941e-11 1.04012e-10 4.7552e-11 1.1351e-10 3.31096e-11 6.43798e-12 
-3.84785e-11 -9.57958e-11 -4.02823e-11 2.03293e-11 -9.96354e-13 -1.05863e-11 6.93315e-11 1.83104e-10 7.57307e-11 
-5.53754e-11 3.18833e-11 2.73997e-12 -2.3686e-11 -1.33146e-10 -4.70497e-11 -1.5637e-12 4.7825e-12 -1.03123e-11 
-6.84676e-11 -7.0586e-11 -4.17161e-11 -6.3307e-11 5.65929e-11 4.68286e-12 3.03639e-11 -4.31742e-11 -3.84308e-12 
2.20208e-11 -9.90661e-11 -2.30585e-11 -5.39035e-11 -1.34134e-10 -5.64114e-11 3.35571e-11 2.57519e-11 5.97812e-12 
-1.48717e-10 -3.73123e-10 -1.56552e-10 -3.03241e-11 -4.58323e-11 5.72904e-12 2.59097e-11 1.33218e-11 1.17694e-11 
-8.1811e-11 -2.20731e-11 1.17263e-11 -6.57172e-11 -1.57373e-10 -6.6927e-11 -5.09562e-11 -2.78979e-11 1.17072e-11 
-4.45964e-11 -7.14166e-11 -3.48039e-11 -2.87201e-11 -7.17375e-12 -2.98906e-13 6.21471e-11 1.65458e-10 6.82814e-11 
5.02653e-11 -3.3876e-11 9.96354e-13 2.5712e-11 1.75894e-11 1.29904e-11 -2.14725e-11 -1.70804e-12 2.34855e-12 
-2.35601e-11 -3.4353e-11 -1.73739e-11 -3.19677e-12 -3.58687e-12 4.03523e-12 8.4897e-11 5.57758e-11 4.22018e-11 
-1.20996e-10 -1.79344e-12 -1.49453e-13 -5.97386e-11 -1.54073e-10 -6.41434e-11 -5.78851e-11 -4.54337e-11 -5.97812e-12 
5.41622e-12 2.57198e-11 9.34082e-12 -6.43519e-12 3.98542e-12 -4.98177e-13 -2.906e-12 6.95369e-12 1.21431e-12 
3.51262e-12 2.98906e-12 -1.16241e-12 -3.84705e-12 1.00992e-10 2.91434e-11 2.53898e-11 -1.06278e-11 -1.32847e-11 
7.51971e-12 6.70707e-12 4.26804e-12 7.77296e-12 2.30557e-12 -1.21655e-12 4.16431e-12 1.19306e-11 4.82848e-12 
4.19703e-12 2.29928e-12 1.1209e-12 -4.71063e-11 -1.73137e-10 -6.60729e-11 -2.15274e-11 -5.12411e-11 -8.54018e-12 
6.19108e-11 1.63213e-13 1.86222e-11 1.6863e-11 1.35866e-11 3.12493e-12 -2.00158e-10 -3.22554e-10 -1.56814e-10 
-5.17678e-11 5.97812e-12 -1.913e-11 1.82191e-12 -1.26417e-11 -3.24593e-12 2.88034e-12 2.11725e-12 1.1676e-12 
4.0339e-12 9.88392e-12 4.17535e-12 -2.90586e-12 2.18575e-12 -7.65947e-13 -1.35124e-10 -1.8648e-10 -9.64813e-11 
-7.89663e-11 -2.57059e-11 -9.71445e-12 1.2719e-11 3.26199e-11 1.36017e-11 -5.80645e-13 -3.90877e-12 -2.44298e-13 
6.18904e-12 1.37141e-11 5.97094e-12 1.39133e-13 7.70258e-12 5.87753e-12 1.93363e-11 2.00819e-11 1.18255e-11 
-2.17111e-12 -1.32515e-11 1.10346e-11 -6.14285e-11 -1.66703e-10 -6.84395e-11 -2.97073e-11 -3.31671e-11 -2.0363e-11 
2.35577e-12 8.68338e-12 3.31174e-12 5.90142e-12 1.35866e-12 -2.038e-12 -1.09306e-11 -2.57534e-11 -1.10052e-11 
-1.07068e-12 -1.95308e-12 -1.82571e-12 -3.78708e-11 -5.01876e-11 -2.64175e-11 -9.24291e-12 -1.95648e-11 -6.52159e-12 
-3.4807e-12 6.29223e-11 1.78325e-11 -1.21571e-10 3.91295e-11 -1.79344e-11 3.53977e-11 3.02215e-11 1.96858e-11 
1.05611e-11 -7.84629e-12 3.73633e-13 9.84147e-12 1.06305e-11 6.14159e-12 -1.61227e-11 -6.72539e-12 1.1209e-12 
3.06762e-10 5.31226e-10 2.51396e-10 7.66522e-11 -9.26609e-11 -8.96719e-12 2.90825e-11 7.93488e-11 3.25294e-11 
3.7781e-11 -2.78979e-11 -3.48724e-12 3.99183e-12 1.79591e-11 6.58528e-12 -8.21604e-12 -1.49453e-12 3.73633e-13 
-2.23588e-12 -6.66904e-12 -2.67147e-12 -1.78328e-11 2.88943e-12 9.96354e-14 7.43841e-12 -8.74612e-12 -3.92314e-13 
-4.66468e-11 1.19562e-11 -1.01628e-11 5.41959e-12 -5.36182e-11 -1.44596e-11 -2.94247e-11 3.50717e-11 6.77521e-12 
2.25549e-11 4.858e-13 6.91221e-12 2.62442e-12 -8.38079e-13 2.30147e-12 9.66274e-12 1.61802e-11 7.75288e-12 
-4.14246e-12 7.22357e-12 3.38118e-12 1.25257e-10 1.81433e-10 9.20071e-11 7.64624e-11 -6.24382e-11 -3.03058e-11 
-3.14809e-11 -8.87821e-11 -3.60789e-11 -5.64721e-11 -4.7825e-11 -9.46536e-12 1.09296e-11 -7.56693e-12 1.00881e-12 
5.20123e-13 8.59355e-12 5.15613e-12 2.11489e-11 4.16894e-11 1.88515e-11 -5.55046e-12 -1.23638e-11 1.66436e-12 
1.28875e-10 1.68397e-10 8.91815e-11 -2.04555e-11 -1.19064e-10 -8.84264e-12 5.68681e-11 -4.83497e-13 1.69154e-11 
1.18172e-10 -6.08682e-11 -1.73909e-11 3.77476e-12 -7.58893e-12 -1.14425e-12 -7.68889e-12 1.2396e-12 2.31574e-13 
8.56468e-11 1.07008e-10 5.77963e-11 -2.48896e-11 -5.97812e-12 -6.22721e-14 7.71265e-13 2.67316e-12 1.03333e-12 
-6.2084e-12 -9.34082e-13 -8.64026e-13 -3.77845e-12 -1.08555e-11 -4.39018e-12 6.45573e-12 -4.39018e-12 -1.88373e-12 
3.04554e-11 -5.49751e-11 -7.35589e-12 -1.50459e-11 -9.71445e-12 8.39117e-12 -1.24417e-10 -2.45212e-10 -1.10889e-10 
-4.28059e-12 -6.02082e-11 -2.1644e-11 3.31616e-12 -1.25636e-11 -2.77422e-12 -7.26061e-12 7.92101e-12 -1.86816e-12 
3.55849e-11 4.48499e-11 2.41304e-11 3.41739e-12 1.46339e-12 -7.09643e-13 7.79107e-11 1.48417e-10 6.78984e-11 
-5.35618e-12 -1.79344e-11 -1.40486e-11 4.19288e-11 7.20292e-11 3.41874e-11 7.39569e-11 2.65694e-11 6.64236e-13 
-1.69482e-12 5.53168e-13 -3.42497e-13 -1.34951e-11 -6.64236e-12 -1.32847e-12 2.08009e-12 1.43182e-11 4.9195e-12 
-2.08989e-11 -4.31753e-12 -1.99271e-12 -6.06282e-12 -9.32612e-11 -2.97972e-11 -2.11949e-11 4.5168e-11 1.1292e-11 
-3.0835e-12 -2.17364e-11 -7.44597e-12 -8.58427e-11 8.19857e-11 6.83214e-12 1.59246e-11 1.66726e-12 5.27756e-12 
1.01671e-11 -4.48359e-12 -4.48359e-12 1.87992e-11 3.45681e-11 1.60102e-11 -9.05432e-12 7.97083e-12 -4.48359e-13 
6.87734e-11 5.88844e-11 3.82974e-11 4.83237e-11 1.19562e-11 5.92382e-27 5.81377e-11 1.6402e-11 2.23619e-11 
4.06139e-11 -9.96354e-12 -8.02065e-12 1.0727e-11 2.28999e-11 1.00881e-11 1.01118e-12 -4.44623e-12 -4.66457e-13 
-4.59247e-11 -9.82576e-11 -4.32547e-11 1.53779e-11 -2.4126e-11 -2.23379e-11 -5.62793e-11 -8.8877e-11 -4.35469e-11 
1.55467e-11 -4.49605e-12 4.81364e-12 1.71441e-11 3.13614e-11 1.45517e-11 2.19983e-12 6.45851e-12 -2.21511e-12 
4.81374e-12 5.38466e-11 1.75981e-11 2.87002e-12 -7.41287e-11 -3.28797e-12 -1.6093e-11 -3.23625e-11 -1.45366e-11 
2.84194e-12 -1.1209e-12 3.54951e-12 2.00708e-11 2.64635e-11 1.39603e-11 -7.51843e-12 2.46258e-13 3.07822e-14 
-2.83844e-11 -1.25994e-10 -4.63135e-11 7.2777e-11 -4.34773e-12 -5.97812e-12 -1.39858e-12 -7.55304e-12 -2.68549e-12 
-1.37515e-12 -6.41403e-12 6.12991e-14 2.53305e-11 -5.77898e-11 -9.7378e-12 4.43212e-11 -3.0887e-11 -2.57807e-11 
3.48552e-12 -9.79057e-12 -1.89152e-12 2.80726e-13 -2.11725e-12 3.11361e-13 5.07551e-11 5.16825e-11 3.07313e-11 
4.40652e-12 -1.59417e-11 9.58991e-12 5.36181e-12 2.28598e-12 2.29434e-12 8.32379e-13 2.52202e-12 6.53857e-13 
9.22609e-12 5.07254e-12 4.28959e-12 -4.16072e-12 1.72446e-13 4.59856e-13 6.65575e-12 7.71474e-12 4.31115e-12 
-9.21885e-13 7.47265e-13 5.17338e-13 -8.99148e-12 -4.15752e-12 -3.9447e-12 3.78915e-12 1.72446e-13 -2.29928e-13 
-1.56011e-11 -8.46944e-12 -7.22117e-12 -3.71188e-12 8.62229e-14 -9.77193e-13 2.27751e-12 2.37325e-13 7.54451e-13 
-3.40999e-12 -2.99984e-13 -1.20712e-12 1.5964e-12 1.49325e-12 9.26897e-13 -4.98076e-15 -6.25116e-13 -2.93158e-12 
1.83739e-12 5.77897e-12 2.28491e-12 4.48601e-13 -1.0203e-12 -8.62229e-14 -2.11513e-12 4.41441e-12 6.89784e-13 
-2.50166e-12 1.09216e-12 2.01187e-12 1.41242e-11 2.02932e-11 1.03252e-11 3.92569e-12 1.83942e-12 -4.34966e-28 
1.08529e-11 9.48133e-12 6.10027e-12 2.95494e-12 3.04654e-12 1.83942e-12 1.27344e-12 -1.95657e-13 3.23336e-13 
5.24263e-12 2.29928e-13 2.93158e-12 5.3021e-12 -2.06874e-12 9.70008e-13 -7.28119e-12 1.2646e-12 2.64417e-12 
-1.50122e-11 -1.83992e-11 -1.00234e-11 -6.22191e-12 1.83942e-12 -1.66698e-12 -5.45509e-12 8.25734e-12 8.40674e-13 
9.84482e-13 4.65604e-12 2.06935e-12 1.88389e-11 1.54348e-11 1.02821e-11 1.1612e-11 -1.32209e-12 -6.89784e-13 
1.42517e-11 4.01406e-11 1.63177e-11 -5.75123e-12 -1.49453e-12 -3.19025e-12 -2.0944e-11 -2.17364e-11 -1.28041e-11 
1.21907e-13 -4.54107e-12 -5.54701e-12 -1.9146e-11 -4.35812e-11 -1.88182e-11 -4.09698e-12 -1.42555e-11 -2.29928e-13 
-5.1472e-12 -3.22161e-11 -1.1209e-11 -3.6876e-12 -1.10365e-11 1.32209e-12 -3.70264e-11 -6.7447e-11 -3.1342e-11 
4.00479e-12 -2.98906e-12 -6.89784e-13 7.85107e-12 3.50161e-12 3.40581e-12 -9.65594e-12 6.43798e-12 4.59856e-12 
-1.93846e-11 -5.12463e-11 -2.11893e-11 4.95628e-12 -5.05841e-12 2.75913e-12 -7.74912e-12 -2.95423e-11 -1.11874e-11 
-1.45825e-11 -1.24161e-11 1.72446e-12 3.09957e-11 2.36122e-11 1.63824e-11 1.10274e-11 4.59856e-13 3.10403e-12 
1.74545e-11 3.54289e-11 1.5865e-11 6.98837e-12 1.37957e-12 1.03468e-12 1.52029e-11 3.50219e-11 1.50675e-11 
4.6529e-12 -7.35769e-12 3.79381e-12 5.0647e-12 -1.69922e-11 -3.57825e-12 -4.75896e-12 1.37957e-12 9.19711e-13 
-1.74002e-12 -2.17557e-11 -7.04873e-12 2.83347e-12 -1.14964e-11 1.37957e-12 -5.3377e-12 -2.35051e-12 -2.30646e-12 
-8.58291e-12 1.37957e-12 -4.59856e-13 4.14522e-11 6.53206e-11 3.20318e-11 3.92146e-12 1.88541e-11 -2.75913e-12 
1.74002e-11 3.06691e-11 1.44208e-11 7.7582e-12 -2.29928e-12 1.60949e-12 8.77787e-12 7.46428e-11 2.50262e-11 
1.0304e-11 1.14964e-11 -2.18431e-12 4.28365e-11 9.4761e-11 4.12792e-11 8.79993e-12 -1.6095e-11 6.89784e-12 
7.0617e-11 1.19289e-10 5.69718e-11 2.2115e-11 9.19711e-13 3.44892e-13 5.59805e-11 1.83216e-10 7.1759e-11 
2.48856e-11 1.01168e-11 -1.60949e-12 4.61123e-11 5.17507e-11 2.93589e-11 1.69137e-11 6.89784e-12 4.48359e-12 
-3.26083e-11 -4.39864e-11 -2.29784e-11 1.28847e-11 1.74745e-11 -4.25367e-12 5.00149e-11 9.72826e-11 4.41893e-11 
2.77271e-11 1.21862e-11 -2.47172e-12 3.86387e-11 5.14643e-11 2.70309e-11 -2.17761e-12 -2.75913e-12 3.67885e-12 
-9.42036e-12 -5.4531e-12 -4.46204e-12 -2.27785e-11 7.35769e-12 6.20805e-12 6.9066e-11 1.03236e-10 5.16907e-11 
1.07475e-11 2.29928e-11 1.00019e-11 -1.04961e-11 -2.6436e-11 -1.10796e-11 3.54082e-12 -7.35769e-12 2.52921e-12 
1.0586e-11 5.69553e-11 2.02624e-11 -3.27905e-15 -7.35769e-12 3.67885e-12 3.26142e-11 9.05409e-11 3.69465e-11 
1.20549e-11 1.93139e-11 8.96719e-12 9.48922e-11 1.93811e-10 8.66109e-11 6.39027e-12 -9.19711e-12 7.58762e-12 
9.03268e-11 1.31482e-10 6.65426e-11 1.70831e-11 1.01168e-11 5.7482e-12 1.55176e-11 1.71753e-11 9.80786e-12 
2.91065e-11 -5.51827e-12 2.52921e-12 1.5933e-11 4.18573e-12 6.03561e-12 -1.57612e-11 1.2876e-11 -8.2774e-12 
2.0745e-11 3.72399e-11 1.73955e-11 4.78068e-12 2.75913e-11 -4.1387e-12 -3.73763e-11 -1.08269e-10 -4.36935e-11 
1.51022e-11 9.19711e-13 -6.03561e-12 -3.74801e-11 -2.89116e-11 -1.99175e-11 -2.04381e-11 -3.67885e-12 -3.67885e-12 
6.92238e-12 1.98786e-11 8.04029e-12 -1.53752e-11 1.83942e-12 -1.37957e-12 5.98551e-11 6.44496e-11 3.72914e-11 
4.01057e-11 2.75913e-11 -3.67885e-12 -1.85231e-11 -4.5713e-11 -1.92708e-11 -4.15792e-11 2.57519e-11 6.89784e-13 
5.97215e-12 1.30688e-11 5.71227e-12 8.94971e-12 2.29928e-11 7.35769e-12 5.03237e-11 7.82203e-11 3.85632e-11 
9.47759e-12 1.83942e-12 6.66791e-12 5.28908e-11 1.69493e-10 6.6715e-11 1.43075e-11 1.56351e-11 -9.19711e-12 
-1.49818e-11 -7.31812e-11 -2.64489e-11 1.28241e-11 1.95439e-11 7.47266e-12 -1.56094e-11 -2.90828e-11 -1.34077e-11 
-2.31602e-11 2.94308e-11 -5.7482e-12 9.57843e-12 6.45014e-11 2.2224e-11 -2.4138e-11 -1.01168e-11 1.2646e-12 
-3.76358e-11 -1.13542e-10 -4.53533e-11 -1.64487e-11 -1.10365e-11 1.83942e-12 -3.98227e-11 -7.83746e-11 -3.54592e-11 
-5.76569e-12 1.83942e-11 2.06935e-12 1.034e-10 1.93422e-10 8.90467e-11 2.59156e-11 9.19711e-12 -8.04747e-13 
3.63095e-11 4.8189e-11 2.53495e-11 2.20001e-11 -1.95439e-11 1.15539e-11 -1.67144e-11 -4.09832e-11 -1.73093e-11 
-8.10917e-12 -3.67885e-12 -4.02374e-13 -1.62921e-11 -1.11246e-10 -3.82614e-11 -1.77549e-11 4.04673e-11 8.2774e-12 
-1.46417e-11 -2.32963e-11 -1.13814e-11 2.21277e-11 5.24235e-11 4.02374e-12 -4.11211e-11 -6.2562e-11 -3.11049e-11 
-1.51622e-11 3.72483e-11 2.18431e-12 2.2856e-11 3.30452e-11 1.67704e-11 4.25796e-12 6.94382e-11 8.39237e-12 
1.64343e-10 2.50533e-10 1.24463e-10 3.50723e-12 3.67885e-11 1.47154e-11 1.02749e-10 2.16851e-10 9.58799e-11 
1.0543e-11 6.98981e-11 8.96719e-12 8.11261e-11 1.14744e-10 5.87609e-11 4.72332e-11 3.86279e-11 5.7482e-12 
1.65613e-10 3.20397e-10 1.45803e-10 8.88765e-12 6.62192e-11 9.19711e-12 -3.82528e-12 4.17634e-11 1.13814e-11 
-9.43683e-12 5.33433e-11 8.73726e-12 8.3633e-11 1.39181e-10 6.68443e-11 7.5781e-11 3.4949e-11 -4.1387e-12 
1.80498e-10 4.31326e-10 1.83547e-10 4.71167e-11 -5.51827e-12 -4.59856e-12 1.97014e-10 3.51579e-10 1.64578e-10 
2.76408e-11 2.20731e-11 -2.75913e-12 5.92187e-11 1.34424e-10 5.80927e-11 3.03595e-11 3.67885e-11 -6.43798e-12 
7.63315e-12 -3.34282e-11 -7.73851e-12 -8.17542e-13 1.65548e-11 -1.01168e-11 -1.00046e-10 -2.30979e-10 -9.93073e-11 
1.8421e-12 -5.51827e-12 -4.59856e-13 -4.69856e-11 -1.30705e-10 -5.33073e-11 2.32202e-12 -7.35769e-12 -6.43798e-12 
-3.76308e-11 -8.40154e-11 -3.64939e-11 -3.42474e-11 -4.41461e-11 -1.24161e-11 -1.82851e-10 -3.84568e-10 -1.70226e-10 
-4.77544e-11 3.67885e-11 -3.67885e-12 -1.52709e-11 1.66361e-11 4.09559e-13 -2.61965e-12 7.35769e-12 -1.42555e-11 
7.3796e-11 9.66381e-11 5.11302e-11 3.98336e-11 2.02336e-11 -1.83942e-12 -9.05227e-12 2.74465e-11 5.51827e-12 
-2.09614e-11 -5.15038e-11 6.43798e-12 -3.38071e-11 -1.16405e-10 -4.50636e-11 -1.37097e-11 -5.97812e-11 1.51321e-11 
-3.56948e-11 -1.12357e-10 -4.44156e-11 3.0262e-12 2.39125e-11 1.19562e-11 -1.90149e-12 -1.27102e-11 -4.38351e-12 
-1.1762e-11 -1.02482e-11 -1.19562e-11 -8.29564e-11 -7.75723e-11 -4.81586e-11 -4.31982e-11 -2.73286e-11 -7.68616e-12 
5.79146e-12 1.67043e-11 6.74874e-12 -1.40527e-11 3.98542e-12 -2.98906e-12 2.7508e-11 1.581e-11 1.29954e-11 
7.53938e-12 -2.91434e-11 -2.3352e-12 -8.72706e-11 -1.67446e-10 -7.64151e-11 5.08919e-11 2.20731e-11 6.43798e-12 
-2.02561e-11 3.03442e-11 3.02643e-12 -5.35934e-11 -5.02162e-11 -3.3876e-12 1.83226e-11 3.20459e-11 1.51106e-11 
2.11201e-11 -2.62118e-11 1.20712e-12 2.48173e-10 5.30708e-10 2.33664e-10 1.63839e-11 -7.81755e-11 -8.85222e-12 
8.78541e-11 1.63342e-10 7.53589e-11 6.09453e-11 6.66791e-11 -4.54107e-12 -2.25396e-11 -6.92878e-11 -2.75482e-11 
-2.71986e-12 5.51827e-12 8.04747e-13 -7.29524e-11 -1.57191e-10 -6.9043e-11 -2.69597e-11 3.95476e-11 1.1094e-11 
-6.37513e-11 -1.15521e-10 -5.37816e-11 -7.62332e-11 1.65548e-11 4.48359e-12 9.50912e-11 1.24849e-10 6.59821e-11 
3.14344e-11 1.2876e-11 -7.47265e-13 9.0455e-11 1.70369e-10 7.82473e-11 2.98602e-11 2.39125e-11 7.07028e-12 
3.08751e-11 1.31727e-10 4.87806e-11 6.24723e-11 2.80512e-11 5.7482e-13 7.75713e-11 1.4007e-10 6.52923e-11 
-3.20549e-11 -4.1387e-11 -1.18413e-11 1.32407e-10 2.78733e-10 1.23342e-10 8.79566e-11 -4.69053e-11 3.04654e-12 
6.60153e-11 1.55506e-10 6.64563e-11 2.74235e-11 -3.173e-11 -5.86316e-12 8.92537e-12 7.38513e-12 4.89315e-12 
7.55963e-12 -6.48397e-11 -8.39237e-12 1.02486e-10 2.41543e-10 1.03209e-10 2.20401e-12 -1.93139e-11 -9.82942e-12 
1.11549e-10 1.99428e-10 9.32932e-11 1.51666e-12 -5.38031e-11 -3.24773e-12 -2.0085e-11 -3.10739e-11 -1.53477e-11 
-1.64533e-11 -7.08178e-11 -4.65604e-12 1.48763e-10 3.32289e-10 1.44316e-10 3.85352e-11 -5.15038e-11 -1.21e-11 
1.33829e-10 3.00663e-10 1.30348e-10 -4.30839e-13 -2.20731e-11 -5.97812e-12 1.18789e-10 2.23156e-10 1.02584e-10 
5.04513e-11 1.83942e-11 -1.10365e-11 9.69978e-11 1.49528e-10 7.39577e-11 3.6346e-11 1.83942e-11 -2.64417e-12 
-5.59755e-11 -1.08638e-10 -4.93842e-11 4.16674e-11 -7.35769e-12 1.07809e-25 3.70479e-11 7.71256e-11 3.42521e-11 
-7.85501e-12 5.51827e-12 1.83942e-12 1.34456e-10 2.61236e-10 1.18707e-10 5.29911e-11 3.12702e-11 1.92876e-25 
4.30129e-11 1.02201e-10 4.35641e-11 9.71325e-12 -3.31096e-11 -4.48359e-12 -8.17824e-12 -1.89101e-11 -8.12651e-12 
-4.56876e-11 -9.42704e-12 -3.6501e-12 3.62438e-11 1.1091e-10 4.41461e-11 2.84067e-12 5.51827e-12 1.37957e-12 
4.58982e-11 8.43703e-11 3.90805e-11 6.92424e-11 2.39125e-11 -5.7482e-13 1.60827e-11 -4.15523e-12 3.57825e-12 
-2.15148e-11 -8.2774e-12 3.44892e-12 -5.54284e-11 -1.73637e-10 -6.87197e-11 -3.05321e-11 -3.67885e-12 -2.29928e-12 
-6.01364e-11 -9.90167e-11 -4.7746e-11 8.62157e-12 -2.11534e-11 1.03468e-12 -1.26526e-11 -4.08775e-11 -1.6059e-11 
7.72862e-12 -3.67885e-12 1.37957e-12 2.40521e-11 6.26019e-11 2.59962e-11 2.07033e-11 -3.12702e-11 -2.41424e-12 
1.09143e-10 2.26839e-10 1.00795e-10 3.34384e-11 -1.93139e-11 -2.29928e-13 -4.73307e-11 -1.08589e-10 -4.67759e-11 
-1.90609e-11 1.37957e-11 2.06935e-12 -6.98536e-11 -1.64242e-10 -7.02286e-11 -3.11737e-11 -2.11534e-11 -2.52921e-12 
2.42092e-11 3.9021e-11 1.8969e-11 1.88843e-11 -2.85111e-11 -3.90877e-12 2.11255e-11 2.12674e-11 1.27179e-11 
1.37353e-11 -9.19711e-12 -4.59856e-13 -4.20498e-11 -8.97276e-11 -3.95332e-11 3.65885e-11 -4.59856e-12 4.59856e-13 
2.77932e-11 5.79986e-11 2.57375e-11 1.62873e-12 -1.2876e-11 -1.83942e-12 6.11774e-11 1.39147e-10 6.00974e-11 
-1.83262e-11 -1.74745e-11 -2.8741e-12 4.86794e-11 9.3804e-11 4.2745e-11 2.1243e-11 -1.37957e-11 -1.32209e-12 
2.10261e-11 5.99516e-11 2.42933e-11 1.11293e-11 1.65548e-11 4.94345e-12 4.5825e-11 1.15771e-10 4.84788e-11 
9.07553e-12 -6.89784e-12 3.62136e-12 3.10209e-11 5.06035e-11 2.44873e-11 -2.31877e-11 -1.35657e-11 1.43705e-14 
2.31982e-11 7.38026e-11 2.91002e-11 8.58602e-12 1.63249e-11 -6.46672e-13 2.40918e-11 5.11378e-11 2.25689e-11 
2.76953e-12 1.60949e-12 -8.9097e-13 2.03474e-12 -1.52556e-11 -3.96626e-12 8.91531e-12 3.67885e-12 1.86816e-12 
3.82966e-11 8.48585e-11 3.69465e-11 2.284e-11 1.44855e-11 -2.8741e-14 -3.773e-12 -3.19669e-12 -2.09091e-12 
-1.25614e-11 -9.42704e-12 1.17838e-12 -4.13024e-11 -1.01684e-10 -4.28959e-11 -2.91169e-12 2.11534e-11 -4.23929e-13 
6.08525e-12 -5.65413e-12 1.29334e-13 1.23902e-12 -7.58762e-12 -1.5089e-13 3.71523e-11 8.79429e-11 3.75285e-11 
1.17683e-11 -2.2303e-11 -3.80099e-12 3.59762e-12 -1.58575e-12 6.03561e-13 -1.72381e-11 2.37975e-11 -7.90377e-13 
2.3921e-11 4.51292e-11 2.07151e-11 4.30154e-12 5.7482e-12 -1.1209e-12 2.22595e-11 4.96648e-11 2.15773e-11 
1.40527e-11 -1.82793e-11 2.44298e-13 -2.68345e-12 -8.95665e-12 -3.49203e-12 2.95344e-11 -1.49453e-12 -1.35622e-12 
-1.42349e-11 -3.61337e-11 -1.51106e-11 -1.04447e-13 -5.7482e-13 -1.63644e-12 2.80042e-12 7.69004e-12 3.14714e-12 
3.45949e-12 7.35769e-12 -3.66448e-13 2.18449e-11 3.41281e-11 1.67919e-11 6.72556e-12 -1.21862e-11 -3.36808e-13 
1.23759e-12 -1.02191e-11 -2.69447e-12 1.6775e-11 1.46004e-11 -1.66563e-12 -4.01856e-12 -1.74653e-11 -6.44516e-12 
4.85446e-12 1.12665e-11 -1.40831e-12 -4.88811e-12 -7.25495e-12 -3.64292e-12 -1.07575e-11 4.02374e-12 -1.11371e-12 
-6.49023e-12 -2.70649e-11 -1.00665e-11 -1.06917e-11 8.85222e-12 1.72626e-12 -1.52573e-11 -4.53143e-11 -1.81715e-11 
-4.47055e-12 4.82848e-12 6.5745e-13 -1.08804e-11 -3.25903e-11 -1.30412e-11 7.87304e-12 -4.47393e-27 -4.95782e-13 
-5.96903e-12 -2.04008e-11 -7.91095e-12 -9.8645e-12 3.44892e-12 9.12526e-13 -6.67321e-13 -1.0398e-11 -3.31958e-12 
1.82654e-12 1.03468e-11 6.32302e-13 -3.06313e-12 -8.86438e-12 -3.57825e-12 -3.67369e-12 1.40256e-11 -1.06342e-12 
-2.44213e-12 -5.38979e-12 -2.34958e-12 7.92212e-12 4.59856e-13 -2.8741e-13 1.34895e-11 2.09997e-11 1.03468e-11 
-7.7859e-12 4.59856e-12 1.55201e-12 -1.0442e-12 -9.80552e-12 -3.25492e-12 6.64075e-13 1.97738e-11 -6.89784e-13 
-9.73501e-12 -1.33296e-11 -6.91939e-12 -4.7444e-14 -2.29928e-13 -5.17338e-13 9.05897e-12 1.14908e-11 6.16494e-12 
5.53646e-14 -2.52921e-12 1.14964e-12 -1.05949e-12 -1.71192e-11 -5.4536e-12 5.81943e-12 -1.60949e-12 2.29928e-13 
-1.8278e-11 -2.49772e-11 -1.29766e-11 4.3334e-12 2.29928e-13 -2.75913e-12 4.61528e-13 -2.25784e-12 -5.38893e-13 
-1.22046e-12 1.37957e-12 -3.21899e-12 1.5613e-11 -6.67723e-13 4.48359e-12 2.11288e-12 1.72446e-12 -5.17338e-13 
-3.58409e-12 -7.69675e-12 -3.38425e-12 1.2249e-12 1.14964e-12 -3.10403e-12 -8.00223e-12 -9.67347e-12 -5.30271e-12 
-2.7495e-12 2.06935e-12 -1.43705e-12 1.70293e-11 1.1065e-11 8.42829e-12 4.04721e-13 4.02374e-13 -4.59856e-13 
-3.94701e-12 4.30627e-12 1.07779e-13 1.96618e-12 4.59856e-13 1.8969e-12 9.25969e-12 8.55971e-12 5.34582e-12 
2.33869e-12 1.14964e-13 -6.89784e-13 1.31388e-14 1.63947e-12 4.95782e-13 1.6262e-13 6.10746e-14 1.14964e-13 
3.73273e-12 1.90413e-13 1.17694e-12 -2.5378e-12 2.66213e-13 1.79966e-12 -5.88909e-12 -5.31989e-12 -3.36269e-12 
2.42211e-13 -6.18829e-13 5.29313e-13 1.75177e-11 1.67319e-11 1.02749e-11 -3.16339e-12 -9.02946e-13 -4.67041e-12 
6.41856e-14 -4.06739e-12 -1.20096e-12 -1.6976e-13 5.33761e-14 6.40513e-13 -3.78479e-12 -6.02307e-12 -2.94236e-12 
2.11075e-12 -1.24544e-13 3.61178e-12 1.13106e-11 1.11274e-12 3.72699e-12 -1.04942e-12 9.71445e-13 3.73633e-13 
-4.69065e-12 9.89482e-12 1.56125e-12 1.91085e-12 -3.08914e-12 -4.67041e-14 -4.80588e-11 -1.11069e-10 -4.77383e-11 
-1.57384e-11 4.09929e-11 5.12411e-12 -9.16648e-12 -1.81554e-11 -8.19657e-12 -1.30405e-13 -2.30407e-12 1.22987e-12 
3.40841e-11 4.42231e-11 2.34922e-11 4.35843e-11 5.97812e-12 -7.72174e-12 -4.6373e-12 -1.52586e-11 -5.96878e-12 
1.57451e-12 -1.60662e-12 -9.34082e-15 -4.36715e-11 -2.08437e-10 -7.56326e-11 7.5365e-11 -4.18469e-11 -1.63651e-11 
2.04406e-11 3.35804e-11 1.62063e-11 -3.07873e-12 2.98906e-12 -5.91585e-13 6.86e-11 1.88117e-10 7.7015e-11 
7.77315e-12 -6.87484e-11 -1.66889e-11 1.91289e-12 -4.63729e-12 -8.17322e-13 3.05424e-12 -1.15203e-12 -2.72441e-13 
4.67089e-12 -2.2838e-12 7.16129e-13 5.51993e-13 -3.48724e-12 -7.26508e-13 -1.17447e-11 -1.99103e-11 -9.4965e-12 
-5.44684e-13 1.16241e-12 7.91375e-14 -1.18927e-13 4.16662e-12 1.21431e-12 -1.34602e-12 1.34923e-12 -1.34923e-13 
4.35772e-12 4.25659e-12 2.58429e-12 8.82937e-13 3.9439e-13 1.34923e-12 3.31238e-12 3.12241e-12 1.93044e-12 
2.48077e-12 3.84011e-13 -9.75597e-13 3.23625e-12 3.19854e-12 1.93044e-12 -1.42176e-12 3.78822e-13 -2.07574e-14 
3.53212e-12 7.05414e-12 3.17588e-12 2.71288e-13 6.84993e-13 -7.26508e-13 4.9389e-12 6.27008e-12 3.36269e-12 
2.34903e-13 1.82665e-12 -2.07574e-12 3.71521e-12 8.53164e-12 3.67406e-12 2.43333e-12 -1.16241e-12 -1.20393e-12 
-5.42306e-13 -1.63722e-12 -6.53857e-13 2.67421e-12 -8.7181e-13 -2.01347e-12 2.46273e-12 1.16981e-12 1.08976e-12 
-8.69771e-12 -5.23086e-12 -8.30295e-14 -7.009e-12 -1.35408e-11 -6.16494e-12 1.83618e-12 -3.6533e-12 4.7742e-13 
-1.41409e-11 -4.02434e-11 -1.63153e-11 -1.43435e-11 -1.16241e-12 3.73633e-13 3.30558e-12 8.62991e-12 3.58065e-12 
1.30108e-12 3.90239e-12 2.90603e-13 -1.48068e-12 5.46594e-13 -2.80225e-13 -6.00406e-12 -1.57756e-12 -3.44572e-12 
-4.60366e-12 9.37785e-12 1.43226e-12 4.63129e-12 -7.14054e-12 -3.36269e-12 1.34988e-11 -2.50192e-11 -3.4561e-12 
5.3178e-12 -6.80842e-12 1.24544e-12 1.00654e-11 1.42207e-11 7.28584e-12 1.87321e-11 1.32847e-12 4.56662e-13 
-1.04783e-11 -1.69214e-11 -8.21992e-12 8.74348e-12 1.32847e-12 -4.73268e-12 5.33195e-11 1.05474e-10 4.76382e-11 
-2.67544e-12 -3.15512e-12 8.30295e-14 1.43718e-11 7.94242e-12 6.69425e-12 -1.06722e-11 -1.66059e-11 -2.65694e-12 
-4.38566e-12 1.37584e-12 -9.02946e-13 -5.43096e-13 -2.32483e-12 8.30295e-14 -1.19569e-11 -4.75275e-12 -5.01291e-12 
-8.19197e-12 -1.31187e-11 -2.98906e-12 8.28625e-12 -9.73926e-12 -4.35905e-13 -8.12914e-12 1.1126e-11 1.4115e-12 
2.75282e-11 5.23877e-11 2.39748e-11 -1.09023e-11 1.1126e-11 -1.90968e-12 -2.34892e-12 2.32101e-11 6.25835e-12 
-1.39253e-11 -6.31024e-12 1.16241e-12 1.65987e-11 2.98978e-11 1.3949e-11 1.45726e-11 1.02957e-11 5.0648e-12 
2.55945e-11 1.69581e-11 1.27658e-11 2.65068e-11 -7.63871e-12 -2.90603e-12 3.17387e-11 6.50945e-11 2.90499e-11 
4.93928e-12 -2.32483e-11 -3.15512e-12 -5.93492e-11 -7.38094e-11 -3.99476e-11 -5.02746e-12 3.6533e-12 2.90603e-12 
-1.81841e-11 -3.02844e-11 -1.45405e-11 2.45801e-12 8.63507e-12 -3.32118e-13 1.42601e-11 2.2688e-11 1.10844e-11 
-2.03368e-11 -5.31389e-12 -4.48359e-12 -5.41831e-11 -1.44569e-10 -5.96256e-11 7.88277e-12 1.72701e-11 -9.96354e-13 
1.29156e-11 5.40269e-11 2.00828e-11 -2.36546e-11 4.31753e-12 5.47995e-12 1.05898e-11 6.27876e-11 2.20132e-11 
1.51293e-11 1.59417e-11 3.15512e-12 1.40441e-12 1.62394e-11 5.29313e-12 -4.75806e-12 1.92628e-11 -5.81206e-12 
-4.63083e-11 -6.59891e-11 -3.36892e-11 -6.32643e-12 1.85986e-11 -1.82665e-12 2.56685e-11 8.51759e-11 3.32533e-11 
5.49356e-12 -1.72701e-11 1.66059e-12 -7.85785e-12 -3.71856e-11 -1.35131e-11 -1.45339e-11 7.63871e-12 3.6533e-12 
-1.14415e-11 -6.53608e-11 -2.30407e-11 3.94189e-11 7.3066e-12 3.73633e-12 1.08864e-11 -2.00197e-11 -2.73997e-12 
2.26133e-12 -1.92628e-11 1.16241e-12 -8.28641e-12 -4.94191e-11 -1.73117e-11 6.48332e-13 -2.65694e-12 5.81206e-12 
1.60052e-11 -5.40951e-13 4.63927e-12 3.56566e-11 1.66059e-12 3.32118e-13 -2.66387e-11 -4.33137e-11 -2.09857e-11 
1.28855e-12 -1.59417e-11 7.3066e-12 6.10648e-11 4.85342e-11 3.28797e-11 -5.91465e-12 -7.63871e-12 2.32483e-12 
-7.89498e-11 -1.14509e-10 -5.80376e-11 1.23377e-11 1.85986e-11 -2.65694e-12 6.45479e-11 1.33996e-10 5.95633e-11 
-2.99238e-11 -1.0986e-25 -5.47995e-12 -1.16676e-10 -2.51871e-10 -1.10564e-10 1.15723e-11 1.19562e-11 9.13325e-13 
-2.00593e-11 -9.50404e-11 -3.45299e-11 1.06567e-11 1.79344e-11 2.57391e-12 3.85007e-11 1.44476e-10 5.48929e-11 
4.23526e-12 3.32118e-12 -3.6533e-12 -2.00023e-11 -9.55125e-11 -3.46544e-11 -1.87045e-11 -1.19562e-11 -4.48359e-12 
-8.09643e-12 -6.02991e-11 -2.05187e-11 6.12548e-11 4.64965e-12 -3.59019e-27 -3.15148e-13 -3.68406e-11 -1.11467e-11 
-8.3154e-11 3.05549e-11 -1.16241e-12 -9.52596e-11 -1.64104e-10 -7.7809e-11 2.47591e-11 4.84892e-11 -1.66059e-13 
-7.60522e-12 -6.40601e-12 -4.20337e-12 -2.51336e-11 9.2993e-12 -3.98542e-12 -1.45661e-11 -6.48309e-11 -2.38191e-11 
-3.14852e-11 1.26205e-11 -2.32483e-12 -7.19806e-11 -2.05234e-10 -8.31644e-11 -1.87773e-11 2.12556e-11 -9.2993e-12 
-1.47066e-10 -3.37826e-10 -1.45468e-10 -3.02588e-11 1.32847e-12 2.98906e-12 3.33962e-11 1.79783e-11 1.54124e-11 
-5.47483e-11 8.63507e-12 4.98177e-13 -7.07343e-11 -1.67353e-10 -7.14261e-11 2.56592e-11 3.71972e-11 -1.66059e-12 
4.75832e-12 -7.78243e-11 -2.19198e-11 -1.94595e-11 5.38031e-11 -3.15512e-12 3.06643e-11 1.02287e-10 3.98853e-11 
1.31406e-11 2.98906e-11 2.32483e-12 -6.51474e-11 -1.6692e-10 -6.96202e-11 1.10201e-11 3.05549e-11 -6.97448e-12 
-4.59623e-11 -7.42229e-11 -3.60556e-11 -6.30002e-11 2.19198e-11 -1.16241e-12 2.59181e-11 -4.33043e-12 6.4763e-12 
2.35314e-11 1.79344e-11 1.32847e-12 -4.90699e-11 -7.81728e-11 -3.81728e-11 1.00787e-10 5.31389e-12 -1.06278e-11 
-3.43394e-11 -7.42216e-11 -3.25683e-11 -5.06229e-11 3.71972e-11 1.66059e-13 1.24985e-10 2.1419e-10 1.01753e-10 
4.07515e-11 5.77885e-11 2.32483e-12 -2.48812e-11 -3.52114e-11 -1.80278e-11 5.98903e-11 2.12556e-11 -1.61077e-11 
-1.66378e-10 -3.14259e-10 -1.44191e-10 -4.49187e-12 4.25111e-11 4.98177e-12 1.26649e-11 -1.25611e-11 3.11361e-14 
-2.93623e-11 1.16241e-10 7.63871e-12 -1.51754e-10 -2.60279e-10 -1.2361e-10 1.08242e-11 3.78615e-11 -9.63142e-12 
6.63706e-11 8.64036e-11 4.58323e-11 2.04936e-11 3.78615e-11 -3.32118e-12 7.46133e-11 1.96478e-10 8.13274e-11 
8.72633e-11 5.64601e-11 -1.99271e-12 5.95375e-11 1.06521e-10 4.98177e-11 2.77495e-11 1.3949e-11 1.99271e-12 
5.94091e-11 9.5441e-11 4.6455e-11 -1.40066e-11 2.65694e-12 2.30822e-11 6.86302e-11 3.744e-11 3.18211e-11 
-5.48997e-11 1.59417e-11 -8.30295e-13 -9.51399e-11 -1.59034e-10 -7.62522e-11 -1.24262e-11 6.11097e-11 3.32118e-12 
-2.88677e-11 -1.82961e-10 -6.35487e-11 3.49779e-11 1.16906e-10 1.06278e-11 1.49832e-10 2.38019e-10 1.16355e-10 
-1.56641e-11 8.50222e-11 1.02957e-11 8.83618e-11 2.79355e-10 1.10315e-10 9.52631e-12 -7.97083e-12 -2.32483e-12 
2.24515e-10 3.71325e-10 1.78752e-10 2.59676e-11 4.98177e-11 1.61077e-11 -9.25407e-11 -5.24495e-11 -4.34971e-11 
-2.38832e-11 5.71243e-11 1.99271e-12 3.76862e-11 1.12701e-10 4.51162e-11 -5.59282e-11 1.46132e-11 8.96719e-12 
6.02356e-11 1.93523e-10 7.61277e-11 1.08753e-11 -7.97083e-12 4.48359e-12 -1.60768e-10 -2.65069e-10 -1.27751e-10 
4.52411e-13 -1.59417e-11 1.16241e-12 5.68968e-11 6.33922e-11 3.60867e-11 6.56682e-11 -6.24382e-11 3.6533e-12 
-7.27861e-11 -1.60112e-10 -6.98693e-11 -3.93421e-11 -2.92264e-11 -1.32847e-12 1.18097e-10 3.14757e-10 1.29856e-10 
1.31661e-11 1.913e-11 -6.72539e-13 -2.63007e-11 -1.20817e-10 -4.41354e-11 1.13789e-10 -8.07047e-11 -2.11725e-12 
6.4193e-11 1.53355e-10 6.52643e-11 -3.78646e-12 -1.57822e-10 -1.43475e-11 -1.40858e-10 -1.2808e-10 -8.06813e-11 
-2.72148e-11 3.98542e-12 -2.16707e-11 2.86429e-11 1.19876e-10 4.45557e-11 -1.42474e-11 3.82974e-11 1.83495e-11 
4.45718e-11 3.35798e-11 2.34455e-11 3.61272e-11 5.60449e-11 -1.94081e-12 1.81974e-11 4.16876e-11 1.79655e-11 
-7.81362e-11 4.71608e-11 2.98906e-12 2.97489e-11 8.38977e-11 3.4094e-11 2.16176e-11 4.7825e-11 5.14783e-12 
7.74751e-11 7.21856e-11 4.48982e-11 7.06256e-11 -7.83798e-11 -1.66059e-13 1.36638e-11 -6.77362e-14 4.07882e-12 
2.99811e-12 2.85621e-11 -1.17902e-11 -2.63119e-11 7.45728e-11 1.44783e-11 4.59677e-12 -6.17739e-11 -1.21223e-11 
2.24969e-11 5.15032e-11 2.22e-11 6.23132e-11 -8.23653e-11 -1.22884e-11 -6.87373e-11 -1.36553e-10 -6.15871e-11 
-7.0937e-11 1.32847e-11 -6.31024e-12 6.29377e-11 1.83349e-10 7.38859e-11 -1.07396e-10 -4.5168e-11 -3.98542e-12 
1.03496e-10 2.00911e-10 9.13221e-11 5.59806e-11 -1.26205e-11 -6.64236e-12 -3.53385e-11 -6.36742e-11 -2.97038e-11 
-8.48899e-11 -5.18104e-11 -2.98906e-12 1.68757e-12 -7.82823e-11 -2.29784e-11 2.03149e-11 -7.97083e-12 -7.47266e-12 
-3.07403e-11 1.57618e-12 -8.74923e-12 4.24205e-11 -2.59052e-11 -8.30295e-12 -1.70662e-11 -1.61551e-10 -5.35852e-11 
-3.84265e-11 -4.7825e-11 -1.59417e-11 -8.24007e-11 -1.2974e-10 -6.36421e-11 -2.47735e-11 -2.92264e-11 -5.31389e-12 
1.44933e-10 2.78622e-10 1.27066e-10 6.16346e-12 -8.56864e-11 -6.39327e-12 3.62494e-11 1.33753e-10 5.10009e-11 
3.39572e-11 -4.25111e-11 -3.57027e-12 9.64717e-11 1.61542e-10 7.74042e-11 4.89762e-11 -5.38031e-11 -5.47995e-12 
-1.56204e-11 -4.7482e-11 -1.89307e-11 1.02027e-11 -7.0409e-11 -7.80477e-12 1.05884e-11 -4.88857e-11 -1.14892e-11 
4.4761e-11 -7.57229e-11 -1.01296e-11 -1.26209e-10 -2.58114e-10 -1.15297e-10 -2.4201e-11 -1.59417e-11 -3.81936e-12 
3.60375e-11 2.27058e-11 1.7623e-11 2.65606e-11 -2.65694e-11 -4.98177e-13 -1.12791e-10 -2.95299e-10 -1.22427e-10 
-1.62711e-11 -7.43944e-11 3.32118e-13 -5.42863e-11 -1.66053e-10 -6.61019e-11 4.92285e-11 -8.50222e-11 -2.32483e-12 
-1.30302e-11 6.90673e-12 -1.83703e-12 -3.73408e-11 -1.32847e-11 2.15877e-12 7.21164e-12 4.10113e-12 3.39383e-12 
3.08367e-11 -3.32118e-12 -1.90968e-12 -7.70839e-11 -2.47977e-10 -9.75181e-11 -2.2142e-11 2.39125e-11 9.13325e-13 
-5.53204e-11 -1.316e-10 -5.60761e-11 -5.17934e-11 2.19198e-11 5.81207e-13 -8.78053e-11 -1.65954e-10 -7.61277e-11 
-2.58881e-11 1.19562e-11 4.15147e-13 -5.97955e-11 -1.90435e-10 -7.5069e-11 5.0813e-11 -1.19562e-11 4.89874e-12 
2.32406e-11 1.19432e-11 1.05551e-11 -1.37963e-11 -5.97812e-11 1.99271e-12 2.75345e-11 6.0373e-11 2.63722e-11 
-7.87432e-11 -1.92628e-11 -4.98177e-12 2.51382e-11 7.92714e-11 3.13229e-11 4.79304e-11 -4.91535e-11 5.81207e-13 
5.01656e-11 8.87012e-11 4.16601e-11 -2.69688e-11 -2.92264e-11 -2.32483e-12 -1.05343e-10 -2.45872e-10 -1.05364e-10 
-3.60897e-11 -2.2584e-11 3.32118e-13 -9.76128e-11 -2.41874e-10 -1.01846e-10 -3.58708e-11 -4.25111e-11 -4.89874e-12 
-5.58491e-11 -1.0637e-10 -4.86657e-11 1.72718e-11 -2.78979e-11 -4.15147e-13 9.7037e-12 -2.24695e-11 -3.82974e-12 
3.57117e-11 -2.65694e-11 5.31389e-12 7.41011e-11 1.77582e-10 7.55049e-11 -7.10871e-12 1.32847e-12 -4.15147e-13 
4.06186e-12 9.22286e-12 3.98542e-12 -5.30113e-11 5.31389e-12 1.99271e-12 -5.97922e-11 -8.92457e-11 -4.47114e-11 
1.3127e-11 -1.79344e-11 4.98177e-13 3.90754e-12 -2.37308e-11 -5.94699e-12 -2.32207e-11 -1.72701e-11 -4.98177e-13 
-1.97712e-11 -3.64813e-11 -1.68757e-11 -1.3861e-11 3.32118e-12 -9.96354e-13 7.78357e-12 -8.29845e-13 2.08612e-12 
1.68055e-11 1.06278e-11 -2.07574e-12 -4.61097e-11 -1.07495e-10 -4.60814e-11 3.2101e-12 -4.11826e-11 -2.28331e-12 
1.86465e-11 6.59398e-11 2.53759e-11 -5.11385e-12 7.3066e-12 -9.96354e-13 4.93646e-11 1.25101e-10 5.23397e-11 
-1.15139e-11 1.46132e-11 -2.44937e-12 -6.92863e-11 -2.02324e-10 -8.14831e-11 3.85569e-11 -1.72701e-11 -1.32847e-12 
3.14824e-11 4.08571e-11 2.17018e-11 -7.09234e-12 6.64236e-12 -2.32483e-12 -2.20056e-11 -1.11024e-11 -9.9324e-12 
-1.99165e-11 4.31753e-12 5.56298e-12 -5.06725e-11 -9.4214e-11 -4.34659e-11 -1.10762e-11 -1.59417e-11 2.86452e-12 
-3.2336e-12 -3.2988e-11 -1.08665e-11 -1.35829e-11 -8.96719e-12 -2.90603e-13 -1.08854e-11 2.33399e-11 3.73633e-12 
-3.21423e-11 1.89307e-11 3.32118e-13 -4.69084e-11 -1.11055e-10 -4.73891e-11 -6.32779e-12 1.59417e-11 6.64236e-13 
-2.97671e-11 -8.39833e-11 -3.41251e-11 6.04043e-12 -3.3876e-11 2.49089e-13 -1.00411e-11 1.42683e-12 -2.58429e-12 
-1.5534e-11 7.97083e-12 5.81207e-13 -1.56249e-11 -4.43639e-11 -1.79966e-11 -2.5009e-11 1.3949e-11 1.82665e-12 
-3.7387e-11 -8.78838e-11 -3.75812e-11 -3.69348e-12 -7.3066e-12 -1.49453e-12 -2.01056e-11 -3.2203e-11 -1.56926e-11 
-2.52262e-11 -2.15877e-11 1.44505e-26 -1.70596e-11 -5.05057e-11 -2.02696e-11 3.03841e-11 -7.97083e-12 5.81207e-13 
1.37322e-11 2.97545e-11 1.3046e-11 -1.63552e-11 9.96354e-12 -9.13325e-13 -1.61811e-11 -4.28736e-11 -1.77164e-11 
-1.23071e-11 3.32118e-12 1.66059e-13 -2.29596e-12 -2.99718e-12 -1.58794e-12 4.46886e-12 -2.32483e-12 -9.34082e-13 
3.33938e-11 7.50634e-11 3.25372e-11 6.2141e-12 -6.64236e-13 1.45302e-13 4.75897e-13 1.23937e-11 3.86087e-12 
-5.46574e-12 6.4763e-12 4.35905e-13 4.25941e-11 8.21577e-11 3.74255e-11 1.02305e-11 -1.02957e-11 1.00673e-12 
3.88473e-11 7.77054e-11 3.49658e-11 1.62782e-11 7.3066e-12 9.13325e-13 3.92185e-11 8.96848e-11 3.8671e-11 
-9.32454e-12 9.46536e-12 2.65694e-12 2.84059e-11 6.29266e-11 2.73997e-11 8.78974e-12 -1.32847e-12 1.89671e-12 
1.96965e-11 4.35097e-11 1.89619e-11 -8.06088e-12 6.97448e-12 2.47013e-12 3.0893e-11 6.60439e-11 2.90811e-11 
2.26551e-11 -6.64236e-12 7.68023e-13 1.75406e-11 3.59096e-11 1.60351e-11 -1.29335e-11 1.1292e-11 1.21431e-12 
9.43372e-12 1.29842e-11 6.72539e-12 5.57356e-12 5.31389e-12 9.98949e-14 9.21021e-12 1.76706e-11 8.06424e-12 
3.45084e-12 -6.64236e-13 2.07574e-14 -2.1885e-12 -1.61818e-11 -5.51108e-12 -1.63582e-12 2.98906e-12 7.00561e-13 
-1.29855e-11 -2.40664e-11 -1.11156e-11 -4.07768e-12 -3.48724e-12 7.16129e-13 -1.27405e-11 -3.16803e-11 -1.33262e-11 
2.41404e-12 1.99271e-12 9.36677e-13 8.32797e-12 1.24294e-11 6.22721e-12 -8.71962e-13 -2.90603e-12 8.65972e-14 
2.52469e-12 -3.45168e-13 6.53857e-13 -3.52791e-12 -1.99271e-12 -1.04046e-12 -3.58159e-13 -1.30243e-12 -4.98177e-13 
1.23552e-12 -4.10996e-12 1.14166e-13 -3.88453e-13 -5.83876e-12 -1.86816e-12 3.60332e-12 -2.07574e-13 -3.37307e-13 
4.52905e-12 6.47236e-12 3.30042e-12 2.81514e-12 6.64236e-13 -6.53857e-13 6.69878e-12 1.25018e-11 5.76017e-12 
6.79301e-13 -1.57756e-12 4.04769e-13 2.91584e-12 4.03788e-12 2.08612e-12 -1.37732e-12 2.07574e-13 -1.77476e-12 
3.28462e-12 5.95241e-12 2.77111e-12 -2.19339e-12 2.62062e-13 1.24544e-13 7.28665e-12 6.72457e-12 4.20337e-12 
5.74378e-13 -2.69846e-13 -4.35905e-13 -2.00448e-12 -6.92119e-12 -2.6777e-12 -1.25537e-12 2.13168e-28 -2.32483e-12 
5.13932e-12 1.28885e-11 5.40833e-12 1.54542e-12 -8.40674e-13 -1.13024e-12 6.80549e-12 1.34329e-11 6.07153e-12 
1.30689e-12 -8.40674e-13 -1.15203e-12 -2.75904e-12 -5.36747e-12 -2.43795e-12 -4.28252e-12 5.97812e-13 -1.49453e-12 
1.24167e-11 1.19472e-11 7.30919e-12 -6.23469e-13 -1.09599e-11 3.30042e-12 2.41353e-11 4.98129e-11 2.21844e-11 
-3.32246e-11 -1.59417e-11 4.98177e-13 1.16962e-11 4.83705e-12 4.95997e-12 2.57864e-12 2.72752e-12 2.39125e-12 
-5.64057e-11 -1.12756e-10 -5.07487e-11 -1.041e-10 -1.43475e-11 -1.19562e-12 -1.41047e-12 4.76386e-13 -2.80225e-13 
8.15307e-12 2.86452e-12 1.86816e-13 7.87965e-11 1.00314e-10 5.37331e-11 7.54988e-11 1.44471e-11 -2.49089e-13 
8.62603e-12 1.16903e-11 6.09488e-12 -4.3656e-12 2.08612e-12 -1.07225e-12 -2.635e-11 -5.82623e-11 -2.53837e-11 
1.36243e-11 -1.24544e-11 3.36269e-12 -8.68124e-11 -2.85886e-10 -1.1181e-10 2.18281e-11 -3.78615e-11 -7.47265e-13 
1.37797e-11 1.47877e-11 8.5702e-12 -6.70107e-12 4.67041e-12 6.53857e-13 -9.96529e-12 -2.07816e-11 -9.22406e-12 
-3.24649e-12 -3.61178e-12 -6.53857e-13 6.83762e-11 1.12602e-10 5.42935e-11 4.59656e-11 -3.68651e-11 -9.34348e-26 
6.14036e-12 8.30677e-12 4.33414e-12 4.30715e-12 1.09599e-12 -1.32017e-12 -9.74082e-11 -2.70745e-10 -1.10446e-10 
2.57361e-11 -6.05783e-11 -4.7825e-12 -1.08915e-10 -1.51772e-10 -7.8206e-11 -3.2619e-11 8.96719e-12 -1.64398e-11 
7.41516e-12 1.76998e-12 2.75554e-12 1.2435e-12 4.10996e-12 1.68135e-12 4.67151e-12 6.22611e-12 3.26929e-12 
1.60851e-12 -3.03577e-13 3.05912e-12 1.23629e-11 2.29765e-11 1.06018e-11 1.87143e-11 -2.98906e-12 -6.35176e-12 
-1.82003e-12 -9.02969e-12 -3.25492e-12 2.62298e-12 -1.83942e-12 1.49453e-12 -5.47532e-12 -1.3829e-11 -5.79131e-12 
-3.9431e-12 -2.59467e-12 -1.77994e-12 -8.5112e-12 -4.66974e-12 -3.95428e-12 -3.8979e-12 9.34082e-13 -8.40674e-13 
9.90091e-13 3.68032e-12 1.40112e-12 -2.01012e-12 4.15147e-14 9.13325e-13 1.92123e-12 2.23024e-12 1.24544e-12 
7.95741e-13 4.98177e-13 1.74362e-12 -3.70525e-12 -1.27652e-12 -1.49453e-12 4.8166e-13 6.22721e-13 -4.15147e-13 
-1.8997e-12 2.73e-12 2.49089e-13 -1.35794e-14 1.25063e-12 -1.61908e-12 5.09972e-12 6.00548e-12 3.33156e-12 
-9.16381e-13 2.49088e-12 -3.32118e-13 3.28338e-12 4.60442e-12 2.36634e-12 7.66527e-13 -1.66059e-13 -4.15147e-13 
-9.5749e-12 -1.6787e-11 -7.90856e-12 -5.70934e-13 -4.10996e-12 -1.86816e-12 3.85614e-12 -4.31174e-13 1.02749e-12 
-1.27993e-12 -4.31753e-12 -1.45302e-12 -1.74172e-11 -3.29194e-11 -1.5101e-11 -2.74689e-12 -3.07209e-12 1.07938e-12 
-2.87166e-12 -2.43205e-11 -8.15765e-12 -6.09658e-12 -4.31753e-12 -9.96354e-13 1.10919e-11 2.02517e-11 9.40309e-12 
-3.64398e-12 7.63871e-12 1.82665e-12 -3.37597e-12 8.46152e-12 1.52567e-12 -9.17733e-13 1.66059e-12 -2.98906e-12 
1.21837e-12 2.61814e-11 8.21992e-12 -1.37708e-12 -4.31753e-12 -2.98906e-12 -3.15059e-12 -1.95787e-11 -6.8188e-12 
4.32253e-12 -1.15411e-11 7.05751e-13 -8.25981e-13 -1.73367e-11 -5.44881e-12 2.53423e-12 -1.57756e-11 1.90968e-12 
-1.93244e-11 -4.66841e-11 -1.98025e-11 9.41367e-12 -1.19562e-11 -1.82665e-12 -1.5886e-12 -2.02066e-11 -6.53857e-12 
-6.97785e-12 1.32847e-12 -1.32847e-12 1.98409e-11 2.72784e-11 1.41358e-11 9.82441e-12 -8.46901e-12 -4.15148e-12 
-4.21741e-11 -8.58989e-11 -3.84219e-11 -1.64148e-11 -1.99271e-11 -4.98177e-13 -2.15402e-11 -4.20811e-11 -1.90864e-11 
-5.76644e-12 -1.44471e-11 -1.49453e-12 -3.22015e-11 -8.01997e-11 -3.37204e-11 -1.43539e-11 -7.97083e-12 -6.64236e-13 
6.46354e-12 -1.03037e-11 -1.15203e-12 -9.85269e-12 -1.32847e-12 3.32118e-13 1.00836e-13 -1.69143e-11 -5.04404e-12 
6.88246e-12 -1.46132e-11 3.32118e-13 -9.39002e-12 6.58778e-12 -8.40674e-13 -1.81012e-11 6.64236e-12 2.65694e-12 
6.9991e-12 -1.90384e-11 -3.61178e-12 8.07783e-12 -1.46132e-11 -2.98906e-12 -2.338e-11 -6.21404e-11 -2.56561e-11 
8.8487e-12 -2.823e-11 -3.32118e-12 -1.6917e-11 -2.65697e-11 -1.3046e-11 9.43005e-12 -2.09234e-11 -5.23086e-12 
-3.87535e-11 -6.4722e-11 -3.10427e-11 6.16382e-12 2.2584e-11 -2.98906e-12 -1.88776e-11 -9.45621e-12 -8.50015e-12 
-4.09984e-12 1.85986e-11 -4.31753e-12 -3.18028e-11 -1.16924e-10 -4.4618e-11 -8.41349e-12 1.32847e-12 -5.47995e-12 
2.27445e-11 5.37465e-11 2.29473e-11 -6.95028e-12 1.09599e-11 1.49453e-12 5.16592e-11 1.23948e-10 5.26822e-11 
2.32235e-12 3.85257e-11 4.64965e-12 6.97815e-12 4.57456e-11 1.58171e-11 4.0404e-11 1.59417e-11 -1.99271e-12 
-3.85548e-11 -5.73443e-11 -2.87697e-11 -1.97453e-11 2.2584e-11 -6.64236e-13 2.63304e-11 9.58268e-11 3.66471e-11 
4.2639e-12 -1.49173e-25 4.48359e-12 5.34056e-11 1.28948e-10 5.47061e-11 1.76996e-11 2.65694e-11 9.96354e-13 
-1.67578e-11 -3.45129e-11 -1.53812e-11 1.71217e-11 1.32847e-11 -1.99271e-12 2.35413e-11 6.41586e-11 2.631e-11 
-1.27123e-11 -8.30295e-12 3.90239e-12 2.41962e-11 3.901e-11 1.89619e-11 2.52359e-11 2.12556e-11 7.63871e-12 
-6.40508e-12 -5.21307e-11 -1.75607e-11 1.23297e-11 -2.32483e-12 9.21627e-12 2.24854e-11 4.39382e-11 1.99271e-11 
-5.66179e-12 1.19562e-11 1.19562e-11 2.65658e-11 3.62253e-11 1.88373e-11 2.45319e-12 2.39125e-11 1.19562e-11 
2.01208e-11 1.29872e-11 9.9324e-12 1.7409e-11 -2.65694e-11 -6.4763e-12 7.32221e-11 1.63308e-10 7.09591e-11 
-4.41536e-12 -1.59417e-11 -6.97448e-12 2.41008e-11 6.42218e-11 2.64968e-11 1.26143e-11 3.18833e-11 -7.3066e-12 
-1.35511e-11 -4.45695e-11 -1.74362e-11 1.0868e-11 2.65694e-12 3.6533e-12 3.35209e-11 1.7646e-11 1.53501e-11 
-1.03996e-11 2.65694e-12 5.64601e-12 -1.84328e-11 1.0545e-11 -2.36634e-12 -2.35407e-11 1.59417e-11 -7.63871e-12 
-1.69717e-12 1.43592e-11 3.7986e-12 3.95066e-12 1.46132e-11 -2.65694e-12 1.11221e-11 2.17784e-11 9.87013e-12 
1.88523e-11 3.32118e-11 9.63142e-12 1.46517e-11 1.51351e-11 8.93605e-12 1.50979e-12 7.0409e-11 9.96354e-13 
3.38274e-11 8.36593e-11 3.5246e-11 -2.16111e-11 3.58687e-11 -9.2993e-12 5.02425e-11 1.02947e-10 4.59568e-11 
1.60994e-11 4.25111e-11 -9.63142e-12 -7.94184e-11 -1.83993e-10 -7.90233e-11 -7.29381e-12 3.58687e-11 -3.98542e-12 
-1.28683e-10 -2.53357e-10 -1.14612e-10 -3.82218e-11 -9.2993e-12 2.32483e-12 -5.64503e-11 -1.587e-10 -6.45451e-11 
-7.03556e-11 -2.45767e-11 -6.64236e-13 -1.1721e-11 -6.63268e-11 -2.34143e-11 -1.40484e-12 5.04819e-11 3.32118e-12 
1.25079e-10 1.84829e-10 9.29723e-11 3.69347e-11 4.7825e-11 1.32847e-12 -2.40556e-12 -1.8767e-11 -6.35176e-12 
-2.80638e-11 6.50951e-11 -2.15877e-12 -7.36093e-11 -1.50363e-10 -6.71916e-11 3.30376e-12 6.11097e-11 -1.32847e-12 
2.58518e-11 1.32112e-10 4.73891e-11 -2.21153e-12 -3.20245e-25 -9.2993e-12 -1.24348e-11 4.70997e-11 1.03994e-11 
-3.39943e-11 -4.11826e-11 6.31024e-12 6.76022e-11 9.73151e-11 4.94752e-11 6.87761e-11 -2.2584e-11 -8.13689e-12 
1.62855e-10 4.06623e-10 1.70844e-10 2.80786e-11 2.32483e-11 -8.63507e-12 1.60717e-10 4.21943e-10 1.74798e-10 
-8.53064e-11 6.37667e-11 -3.32118e-12 1.24034e-10 1.79335e-10 9.10107e-11 7.61454e-11 7.0409e-11 -9.2993e-12 
-5.96369e-11 -6.13785e-11 -3.63047e-11 4.71063e-11 3.98542e-11 -5.97812e-12 4.4844e-11 6.66231e-11 3.34401e-11 
-1.80119e-11 5.38031e-11 -1.29526e-11 -1.15648e-12 -3.72151e-12 -1.46339e-12 5.52622e-11 7.70514e-11 7.3066e-12 
6.47949e-11 2.06193e-10 8.12963e-11 -7.77667e-11 1.06278e-11 3.32118e-12 4.19416e-11 9.03866e-11 3.96985e-11 
4.05474e-11 -7.97083e-12 -3.98542e-12 1.30404e-10 2.15621e-10 1.03808e-10 8.93659e-11 8.96719e-11 2.49088e-12 
4.71561e-11 1.45887e-10 5.79131e-11 1.24514e-11 -2.39125e-11 2.65694e-12 1.05813e-10 1.53654e-10 7.78402e-11 
-4.02908e-11 -2.12556e-11 -3.32118e-12 4.20433e-11 3.80802e-11 2.4037e-11 1.10532e-10 -1.59417e-11 -1.32847e-11 
-8.06964e-11 -1.36426e-10 -6.51366e-11 -6.35024e-11 1.99271e-11 5.47995e-12 3.00975e-11 3.41466e-11 1.92732e-11 
-5.21656e-11 1.06278e-10 6.64236e-12 9.3876e-11 1.81782e-10 8.26974e-11 1.84297e-11 5.24746e-11 1.84325e-11 
-7.57138e-11 -1.41927e-10 -6.52923e-11 -2.74895e-11 -1.59417e-11 1.3949e-11 -7.7159e-11 -1.98499e-10 -8.26974e-11 
5.5436e-12 8.63507e-11 6.14418e-12 -1.08082e-10 -1.36336e-10 -7.33254e-11 -2.90169e-11 3.98542e-11 9.2993e-12 
5.47608e-11 1.25413e-10 5.40522e-11 -2.26822e-11 1.37325e-26 3.98542e-12 8.87791e-11 2.81844e-10 1.11187e-10 
5.6297e-12 2.65694e-11 -8.30295e-12 -1.76172e-11 -4.94291e-11 -2.01139e-11 1.37188e-11 -3.98542e-11 -2.65694e-12 
-1.57222e-10 -3.89216e-10 -1.63931e-10 5.75704e-11 -8.50222e-11 5.31389e-12 -2.20792e-11 4.94789e-11 8.21992e-12 
-5.28243e-11 7.97083e-12 -5.27758e-26 6.21056e-11 1.78251e-11 2.39792e-11 3.79067e-11 1.36643e-11 -1.70804e-12 
-2.60765e-11 -6.73317e-11 -2.80225e-11 3.29703e-11 -3.34775e-11 1.19562e-12 -8.71614e-12 -6.07652e-11 -2.08444e-11 
-3.70956e-11 5.82005e-12 4.59856e-13 1.09598e-10 1.26413e-10 7.08034e-11 2.06274e-11 8.63507e-12 -3.30042e-12 
-7.81937e-11 -1.49618e-10 -6.83437e-11 -3.89292e-13 3.71972e-11 -3.98542e-12 -6.56206e-11 -3.60906e-11 -3.05133e-11 
-1.02099e-10 1.59417e-11 8.80113e-12 -6.00003e-11 -2.66306e-10 -9.78918e-11 -2.53848e-12 -3.18833e-11 -1.09599e-11 
1.26383e-10 2.73819e-10 1.20061e-10 5.67476e-11 -8.56864e-11 -1.62738e-11 1.3874e-10 3.11073e-10 1.34944e-10 
2.27696e-11 -7.97083e-11 -1.59417e-11 1.08885e-10 2.67342e-10 1.12868e-10 2.86151e-11 -1.31519e-10 -2.19198e-11 
4.50921e-11 1.54801e-10 5.99681e-11 2.8381e-11 -4.25111e-11 -8.21992e-12 8.12151e-11 1.64033e-10 7.35745e-11 
-1.76932e-11 -8.76791e-11 -4.81571e-12 8.13111e-11 2.05141e-10 8.59355e-11 3.4569e-11 -1.11592e-10 -1.59417e-11 
4.22678e-11 5.94433e-11 3.05133e-11 5.94833e-11 -8.10368e-11 -1.26205e-11 -5.74386e-11 -1.41417e-10 -5.96567e-11 
-4.34952e-11 -6.64236e-11 -6.64236e-12 1.14655e-10 2.69461e-10 1.15235e-10 6.15889e-11 -3.71972e-11 -1.85986e-11 
2.69797e-10 4.564e-10 2.17859e-10 9.89755e-11 -9.43215e-11 -1.94289e-11 1.23422e-10 2.18037e-10 1.02438e-10 
4.4726e-11 -2.12556e-11 -8.63507e-12 1.96833e-10 4.22464e-10 1.85789e-10 2.78332e-11 -7.10733e-11 -1.57756e-12 
5.47589e-11 1.30708e-10 5.56401e-11 4.12248e-11 -8.90076e-11 -1.32847e-12 2.06412e-10 4.65193e-10 2.01481e-10 
3.16174e-11 -7.70514e-11 -6.64236e-12 1.21342e-10 2.3309e-10 1.0633e-10 8.56816e-11 -3.71972e-11 -1.06278e-11 
1.63965e-10 3.22172e-10 1.45841e-10 4.47602e-11 -8.23653e-11 -1.59417e-11 6.76871e-11 1.39783e-10 6.2241e-11 
6.67693e-12 -5.57958e-11 -8.63507e-12 -4.80637e-11 -1.28478e-10 -5.29624e-11 -9.21695e-13 7.18039e-27 6.64236e-13 
-5.7678e-11 -1.52387e-10 -6.30194e-11 1.18789e-11 -2.39125e-11 -9.96354e-13 -1.65157e-11 -8.95544e-11 -3.18211e-11 
2.47359e-11 -1.85986e-11 -6.64236e-13 7.29474e-12 2.43603e-11 9.4965e-12 3.56775e-11 -7.97083e-12 5.97812e-12 
1.35603e-10 3.11615e-10 1.34165e-10 3.34855e-11 -4.5168e-11 6.97448e-12 1.28266e-11 -5.04261e-12 2.3352e-12 
5.13103e-11 3.05549e-11 -3.48724e-12 7.9703e-11 1.61601e-10 7.23913e-11 -4.42537e-11 1.32847e-11 1.99271e-12 
3.09963e-11 7.93291e-11 3.30976e-11 -3.18968e-12 1.85986e-11 -4.15148e-12 -2.64349e-11 -8.0258e-11 -3.20079e-11 
1.67017e-11 1.32847e-12 -9.96354e-13 8.64515e-12 -3.3554e-11 -7.47266e-12 -2.16189e-11 -3.18833e-11 3.32118e-13 
2.68917e-11 6.98377e-11 2.90188e-11 -4.06399e-11 -3.45403e-11 -7.97083e-12 6.69293e-11 1.55797e-10 6.6818e-11 
1.42279e-11 -6.90805e-11 -2.73997e-12 -3.41587e-11 -1.24531e-10 -4.7607e-11 2.69209e-11 -6.64236e-11 2.32483e-12 
-1.10426e-10 -2.71717e-10 -1.14643e-10 1.36118e-11 -6.64236e-13 2.07574e-12 -7.85029e-11 -1.7702e-10 -7.6657e-11 
-8.70756e-12 4.22925e-25 -6.64236e-13 -3.19311e-11 -5.40044e-11 -2.57807e-11 -5.22124e-11 -6.50951e-11 -3.57027e-12 
6.06266e-12 -1.15634e-11 -1.65021e-12 -1.03771e-11 -3.45403e-11 6.31024e-12 8.07458e-11 2.11726e-10 8.77414e-11 
2.13859e-11 -5.31389e-12 3.98542e-12 7.7056e-11 1.7992e-10 7.70929e-11 1.77441e-12 -5.31389e-12 -5.56298e-12 
4.14368e-11 1.04488e-10 4.37773e-11 1.61942e-11 -1.89307e-11 -3.48724e-12 1.19951e-11 2.51606e-11 1.11467e-11 
-6.2962e-12 1.59417e-11 4.64965e-12 -1.06555e-11 -3.17933e-11 -1.27346e-11 6.48673e-12 -2.12556e-11 1.66059e-12 
2.97795e-11 4.85796e-11 2.35077e-11 3.6519e-11 -7.97083e-12 -5.93661e-12 -2.65948e-11 -8.02019e-11 -3.2039e-11 
-6.5158e-12 -2.39125e-11 -3.6533e-12 1.59865e-11 2.40752e-11 1.20185e-11 2.20093e-12 -1.99271e-11 -3.77784e-12 
6.15282e-11 1.70228e-10 6.95268e-11 -1.96647e-12 5.97812e-12 -7.80477e-12 7.56414e-12 -4.76189e-12 8.40674e-13 
1.22507e-11 2.12556e-11 -1.16241e-12 -1.79723e-11 -4.25354e-11 -1.81523e-11 1.13446e-11 1.32847e-12 -4.64965e-12 
8.77629e-11 1.67138e-10 7.64702e-11 2.17541e-11 -7.97083e-12 -4.31753e-12 2.13218e-11 4.68661e-11 2.04564e-11 
3.1595e-12 -2.39125e-11 5.47995e-12 -6.49605e-11 -1.51954e-10 -6.50744e-11 -3.36347e-11 -1.56095e-11 3.63254e-12 
4.41435e-11 8.16461e-11 3.77369e-11 -5.4507e-12 -3.32118e-13 1.78513e-12 4.60165e-11 1.14646e-10 4.81986e-11 
2.89971e-11 -1.06278e-11 -1.99271e-12 -1.2673e-11 -4.70044e-11 -1.79032e-11 -2.10886e-11 -1.56095e-11 1.97195e-12 
1.97105e-11 5.11759e-11 2.12659e-11 -8.81055e-12 -1.06278e-11 1.57756e-12 2.06618e-12 1.15299e-11 4.07882e-12 
9.99454e-12 -1.26205e-11 1.57756e-12 -7.7324e-11 -1.74463e-10 -7.55361e-11 -1.23109e-11 8.63507e-12 -6.22721e-14 
1.84238e-11 2.39212e-11 1.27035e-11 -1.55852e-11 -1.72701e-11 7.47265e-13 -1.83138e-11 -3.58629e-11 -1.6253e-11 
-4.74351e-13 -1.66059e-12 -1.28696e-12 3.92894e-11 6.77148e-11 3.21013e-11 1.45945e-11 1.46132e-11 -8.30295e-14 
-3.87938e-12 -9.92427e-12 -4.1411e-12 -7.03297e-12 8.63507e-12 1.21431e-12 -1.63348e-11 -3.35867e-11 -1.49764e-11 
-7.54979e-13 3.32118e-12 1.72805e-12 1.00657e-11 3.11377e-11 1.2361e-11 -9.9526e-13 -1.46132e-11 -1.16241e-12 
-1.69444e-11 -5.85087e-11 -2.26359e-11 3.90115e-12 1.32847e-11 1.04825e-12 -4.90542e-12 -1.18043e-11 -5.01291e-12 
-3.36022e-13 3.32118e-12 -6.90183e-13 4.50311e-11 9.10335e-11 4.08194e-11 -2.02399e-12 -1.85986e-11 6.95372e-13 
4.17578e-12 5.06125e-12 2.77111e-12 1.37418e-11 -1.99271e-12 1.76438e-12 1.55933e-11 2.50912e-11 1.22053e-11 
7.18235e-12 9.96354e-12 1.42707e-12 1.19762e-11 1.85371e-11 9.154e-12 -7.43644e-12 1.99271e-12 2.48829e-12 
4.62381e-12 4.09428e-12 2.61543e-12 -7.91929e-13 3.98542e-12 1.83703e-12 1.69281e-11 2.79078e-11 1.34508e-11 
4.96061e-12 6.64236e-12 -2.28331e-13 1.36038e-11 1.59755e-11 8.87378e-12 -9.10492e-12 9.2993e-12 1.9979e-13 
-1.14189e-12 -6.01941e-12 -2.14839e-12 7.22564e-12 6.64236e-13 -2.73738e-13 -2.34138e-12 -2.15296e-11 -7.16129e-12 
5.91573e-12 2.65694e-12 -1.08976e-13 -1.37508e-11 -3.36798e-11 -1.42292e-11 2.26505e-12 1.99271e-12 6.64236e-13 
4.8568e-12 7.28626e-12 3.64292e-12 -3.29516e-12 -1.16241e-12 1.95119e-12 -1.07737e-12 -7.43315e-12 -2.55316e-12 
8.63944e-14 3.6533e-12 6.64236e-13 5.26711e-12 8.43276e-12 4.10996e-12 1.27782e-12 -2.32483e-12 -6.22721e-13 
8.22766e-12 1.40865e-11 6.69425e-12 -2.08715e-13 -2.49088e-12 -1.03787e-12 -8.96258e-13 -2.00977e-12 -8.7181e-13 
3.30954e-12 -3.32118e-13 1.07938e-12 -7.18144e-13 9.54225e-14 -1.86816e-13 1.5373e-12 2.65694e-12 -2.57391e-12 
2.96413e-12 8.76379e-12 3.51838e-12 1.53515e-12 -4.15147e-13 -1.66059e-12 3.55297e-12 2.57045e-12 1.83703e-12 
-3.89659e-12 2.07574e-14 -2.11725e-12 -2.11123e-12 4.60212e-12 7.47265e-13 -3.1953e-12 -2.07574e-14 -4.7742e-13 
2.88225e-12 6.35479e-12 2.77111e-12 1.845e-12 -8.97548e-29 -1.49453e-12 -9.65251e-13 -2.04457e-12 -9.02946e-13 
4.97347e-13 7.47265e-13 -2.03422e-12 6.69528e-12 3.7353e-12 3.12917e-12 -2.3726e-12 9.96354e-13 -2.98906e-12 
9.50497e-13 7.85656e-12 2.64212e-12 5.05558e-12 3.04244e-12 -2.08167e-12 1.24372e-12 7.00733e-12 2.47532e-12 
-8.2351e-13 -3.23815e-12 2.2418e-12 -8.65498e-12 -3.87728e-12 -3.75968e-12 2.16974e-12 -2.2418e-12 2.17952e-12 
4.39408e-12 4.32402e-12 2.61543e-12 -7.54263e-12 -3.18833e-11 3.98542e-12 3.18274e-12 6.71853e-12 2.97038e-12 
-3.64487e-12 8.36937e-12 8.40674e-13 5.83495e-11 2.63815e-10 9.66495e-11 5.78837e-12 -1.31967e-10 -1.07606e-11 
2.44916e-11 9.28731e-13 7.62611e-12 2.40473e-11 -5.20951e-11 -1.08887e-11 2.10881e-11 1.65087e-11 1.1279e-11 
-4.40935e-12 -6.05845e-28 -1.24544e-12 -5.26633e-11 -9.95921e-11 -4.56766e-11 2.86652e-11 -5.08141e-11 -2.73997e-12 
-1.48372e-12 1.207e-11 3.17588e-12 4.79499e-12 6.22721e-14 -1.93044e-12 -1.11471e-10 -2.75572e-10 -1.16113e-10 
-6.29925e-12 -8.88178e-11 2.98906e-12 7.3641e-12 -1.24961e-13 2.17174e-12 7.91505e-12 -1.24544e-13 1.30771e-12 
4.40682e-12 3.92208e-12 2.49867e-12 1.73967e-13 -1.49453e-12 -1.86816e-13 -4.64034e-12 -5.3232e-12 -2.98906e-12 
-9.11396e-13 1.5568e-14 2.14839e-12 -7.08938e-12 -1.03779e-11 -5.2402e-12 3.22735e-12 1.1606e-12 1.64282e-12 
1.74734e-12 7.8737e-12 2.88631e-12 2.18541e-12 -8.78037e-13 -5.60449e-13 7.09586e-12 3.64608e-12 3.22258e-12 
6.66291e-13 -1.56926e-12 -1.53189e-12 -1.48868e-12 -1.50038e-12 -8.96719e-13 3.67189e-12 7.47265e-14 9.71445e-13 
2.97632e-12 2.06772e-12 1.51321e-12 -1.92565e-12 4.01655e-13 2.44729e-12 -6.59632e-12 -1.5302e-12 -2.43795e-12 
-3.56599e-13 2.52202e-13 -6.72539e-13 2.25293e-12 1.85703e-12 1.23299e-12 -3.7176e-12 -7.47265e-14 9.71445e-13 
6.06316e-13 3.22342e-12 1.14892e-12 1.38089e-12 -5.41767e-13 1.49453e-12 -1.80324e-12 6.82343e-13 -3.36269e-13 
-1.81901e-12 1.79344e-12 -8.96719e-13 -8.92038e-13 9.76582e-12 2.66213e-12 -3.48835e-12 2.32586e-12 -1.7047e-12 
9.10944e-12 1.07865e-11 5.96878e-12 5.38535e-12 4.25941e-12 -1.25167e-12 1.45417e-11 1.1706e-11 7.87431e-12 
2.89917e-13 -2.39125e-12 -1.79344e-12 -1.01378e-11 -3.3297e-11 -1.30304e-11 1.7525e-12 2.98884e-27 -4.03523e-12 
-8.65579e-12 -2.20755e-11 -9.21939e-12 2.04842e-12 -4.30612e-12 -2.09234e-12 6.51996e-12 1.30958e-11 5.88472e-12 
1.2579e-11 -5.97812e-12 -1.49453e-12 5.63582e-13 -2.05811e-12 -4.48359e-13 -2.05782e-12 4.7825e-12 2.98906e-12 
-2.6986e-11 -5.951e-11 -2.59488e-11 -2.58558e-12 7.62211e-12 3.2506e-12 -1.6029e-11 -5.2626e-11 -2.05965e-11 
1.22595e-12 -7.47266e-12 3.73633e-12 3.70016e-13 2.03666e-11 6.22099e-12 -4.51316e-12 4.18469e-12 -2.98906e-13 
4.09265e-12 8.14382e-12 3.67094e-12 8.186e-12 2.69016e-12 1.34508e-12 -3.4491e-13 -3.2046e-12 -1.06485e-12 
-1.16057e-11 3.28797e-12 4.59568e-12 2.63053e-11 4.62728e-11 2.17734e-11 -8.18961e-12 -9.26609e-12 -2.50334e-12 
-5.6142e-12 1.09385e-11 1.59728e-12 1.35865e-11 -5.38031e-12 -4.18469e-12 -1.12579e-11 8.45561e-12 -8.40674e-13 
-7.41325e-12 -6.27703e-12 -1.15826e-12 1.56303e-11 1.21586e-11 8.33668e-12 -1.07282e-11 -1.04617e-11 -5.23086e-12 
-1.29369e-11 4.20174e-13 -3.75501e-12 3.98949e-12 -9.565e-12 5.97812e-13 -5.60186e-12 -3.20416e-11 -1.1293e-11 
-6.75807e-12 -2.39125e-12 -4.7825e-12 -2.64287e-11 -8.23918e-11 -3.26462e-11 4.65818e-12 1.47211e-11 6.87484e-12 
2.77099e-11 5.97202e-11 2.6229e-11 8.10199e-12 1.19562e-11 2.83961e-12 2.74303e-11 5.95171e-11 2.60842e-11 
1.44438e-11 5.29313e-12 -7.89299e-12 3.79898e-11 1.34442e-10 5.17295e-11 -2.77309e-11 -1.92794e-11 -6.46385e-12 
4.91043e-11 1.08008e-10 4.71338e-11 2.31821e-11 -2.39125e-12 -8.21992e-12 -2.34249e-11 -6.62469e-11 -2.69016e-11 
-4.09005e-11 -2.74994e-11 3.88578e-12 -3.53332e-11 -8.26413e-11 -3.53924e-11 1.7145e-11 1.79344e-12 5.38031e-12 
4.3066e-11 8.58373e-11 3.8671e-11 -2.51072e-11 -1.19562e-11 -1.86816e-12 -1.72483e-11 -3.71153e-11 -1.63091e-11 
1.79105e-11 -2.63037e-11 -2.98906e-13 -7.99627e-12 -3.5999e-11 -1.31986e-11 -4.97259e-12 -1.0798e-11 1.91487e-12 
2.30302e-11 5.99163e-11 2.48839e-11 -2.15678e-12 -2.39125e-12 3.58687e-12 2.99085e-11 2.18396e-11 1.55244e-11 
-7.11248e-12 1.67387e-11 6.12758e-12 1.28692e-11 8.57698e-11 2.95917e-11 -2.06525e-12 -3.64666e-11 -7.47265e-13 
-8.09962e-12 -2.64232e-12 -3.22258e-12 -1.89674e-12 -1.67387e-11 -1.13584e-11 -3.73829e-11 -9.12868e-11 -3.86009e-11 
-4.21026e-11 -3.81105e-11 -8.21992e-12 -3.07031e-11 -7.98921e-11 -3.31786e-11 -1.36503e-11 1.63982e-26 -2.39125e-12 
1.17149e-11 6.8803e-11 2.41554e-11 2.4768e-11 -4.7825e-12 -2.98906e-13 4.78739e-11 7.48645e-11 3.68215e-11 
4.49947e-12 -3.826e-11 -2.98906e-13 2.16922e-12 1.27761e-11 4.48359e-12 1.11131e-11 -2.33147e-11 -1.79344e-12 
6.56493e-11 1.48909e-10 6.43676e-11 -3.27379e-11 2.2418e-13 6.2023e-12 4.14525e-11 -7.1717e-12 1.02842e-11 
-5.6326e-12 -1.78596e-11 3.58687e-12 -1.99474e-11 -2.58226e-11 -1.3731e-11 -5.56074e-12 -5.97812e-12 -2.2418e-12 
9.23787e-12 2.24275e-11 9.49961e-12 1.06236e-11 -3.22819e-11 -3.13852e-12 2.84882e-11 3.01722e-11 1.75981e-11 
7.77499e-12 -3.58687e-11 -2.69016e-12 5.26091e-11 9.81518e-11 4.52282e-11 -6.07192e-11 -2.39125e-12 -8.96719e-13 
-2.83411e-11 -5.63801e-11 -2.54164e-11 3.05738e-11 4.81239e-11 -5.97812e-13 -7.23806e-12 -6.30049e-11 -2.10729e-11 
1.97583e-11 8.28717e-11 2.42861e-12 5.99109e-11 9.58006e-11 4.67134e-11 -8.96419e-12 7.14561e-11 1.30188e-12 
-6.12222e-12 1.52762e-11 2.7462e-12 3.33436e-11 2.91048e-11 1.28787e-12 2.55103e-11 8.32168e-11 3.26181e-11 
-3.3951e-11 -3.16841e-11 -1.49453e-13 -1.08352e-11 -1.06859e-10 -3.53083e-11 -6.9324e-12 -2.94049e-11 1.05925e-11 
8.90606e-11 1.26245e-10 6.45918e-11 4.46907e-11 -5.97812e-11 -4.98177e-12 1.00083e-10 2.01065e-10 9.03444e-11 
3.27384e-11 -6.18736e-11 -7.43529e-12 -1.36978e-10 -3.00826e-10 -1.31341e-10 3.25794e-13 -3.88578e-12 -2.80225e-12 
-3.64948e-11 -7.66459e-11 -3.39422e-11 1.58541e-11 2.2418e-11 -7.47265e-13 -7.13922e-11 -7.09619e-11 -4.27062e-11 
-1.70505e-11 -3.22819e-11 -1.71871e-12 5.62355e-11 3.15682e-11 2.63411e-11 -8.81973e-12 2.63037e-11 7.47265e-14 
6.46965e-11 1.3884e-10 6.10609e-11 1.81269e-11 -6.93462e-11 4.03523e-12 2.76705e-11 1.27667e-10 4.66013e-11 
-4.50058e-11 -9.11664e-12 -4.52096e-12 1.59808e-11 -2.98052e-11 -4.14732e-12 -3.54191e-11 -5.38031e-12 -7.24848e-12 
3.29771e-11 1.1205e-11 1.32546e-11 -6.72268e-12 -1.67387e-11 -6.57594e-12 -1.84917e-11 6.16183e-12 -3.69896e-12 
-1.85981e-11 3.22819e-11 9.565e-12 2.48649e-11 -5.78787e-13 7.28584e-12 -4.76509e-11 -5.23086e-12 1.53563e-11 
-5.80719e-11 -6.10236e-11 -3.57286e-11 -1.74897e-11 1.43475e-10 2.03256e-11 1.51515e-11 -2.16772e-12 3.89512e-12 
9.4627e-12 6.21725e-11 1.19562e-11 -3.3357e-11 -4.72542e-11 -2.41834e-11 -4.0217e-11 -5.49987e-11 -5.97812e-12 
-4.81996e-11 -6.97749e-11 -3.53924e-11 -4.76281e-11 -7.14386e-11 -1.04617e-11 -3.51028e-12 3.21866e-11 8.60289e-12 
2.74465e-11 2.42114e-11 -1.15079e-11 4.01298e-11 1.17118e-11 1.55525e-11 -1.80766e-11 -4.18469e-11 2.5407e-12 
-7.09305e-11 -1.6698e-10 -7.13732e-11 1.44715e-12 -7.29331e-11 1.56926e-11 1.21291e-10 2.33847e-10 1.06541e-10 
2.36933e-11 -1.05215e-10 -2.98906e-12 5.17078e-11 2.11236e-10 7.88832e-11 -6.32888e-11 3.93062e-11 -4.76382e-12 
1.04387e-10 1.9097e-10 8.8607e-11 3.01561e-11 7.78651e-11 1.68135e-13 1.47047e-10 2.10146e-10 1.07158e-10 
3.82254e-11 -2.15212e-11 -1.01628e-11 2.49277e-11 6.00738e-11 2.55004e-11 -7.00107e-11 6.57594e-11 -8.36937e-12 
-1.22342e-10 -3.51705e-10 -1.42214e-10 8.02023e-11 6.93462e-11 1.64398e-11 -2.31168e-11 -1.1877e-10 -4.25661e-11 
1.24941e-11 7.29331e-11 1.49453e-11 -3.57366e-11 -2.7314e-11 -1.89152e-11 -7.97867e-11 -2.39125e-11 1.08353e-11 
-5.75834e-11 -4.24567e-11 -3.00121e-11 8.71046e-11 -3.79611e-11 -1.79344e-11 5.53995e-11 2.75382e-10 9.92345e-11 
-6.39392e-11 -1.19562e-10 -2.01762e-11 -2.71685e-11 -1.17054e-10 -4.32667e-11 1.03798e-10 -4.77129e-11 -2.86763e-11 
-5.52572e-12 4.9988e-11 1.33387e-11 -3.76903e-11 6.87484e-11 -1.27035e-12 -1.28451e-12 9.10873e-13 -1.1209e-13 
5.45872e-13 -4.18469e-12 -5.23086e-13 -3.38607e-12 -2.43562e-11 -8.32267e-12 -9.09708e-11 8.36937e-12 1.49453e-13 
-2.80715e-12 -9.52273e-12 -3.69896e-12 8.65167e-13 2.98906e-13 2.42861e-13 6.08741e-12 6.5227e-12 3.78303e-12 
-8.54196e-12 -1.14036e-12 8.43471e-14 -2.11871e-11 -5.52742e-11 -2.29384e-11 -2.62251e-11 -2.2845e-11 1.39045e-11 
2.85758e-11 9.68247e-11 3.76201e-11 -7.58925e-11 3.58687e-11 4.9195e-12 -5.1311e-11 -1.51945e-10 -6.09769e-11 
-3.56705e-11 -1.08503e-10 -7.13639e-12 3.28815e-12 5.713e-12 2.70035e-12 -3.04078e-13 2.92113e-12 -9.34082e-13 
-2.92013e-12 -4.92616e-12 -2.35389e-12 -7.08399e-14 2.18575e-12 8.59355e-13 -7.47429e-13 -1.58778e-12 -7.00561e-13 
3.08187e-13 4.48359e-13 4.48359e-13 3.79624e-12 6.86787e-12 3.19923e-12 -6.75875e-13 -7.16129e-13 -7.31697e-13 
2.37104e-12 -3.14944e-12 -2.3352e-13 -7.04699e-13 -4.04769e-12 -1.61908e-12 2.4648e-12 2.34932e-12 1.44423e-12 
-7.70378e-13 1.10653e-12 -8.33488e-13 2.00794e-12 2.19543e-12 1.26101e-12 2.10165e-12 -4.577e-13 -6.53857e-13 
-1.97598e-12 -6.70583e-13 -7.9397e-13 1.41645e-12 -3.42497e-13 4.35905e-13 2.36876e-12 2.18489e-12 1.36609e-12 
-2.21469e-12 8.87378e-13 -4.20337e-13 3.81473e-13 4.59201e-13 2.52202e-13 5.13888e-13 1.68135e-13 -4.67041e-14 
5.90772e-12 7.79215e-12 4.10996e-12 1.65263e-12 7.47265e-13 9.34082e-13 6.75638e-13 -2.51056e-13 1.27375e-13 
1.02474e-12 -4.07599e-13 -2.20783e-13 5.87751e-12 5.21471e-12 3.32767e-12 1.47758e-12 -1.49453e-12 1.1209e-12 
7.52634e-12 2.74857e-12 3.08247e-12 -3.81667e-13 1.49453e-12 -2.31652e-12 6.72245e-12 7.75582e-12 4.34348e-12 
2.42055e-12 3.73633e-12 8.7181e-13 -1.64406e-12 -7.32313e-12 -2.69016e-12 -2.42997e-13 -1.49453e-13 -3.73633e-13 
7.29953e-12 7.27215e-12 4.3715e-12 1.43538e-12 5.97812e-13 -1.64398e-12 6.38645e-12 7.15773e-12 4.06326e-12 
6.47249e-12 2.49088e-12 -1.24544e-12 7.15551e-13 -5.50272e-12 -1.43615e-12 3.6266e-12 -3.36269e-12 -6.42181e-13 
1.19014e-11 2.35003e-11 1.06205e-11 2.85049e-12 -1.19562e-12 1.19562e-12 1.60328e-12 9.6057e-12 3.36269e-12 
-6.53034e-12 -3.36269e-12 2.56873e-13 1.4889e-11 2.13845e-11 1.08821e-11 2.61924e-12 -9.37974e-12 -5.91585e-13 
-4.37065e-12 4.47508e-13 -1.17694e-12 7.11561e-13 -5.97812e-12 -2.69016e-12 6.82131e-12 4.69903e-12 3.4561e-12 
-3.9697e-12 7.72174e-12 -7.16129e-13 -1.01119e-11 -1.65094e-11 -7.9864e-12 2.44347e-12 6.97448e-12 -1.24544e-12 
1.94771e-11 4.26394e-11 1.86349e-11 -5.37969e-12 1.99271e-12 5.29313e-13 6.04288e-12 3.29794e-12 2.80225e-12 
-2.93876e-12 -4.61946e-12 4.07599e-13 4.19806e-12 -9.25767e-12 -1.51788e-12 -9.16502e-12 -5.97812e-12 -2.49089e-13 
1.54762e-11 2.49228e-11 1.21197e-11 7.23844e-12 -2.2418e-12 -1.24544e-12 -1.1915e-11 -5.06831e-12 -5.09499e-12 
4.83097e-12 -1.90213e-11 2.71733e-13 2.10943e-11 3.54177e-11 1.69536e-11 2.05288e-11 1.99271e-12 1.26101e-12 
2.25508e-11 2.43089e-11 1.40579e-11 1.139e-12 1.74362e-12 2.64657e-12 1.02783e-11 9.80442e-12 6.02483e-12 
-1.15768e-12 2.98906e-13 -3.62424e-12 1.96219e-11 2.71989e-11 1.40463e-11 3.1508e-12 3.36269e-12 4.67041e-13 
1.65947e-11 6.25688e-11 2.3749e-11 -1.30888e-12 -1.99271e-11 -1.8993e-12 2.45858e-11 4.81169e-11 2.18108e-11 
1.14865e-11 -6.4763e-12 -3.61178e-12 1.1408e-11 2.61888e-11 1.1279e-11 1.05694e-11 1.34508e-11 4.35905e-13 
4.32727e-12 2.95799e-11 1.01722e-11 -1.05423e-11 -1.913e-11 -1.49453e-12 -1.26246e-11 -3.59477e-11 -1.45717e-11 
-1.73787e-12 -4.48359e-12 -4.67041e-14 1.18675e-12 1.84902e-12 9.1073e-13 -8.45943e-12 3.23815e-12 -4.42132e-12 
6.67099e-12 9.36408e-12 4.81052e-12 5.14681e-12 -1.44471e-11 -1.63464e-12 -1.51543e-11 -3.50706e-11 -1.50675e-11 
-4.72967e-12 -8.2774e-12 3.27647e-12 -1.81628e-11 -6.82397e-11 -2.59208e-11 -1.20716e-11 1.00134e-11 -1.49453e-12 
-3.75652e-11 -7.67041e-11 -3.42808e-11 1.64528e-11 -1.6938e-11 1.49453e-12 -1.59495e-11 -6.70904e-11 -2.4912e-11 
-1.31927e-11 -1.55431e-11 -3.17588e-12 -5.8173e-11 -1.08934e-10 -5.01322e-11 -1.96318e-11 -4.7825e-11 -3.28797e-12 
-1.75529e-11 -3.50359e-11 -1.57766e-11 -1.43758e-11 -1.01628e-11 -7.24848e-12 -2.16926e-11 -5.03874e-11 -2.1624e-11 
5.81528e-12 9.96354e-12 2.49088e-12 1.59999e-11 1.57589e-11 9.52763e-12 1.56932e-11 -5.08141e-12 1.1209e-12 
-7.01435e-12 -2.13195e-11 -8.50015e-12 -5.1718e-12 -2.73997e-12 3.73633e-13 1.40703e-11 -5.62049e-13 4.05248e-12 
-1.41747e-11 -1.40256e-11 2.58669e-13 1.90258e-11 2.35917e-11 1.27852e-11 -5.717e-12 4.33414e-11 -9.34082e-14 
-4.41188e-11 -9.06225e-11 -4.04224e-11 -1.51897e-12 9.96354e-12 -3.98542e-12 -1.70951e-11 -4.92247e-11 -1.98959e-11 
2.87365e-11 1.55431e-11 7.47265e-14 -4.23764e-11 -8.1623e-11 -3.71998e-11 -6.70585e-12 -2.60297e-11 2.52202e-12 
1.48165e-11 1.10576e-11 7.76222e-12 6.47107e-12 -1.79344e-12 -1.49453e-13 2.32121e-11 7.06272e-11 2.81518e-11 
-1.76493e-11 -1.65548e-11 1.14964e-12 6.55779e-12 -1.45753e-11 -2.40526e-12 -1.40645e-11 7.97083e-12 -1.74362e-12 
2.03312e-11 4.44318e-11 1.94289e-11 -1.98945e-11 1.14581e-11 -1.74362e-12 1.58494e-12 -2.64938e-11 -7.47266e-12 
2.45001e-11 -2.36634e-11 4.79495e-12 4.00736e-11 1.18175e-10 4.74747e-11 -7.11021e-12 -1.99271e-11 5.97812e-12 
2.83766e-12 2.53716e-11 8.46278e-12 5.63509e-12 -1.43475e-11 8.96719e-13 -1.30236e-11 1.52654e-11 6.72539e-13 
-1.462e-11 -3.10862e-11 -5.97812e-13 6.52112e-11 7.62244e-11 4.24307e-11 -1.57396e-11 2.49088e-11 5.16859e-12 
-3.34001e-11 -1.57171e-11 -1.47351e-11 1.69759e-12 -3.48724e-12 1.99271e-12 -3.82966e-11 -6.83324e-11 -3.19887e-11 
7.36088e-12 1.01168e-11 1.03468e-12 -2.07113e-11 -5.09795e-11 -2.15072e-11 -3.98298e-12 -1.49453e-12 3.92314e-12 
-1.32335e-11 -8.32883e-11 -2.89565e-11 -5.57994e-12 -1.29526e-11 3.98542e-12 -2.97881e-11 -8.2652e-11 -3.3732e-11 
2.07645e-11 6.72539e-12 9.90127e-12 -2.44713e-11 -7.14589e-11 -2.87791e-11 -5.15796e-12 1.67387e-11 9.565e-12 
9.26509e-12 1.72784e-11 7.96305e-12 -4.50806e-11 -1.43226e-12 1.43226e-12 2.14519e-11 1.68455e-11 1.14892e-11 
-2.63278e-11 1.50812e-11 5.91019e-12 -9.67221e-12 -2.80413e-11 -1.13141e-11 -5.62398e-12 2.09234e-11 -3.73633e-13 
-4.92568e-12 -2.7805e-12 -2.31185e-12 -5.13224e-12 -2.64034e-11 -9.96354e-13 -4.87358e-11 -8.8224e-11 -4.10879e-11 
2.51784e-12 -4.48359e-12 8.40674e-12 5.88196e-11 1.68256e-10 6.81226e-11 -1.49127e-11 -2.39125e-12 -2.69016e-12 
1.56767e-11 4.81522e-11 1.91487e-11 -9.75804e-12 -3.98542e-12 6.97448e-12 -1.74312e-11 -1.03365e-11 -8.33031e-12 
-2.33349e-12 -2.39125e-11 -5.29879e-12 2.40498e-12 2.30488e-11 7.63612e-12 1.98319e-11 -5.97812e-12 -5.47995e-12 
1.8741e-11 5.94417e-11 2.34548e-11 7.0425e-11 2.15212e-11 2.69016e-12 2.04793e-11 7.07608e-12 8.26662e-12 
1.53574e-11 -1.79344e-11 -4.73268e-12 -2.90923e-11 -7.70039e-11 -3.18288e-11 -1.18374e-11 4.63927e-11 -1.08976e-12 
4.16075e-11 9.98125e-11 4.2426e-11 -3.92808e-11 4.7825e-11 -5.38031e-12 -1.11052e-11 -1.56095e-11 -8.01442e-12 
3.728e-11 2.00267e-11 1.79344e-12 -4.9192e-12 -3.09834e-12 -2.40526e-12 -1.38696e-12 1.22978e-11 2.94138e-12 
2.58051e-11 5.20973e-11 2.33707e-11 -2.19077e-11 -3.58687e-11 -5.38031e-12 1.90633e-12 1.94841e-11 6.41714e-12 
1.49087e-11 -1.43475e-11 -2.98906e-13 2.639e-11 7.71374e-11 3.10582e-11 -3.204e-11 -7.72174e-12 2.3352e-12 
5.57663e-11 1.10111e-10 4.97632e-11 5.48069e-12 9.96354e-12 -2.98906e-12 8.22855e-11 1.24826e-10 6.21334e-11 
-1.05714e-11 -5.60789e-11 8.7464e-12 4.98416e-11 8.54135e-11 4.05765e-11 -2.38125e-11 2.09234e-12 -7.7342e-12 
-2.15852e-11 -3.01396e-11 -1.55174e-11 6.01893e-12 8.07047e-11 7.09902e-12 7.82434e-11 1.79376e-10 7.72859e-11 
-2.35071e-11 -3.91567e-11 -4.10996e-12 -7.97643e-12 4.39578e-12 -1.07419e-12 2.79803e-11 -1.46339e-12 1.946e-12 
-3.63344e-12 -2.2443e-11 -7.82294e-12 -3.13494e-11 1.36999e-11 -7.31697e-12 -8.94218e-12 2.85579e-11 5.88472e-12 
-2.73387e-13 -2.31077e-11 1.90409e-12 5.6355e-11 1.14302e-10 5.1197e-11 -1.50358e-11 1.913e-11 7.47265e-14 
3.16292e-11 3.91742e-11 2.1241e-11 7.8009e-11 8.48894e-11 2.83961e-12 -2.99836e-11 -3.92942e-11 -2.07833e-11 
6.94945e-11 1.59417e-11 1.19562e-11 8.74951e-11 1.53887e-10 7.24147e-11 -4.38211e-11 7.64079e-11 8.63247e-12 
-7.58325e-13 -1.16183e-11 -3.71298e-12 -8.85965e-12 1.13584e-10 -2.98906e-12 6.03791e-11 1.61168e-10 6.64642e-11 
-1.05933e-11 4.38849e-11 9.40875e-12 -1.11983e-11 2.95686e-11 5.51108e-12 2.66836e-11 4.78873e-11 -5.55779e-12 
-6.07611e-11 -7.79501e-11 -4.16133e-11 6.30927e-12 8.22739e-11 -3.54951e-13 3.52554e-11 4.4375e-11 2.38891e-11 
2.74372e-11 1.64398e-11 3.73633e-13 -2.94788e-11 -7.38151e-11 -3.09882e-11 -6.54169e-12 7.57229e-11 2.47843e-11 
-4.79155e-11 -1.06488e-10 -4.63211e-11 1.17547e-11 4.7825e-11 -5.97812e-13 2.08289e-11 2.21388e-11 1.28903e-11 
-5.7365e-11 4.40312e-11 1.12377e-11 -7.29291e-11 -1.95713e-10 -8.05926e-11 -4.24869e-11 4.12491e-11 1.34508e-12 
-9.62225e-11 -1.50453e-10 -7.40026e-11 -3.82678e-12 -3.28797e-11 6.60085e-12 -1.6731e-10 -3.106e-10 -1.43373e-10 
-8.65438e-11 1.30432e-11 9.78238e-12 4.53245e-11 9.12383e-11 4.09688e-11 -2.02211e-11 7.652e-11 1.40486e-11 
3.35329e-11 -2.70821e-12 9.24741e-12 -1.05429e-11 -2.19198e-11 -2.61543e-12 -3.16485e-13 -6.53806e-11 -1.97091e-11 
6.06164e-11 -1.9678e-11 1.07108e-11 5.94957e-11 4.92314e-11 3.26181e-11 1.86448e-11 5.739e-11 1.85322e-11 
5.72739e-11 1.56709e-10 6.41948e-11 5.12863e-11 4.48359e-11 1.49453e-12 -1.68624e-11 -4.15956e-11 -1.75374e-11 
-2.97875e-11 6.87484e-11 -8.7181e-13 -4.07893e-11 -1.6035e-10 -6.03417e-11 3.42697e-11 -4.98177e-11 -1.09599e-11 
-5.67015e-12 -8.91392e-11 -2.84428e-11 2.71719e-11 9.62727e-11 6.11824e-12 -1.07655e-10 -1.19327e-10 -6.80946e-11 
-8.12717e-11 4.30425e-11 1.55431e-11 1.22675e-11 4.77005e-11 1.79904e-11 4.88111e-12 3.34775e-11 1.88311e-11 
1.26068e-10 1.7961e-10 9.17035e-11 -1.77202e-11 2.66525e-11 -1.46339e-12 2.64449e-12 -8.4825e-12 -1.7514e-12 
-6.33163e-12 -4.18469e-11 -9.34082e-12 -8.9799e-11 -2.07146e-10 -8.90834e-11 3.06963e-11 -1.55431e-11 -9.8639e-12 
-1.0129e-10 -2.99353e-10 -1.20193e-10 -5.90722e-12 5.55857e-11 2.0328e-11 6.24436e-11 1.25477e-10 5.63761e-11 
1.6417e-11 4.99989e-11 8.55959e-12 2.85775e-11 -7.09358e-12 6.44516e-12 -7.54283e-12 2.39125e-11 1.64398e-11 
8.79013e-13 4.80046e-11 1.46651e-11 -4.0509e-11 -2.69016e-11 1.84325e-11 -1.86459e-11 -4.77517e-11 -1.99193e-11 
2.04748e-11 5.97812e-12 6.97448e-12 -1.30706e-11 2.98063e-11 5.02069e-12 3.00308e-12 -2.66525e-11 -2.30407e-12 
-4.7014e-11 -8.96422e-11 -4.09969e-11 -2.07747e-11 3.826e-11 7.77156e-12 2.89639e-11 3.13921e-11 1.81068e-11 
2.42466e-11 -4.1387e-11 8.73726e-12 1.2283e-10 2.53605e-10 1.1293e-10 5.93679e-11 -5.76074e-11 2.71733e-12 
-2.85761e-11 -8.88847e-11 -3.52382e-11 7.36363e-11 3.89512e-11 -5.46438e-12 5.0934e-11 -4.83865e-11 7.64249e-13 
1.09076e-10 -2.17386e-12 -5.43466e-13 2.05473e-11 1.02774e-11 9.24741e-12 9.70679e-12 4.89119e-12 -2.4456e-12 
-9.47901e-12 -2.87162e-12 -3.70519e-12 6.09712e-12 7.3066e-12 5.81207e-13 -1.16616e-12 -5.37371e-11 -1.6471e-11 
1.93822e-11 3.3876e-11 -1.65229e-11 4.1036e-12 -2.936e-12 3.50281e-13 -4.42838e-12 -2.49088e-12 2.49089e-13 
-1.38647e-10 -2.08909e-10 -1.04267e-10 -3.52286e-11 1.19562e-11 -1.99271e-12 -3.12377e-11 -6.06136e-11 -2.75554e-11 
2.21427e-11 3.18833e-11 4.98177e-13 1.36695e-11 3.29965e-12 5.09075e-12 -3.92291e-13 2.2418e-12 -2.2418e-12 
1.85034e-11 2.60656e-11 1.33707e-11 -1.80626e-12 1.70804e-12 -6.40513e-13 8.4076e-12 6.61555e-12 4.50695e-12 
-1.14281e-12 1.24544e-12 1.1209e-12 4.49416e-13 4.68803e-12 1.54124e-12 6.03759e-13 -7.31697e-13 1.1209e-12 
-8.02466e-13 -3.36498e-12 -1.25023e-12 1.61609e-12 9.34082e-13 -2.30287e-12 -1.21637e-11 -3.90254e-12 -4.81986e-12 
1.32028e-12 3.17588e-13 1.4198e-12 8.66803e-12 5.40992e-12 4.22338e-12 5.82592e-13 -4.11163e-13 6.00481e-14 
6.90064e-13 2.19002e-12 8.64026e-13 1.39667e-13 -2.76333e-13 -1.58794e-12 9.98599e-12 1.95499e-13 3.05445e-12 
2.07011e-12 1.56926e-12 -2.83961e-12 -5.98969e-13 -8.02154e-13 -4.20337e-13 -5.65061e-13 -3.73633e-13 1.24544e-12 
3.72287e-12 1.21442e-12 1.48119e-12 1.70636e-12 -2.04831e-12 1.5746e-12 -3.72504e-12 -8.79166e-12 -3.75501e-12 
9.25271e-12 5.97812e-13 -5.97812e-13 6.68405e-12 5.92606e-12 3.78303e-12 2.80781e-12 -2.56205e-12 -6.08488e-12 
6.58797e-12 1.81877e-12 2.52202e-12 5.99223e-12 8.98156e-13 -4.41174e-12 1.15651e-11 1.91929e-11 9.22739e-12 
-2.21003e-13 -2.34855e-12 -3.20257e-13 2.1538e-11 2.70343e-11 1.45717e-11 -6.86107e-14 -6.72539e-12 5.26199e-12 
-3.31763e-12 -6.80159e-12 -3.03577e-12 -8.55336e-12 -9.96354e-13 3.11361e-13 1.29943e-11 -2.90823e-13 3.81105e-12 
-7.75738e-12 2.98906e-12 1.04617e-12 -2.10547e-11 -2.27226e-11 -1.31332e-11 -2.50455e-12 4.73268e-12 -1.1894e-12 
8.37483e-12 3.08566e-11 1.17694e-11 -6.923e-12 1.07606e-11 2.69016e-12 1.03017e-11 3.45342e-11 1.34508e-11 
-3.86832e-12 9.96354e-13 2.49088e-12 -1.86213e-11 -1.93425e-11 -1.13891e-11 -2.61896e-12 2.42861e-12 -4.53697e-13 
7.46534e-12 1.02044e-11 5.30091e-12 2.4834e-12 9.96354e-12 1.24544e-12 7.94514e-12 5.5212e-12 4.0399e-12 
-6.76485e-12 7.97083e-12 -3.23815e-12 1.71862e-11 3.53225e-11 1.57526e-11 -3.33327e-14 -2.75221e-12 -3.36937e-13 
2.58042e-11 3.87911e-11 1.93786e-11 1.83838e-12 8.04747e-13 8.33488e-13 -1.12737e-11 -1.7496e-11 -8.63092e-12 
1.04931e-11 2.39125e-12 -1.49453e-12 -1.11172e-11 9.38245e-12 -5.20417e-13 1.26408e-11 7.68616e-12 -4.27009e-13 
2.70157e-11 5.18064e-11 2.36466e-11 -1.31259e-11 -3.67885e-12 2.76632e-12 5.50932e-12 -1.23148e-11 -2.04164e-12 
1.31625e-11 7.25915e-12 -2.56205e-12 -1.36342e-11 -1.32206e-11 -8.05646e-12 -1.07206e-11 1.32017e-11 -6.22721e-14 
-1.60681e-11 -3.94319e-11 -1.665e-11 -1.23525e-11 -7.97083e-12 9.96354e-13 -1.96564e-11 -3.93465e-11 -1.77009e-11 
2.31563e-12 -4.98177e-13 -4.73268e-12 2.41609e-11 7.97557e-11 3.1175e-11 1.79647e-11 4.48359e-12 -3.73633e-12 
5.98269e-11 7.12247e-11 3.93155e-11 -4.83914e-11 2.39125e-12 2.98906e-13 1.20812e-11 8.2946e-11 2.85082e-11 
-1.99489e-11 -1.4198e-12 8.09538e-13 5.70808e-12 1.18527e-11 5.26822e-12 3.12325e-13 1.55431e-11 -3.13852e-12 
3.38612e-11 6.37503e-11 2.92835e-11 2.45128e-11 9.34082e-12 -1.97492e-12 -9.9295e-12 -1.10873e-11 -6.30505e-12 
-3.07655e-11 -9.565e-12 -2.09234e-12 -3.99546e-12 1.81624e-11 4.25007e-12 2.92006e-12 2.59052e-11 -4.48359e-12 
-6.86705e-12 2.91516e-11 6.68536e-12 1.36839e-11 1.3771e-11 -1.1676e-13 -2.51574e-12 4.3839e-12 5.60449e-13 
-2.39711e-11 -4.7825e-12 2.98906e-12 -1.76479e-11 -8.14714e-12 -7.73851e-12 2.92936e-12 -3.67885e-12 4.59856e-13 
3.27785e-12 -1.03502e-11 -2.1217e-12 -4.90424e-12 7.73954e-12 -3.38938e-12 4.76839e-11 1.14924e-10 4.87824e-11 
1.67377e-11 4.2345e-12 -7.03675e-12 1.38885e-11 6.34247e-11 2.3194e-11 1.46969e-11 1.42555e-11 -4.94345e-12 
-1.80447e-11 -1.38698e-11 -9.57434e-12 3.94302e-12 1.54435e-11 -6.10267e-12 1.32828e-11 5.6929e-11 2.10635e-11 
-1.31075e-11 9.96354e-12 1.24544e-12 -3.70808e-11 -8.99543e-11 -3.81105e-11 -4.65356e-12 2.51081e-11 3.58687e-12 
1.04295e-11 3.54028e-11 1.37497e-11 5.4206e-12 5.57958e-12 -9.96354e-13 6.58729e-11 1.26704e-10 5.7773e-11 
-2.36134e-12 -2.73997e-12 3.7986e-12 2.70898e-11 8.67125e-11 3.41407e-11 -8.36908e-12 4.98177e-13 2.80225e-12 
2.23829e-11 1.70821e-11 1.18395e-11 3.23844e-11 2.78979e-11 -2.49089e-13 -5.00356e-11 -8.05023e-11 -3.91614e-11 
-3.41051e-11 1.3949e-11 4.98177e-13 -6.10564e-11 -1.38036e-10 -5.97279e-11 1.45465e-11 -1.43048e-11 1.46784e-12 
6.18384e-11 4.6048e-11 3.23659e-11 8.44684e-12 -9.96354e-12 -8.7181e-12 9.80683e-11 2.43681e-10 1.02525e-10 
-1.46546e-11 -3.826e-11 -4.58323e-12 -1.28749e-11 6.10282e-12 -2.03163e-12 -2.43648e-11 -5.57958e-11 7.97083e-12 
-1.13825e-11 -5.81287e-11 -2.08534e-11 4.17788e-11 3.98542e-12 -4.98177e-12 3.38995e-11 6.76819e-11 3.04744e-11 
-1.2751e-11 1.44471e-11 8.7181e-13 -6.50107e-11 -1.46559e-10 -6.34709e-11 -4.85312e-11 -1.49453e-12 -4.48359e-12 
-1.05641e-10 -2.1942e-10 -9.75181e-11 4.00146e-11 -3.28797e-11 -6.35176e-12 -7.90115e-11 -1.55132e-10 -7.0243e-11 
8.16963e-12 -4.11826e-11 9.96354e-13 -7.14287e-11 -1.74168e-10 -7.3679e-11 7.34613e-12 2.51935e-11 -8.32667e-12 
-4.80579e-11 -2.02587e-10 -7.51936e-11 3.44137e-12 3.9356e-11 6.22721e-12 -7.73562e-11 -1.55661e-10 -6.99052e-11 
-2.45179e-12 1.10365e-11 1.37957e-12 -2.38199e-11 -5.0206e-11 -2.22078e-11 -5.02011e-11 1.89307e-11 -6.97448e-12 
-9.02016e-12 6.7628e-12 -6.77209e-13 -3.32924e-11 -2.19198e-11 1.07108e-11 2.15687e-11 2.29558e-11 1.33574e-11 
-1.78537e-11 -4.7825e-12 8.1701e-12 -1.10489e-10 -2.40258e-10 -1.05224e-10 -3.4738e-11 9.96354e-12 5.97812e-12 
-2.49924e-11 4.11387e-11 4.84388e-12 2.23327e-11 -1.87884e-11 -1.02482e-11 1.18427e-11 3.28998e-11 1.34228e-11 
-7.93737e-11 -4.18469e-12 -4.33414e-12 -2.23183e-11 3.26302e-12 -5.71658e-12 1.22986e-11 -1.27533e-11 -7.67193e-12 
4.04947e-12 -3.19322e-12 2.56873e-13 4.03722e-11 1.84325e-11 -2.49089e-13 5.36983e-11 2.86877e-11 2.47158e-11 
5.50503e-11 -4.18469e-12 -2.98906e-12 9.15406e-11 1.48852e-10 7.21178e-11 6.96418e-13 2.43395e-11 9.87458e-12 
2.76327e-11 1.57549e-10 5.55545e-11 -2.88201e-11 -2.39125e-11 -5.72904e-12 2.10272e-10 3.30172e-10 1.62133e-10 
3.12553e-11 8.56864e-11 9.21627e-12 9.48997e-11 2.15282e-10 9.30546e-11 -6.2116e-12 1.8735e-11 -5.21418e-12 
2.97073e-11 7.60775e-11 3.17354e-11 8.24314e-11 3.48724e-12 -1.36999e-12 7.11959e-11 1.51116e-10 6.66934e-11 
-3.17939e-11 -7.97083e-12 5.23086e-12 -5.38281e-11 -1.09636e-10 -4.90393e-11 -2.55919e-11 -3.18833e-12 3.3876e-12 
-3.27234e-11 -1.18287e-10 -4.5303e-11 -2.26241e-11 -5.18104e-11 -8.21992e-12 -8.36746e-11 -1.94137e-10 -8.33435e-11 
3.42839e-11 4.68286e-11 7.97083e-12 -4.9072e-11 -9.57107e-11 -4.34348e-11 -4.46592e-11 1.99271e-11 1.49453e-12 
-4.77346e-11 -1.11246e-10 -4.76942e-11 -4.75341e-12 3.59684e-11 -2.96415e-12 -7.38647e-11 -2.22706e-10 -8.89713e-11 
7.09741e-12 1.99271e-11 -9.96354e-13 -6.51535e-11 -1.77641e-10 -7.28384e-11 -2.26507e-11 4.44089e-11 7.1524e-12 
1.02939e-10 2.0261e-10 9.16646e-11 -1.50517e-11 6.64236e-11 5.31389e-12 1.26672e-10 2.6681e-10 1.18045e-10 
2.16091e-11 1.51219e-24 -1.19562e-11 5.042e-11 1.4966e-10 6.00241e-11 -2.60486e-12 -1.67387e-11 -1.04617e-11 
-1.6366e-10 -3.84296e-10 -1.64387e-10 -3.71791e-11 -1.81212e-11 -5.33594e-12 2.51627e-11 3.72651e-11 1.87283e-11 
-3.48539e-11 4.02278e-11 1.58794e-12 -1.65522e-10 -2.97899e-10 -1.39026e-10 -2.71425e-11 3.58687e-11 4.48359e-12 
-2.77671e-11 -6.43957e-11 -2.76488e-11 1.67367e-11 7.17375e-11 -3.98542e-12 2.33055e-11 -1.24361e-11 3.26079e-12 
8.04778e-11 -6.95636e-11 -2.71733e-13 -3.13057e-11 -4.20717e-11 -2.20132e-11 -1.99015e-11 -5.84528e-11 -9.63142e-12 
2.68391e-12 -7.91937e-11 -2.29529e-11 5.92927e-11 -7.06506e-11 4.21186e-12 7.79076e-12 -2.06603e-11 -3.86087e-12 
-1.0868e-11 -1.08935e-10 -4.98177e-12 1.87937e-11 -1.23401e-11 1.9361e-12 1.58048e-11 -1.15215e-10 -1.30432e-11 
-1.23337e-11 -8.65752e-11 -2.96727e-11 -1.1798e-11 -1.06278e-10 -2.69016e-11 3.59577e-11 8.52182e-11 3.63528e-11 
6.76315e-11 -3.69557e-11 -1.19562e-11 -3.23525e-11 5.93688e-13 -9.52763e-12 -4.66608e-11 -1.3019e-10 -3.98542e-12 
7.12718e-11 4.59979e-11 3.51809e-11 -3.24674e-11 -9.565e-11 -6.24986e-12 -5.82908e-11 -1.95157e-10 -7.60343e-11 
-9.89708e-12 -1.27533e-10 -1.16241e-11 -5.94939e-11 -1.93557e-10 -7.59154e-11 -2.23976e-11 -8.69545e-11 -5.43466e-13 
-2.75222e-11 -7.69912e-11 -3.1354e-11 5.2552e-11 -1.38161e-10 -1.19562e-11 8.80163e-11 2.22693e-10 9.32129e-11 
2.05438e-11 4.56511e-11 -3.53253e-12 6.48725e-11 9.57896e-11 4.81986e-11 8.41614e-11 -2.12556e-11 -1.99271e-12 
4.89353e-11 1.46627e-10 5.86688e-11 3.32717e-11 3.04341e-11 1.30432e-11 3.63e-11 5.80423e-11 2.83027e-11 
5.48984e-11 -3.03505e-11 -9.65697e-12 -2.12273e-14 -9.17589e-12 -2.75913e-12 -5.0951e-11 3.67885e-11 9.19711e-13 
1.29103e-10 2.89262e-10 1.25509e-10 -4.23081e-11 7.97083e-12 -3.6533e-12 1.89146e-11 7.72239e-11 2.88416e-11 
-4.32867e-11 4.59856e-13 -6.32302e-13 7.60122e-11 1.32822e-10 6.26502e-11 -7.48159e-13 -4.09929e-11 3.41607e-12 
2.97339e-11 7.11469e-11 3.02643e-11 3.27796e-11 -3.42746e-11 -6.02794e-12 3.57494e-11 7.167e-11 3.22258e-11 
3.58675e-11 -5.12411e-12 1.49453e-12 1.06856e-11 3.49599e-11 1.36936e-11 4.02305e-11 -2.55067e-11 -4.7825e-12 
-1.17748e-11 4.13985e-11 8.88712e-12 -3.60532e-11 -3.41607e-12 -3.84308e-12 5.23734e-11 1.12274e-10 4.93942e-11 
-8.46064e-12 3.66658e-11 -3.98542e-12 -3.63743e-11 -3.90195e-11 -2.26181e-11 -3.21971e-11 -1.70804e-11 -5.97812e-12 
-4.31957e-11 -1.00365e-10 -4.30684e-11 1.4398e-12 3.4949e-11 1.2646e-12 2.14228e-11 2.90177e-11 1.51321e-11 
-2.15338e-11 7.10733e-11 -1.99271e-12 -1.79071e-11 -3.91438e-11 -1.71153e-11 -2.28123e-11 2.27629e-11 -2.47172e-12 
1.99042e-12 7.24248e-11 2.23246e-11 5.97763e-11 -3.85257e-11 4.98177e-13 8.09731e-12 2.53859e-11 1.0045e-11 
1.99805e-12 -4.50659e-11 1.52327e-12 -1.08896e-11 -4.82244e-11 -1.77342e-11 -3.33962e-11 -6.83214e-11 -2.56205e-12 
-1.83228e-11 3.7511e-12 -4.3715e-12 -2.08196e-11 1.59417e-11 -2.93924e-12 7.3235e-12 -7.59038e-12 -8.00642e-14 
-1.96532e-11 -3.69277e-27 -3.41607e-12 1.41046e-11 3.83286e-11 1.57299e-11 1.53373e-11 3.78615e-12 3.43742e-12 
-2.73504e-11 -1.00485e-10 -3.83507e-11 2.66713e-11 1.87884e-11 -3.20257e-12 -4.42374e-12 7.36969e-12 8.83785e-13 
-6.6601e-12 -1.65548e-11 -1.95439e-12 -2.98727e-11 -4.39197e-11 -2.21377e-11 1.13771e-11 -8.6948e-26 -2.71733e-13 
-5.88236e-12 -4.39636e-11 -1.49538e-11 -3.57406e-11 1.41301e-11 -3.39666e-13 -1.20495e-11 -6.83971e-12 -5.66676e-12 
2.12383e-11 -1.59417e-11 -5.39692e-12 4.28883e-11 1.04697e-10 4.42755e-11 -1.03177e-11 1.95648e-11 -4.48359e-12 
6.56244e-11 1.41742e-10 6.22099e-11 2.66403e-11 2.12556e-11 7.47265e-13 -2.87467e-11 -6.93319e-11 -2.94236e-11 
-1.2665e-12 -1.90213e-11 6.79332e-14 -1.83162e-11 -3.08788e-11 -1.47585e-11 3.99468e-11 -1.59417e-11 -4.98177e-13 
-3.09974e-11 -6.89494e-11 -2.9984e-11 1.42073e-11 -1.46736e-11 4.34773e-12 3.49248e-11 7.24946e-11 3.22258e-11 
5.64018e-12 3.98542e-12 -1.49453e-12 -2.42381e-11 -3.87047e-11 -1.88828e-11 2.13706e-11 -3.67885e-12 6.32302e-13 
-2.70514e-11 -8.5246e-11 -3.36892e-11 2.56204e-11 -1.32847e-11 2.49089e-13 2.94672e-11 6.65277e-11 2.87985e-11 
-1.93634e-12 -2.29928e-11 1.2646e-12 -9.74075e-13 -2.26887e-13 -3.60289e-13 1.80767e-11 -1.70804e-11 1.49453e-12 
1.39377e-11 3.01079e-11 1.32137e-11 -4.40802e-11 -3.21899e-11 -2.74476e-12 2.86403e-11 4.96528e-11 2.34879e-11 
4.74602e-12 -3.69557e-11 -2.47956e-12 -1.04349e-11 -1.68233e-11 -8.17746e-12 -2.9893e-12 -1.03259e-11 -1.88515e-12 
-2.49785e-11 -1.01434e-10 -3.79237e-11 7.38998e-12 1.32847e-12 -2.86452e-12 6.55336e-12 1.55046e-13 2.01252e-12 
-8.03434e-12 2.82602e-11 -1.49029e-12 9.13662e-13 -2.25013e-11 -6.4763e-12 1.94743e-11 6.64236e-12 -2.50126e-12 
3.09041e-11 5.88527e-11 2.6927e-11 -1.31808e-11 5.43466e-12 -2.6409e-12 1.19394e-11 2.79834e-12 4.42132e-12 
8.09845e-12 1.92628e-11 -4.52511e-12 -2.82297e-11 -7.6603e-11 -3.14498e-11 -9.0669e-12 -1.2646e-12 -1.41729e-12 
-4.06236e-11 -9.84508e-11 -4.17223e-11 -1.13177e-11 1.32847e-12 -2.28331e-13 7.68957e-12 1.70277e-11 7.41517e-12 
2.27883e-12 4.59856e-13 -7.65229e-13 -5.69452e-12 -3.43376e-11 -1.20096e-11 -2.18778e-11 -1.36643e-11 -2.61543e-12 
8.25102e-12 5.4728e-12 4.11715e-12 9.86433e-12 6.89784e-13 7.2571e-13 2.82388e-11 6.18577e-11 2.70289e-11 
7.14827e-12 5.43466e-13 -3.0485e-12 3.59277e-11 8.59275e-11 3.65566e-11 7.74761e-12 1.03259e-11 -1.00202e-12 
1.40533e-11 1.96775e-11 1.01192e-11 8.01326e-12 1.81305e-26 -1.53605e-12 3.19525e-12 7.3344e-12 3.1589e-12 
1.60061e-12 4.34773e-12 3.39666e-13 -3.84982e-13 -1.60133e-11 -4.9195e-12 -1.91432e-12 -3.32118e-13 -8.7181e-13 
-1.67964e-11 -2.96922e-11 -1.39466e-11 -1.43957e-12 2.75913e-12 -9.19711e-13 -1.2003e-11 -1.88217e-11 -9.24741e-12 
5.65702e-12 2.65694e-12 3.32118e-13 -7.18502e-12 -1.24307e-11 -5.88472e-12 -3.85508e-12 2.29928e-12 -1.14964e-12 
-8.58225e-12 -2.73132e-11 -1.07686e-11 -2.66318e-12 3.84308e-12 -4.10996e-12 2.83847e-12 3.63783e-12 1.94289e-12 
4.59338e-12 4.03523e-12 -2.42861e-13 2.08968e-12 -1.31652e-11 -3.32266e-12 -1.35755e-11 5.12411e-12 -4.00321e-12 
-1.34772e-11 -2.50357e-11 -1.15539e-11 -6.82872e-12 -1.60949e-12 -2.12683e-12 9.37182e-12 -6.77715e-12 7.78402e-13 
-1.57484e-11 -2.65694e-12 -2.15877e-12 1.47436e-11 1.04766e-11 7.56606e-12 1.31955e-12 -4.59856e-13 -4.19618e-12 
1.78489e-11 2.60529e-11 1.31706e-11 -4.86425e-12 -1.66059e-13 -3.03058e-12 -4.07231e-12 2.20415e-12 -5.60449e-13 
8.81684e-13 1.43705e-12 1.14964e-13 4.81884e-12 1.18453e-13 1.48119e-12 -4.00093e-12 4.27009e-13 -7.89966e-12 
2.07157e-11 8.95934e-12 8.90252e-12 9.53905e-13 9.77193e-13 -1.60949e-12 6.82266e-12 4.38633e-12 3.36269e-12 
-8.29421e-14 2.78927e-13 -4.98177e-13 3.50724e-12 -1.20796e-12 6.89784e-13 -8.38327e-13 -2.99984e-13 -3.44892e-12 
1.08876e-11 7.58648e-12 5.54222e-12 -1.65453e-12 1.22469e-12 -3.98542e-12 -8.72477e-12 -3.83344e-12 -3.76746e-12 
1.56648e-12 -1.74362e-12 -3.15512e-12 -2.91016e-12 -1.44371e-11 -5.20417e-12 2.50532e-12 1.86816e-13 1.58794e-12 
6.78208e-11 1.7722e-10 7.35122e-11 5.5516e-12 -7.97083e-12 2.65694e-12 2.5572e-12 -7.64276e-12 -1.52567e-12 
-1.99055e-12 3.21739e-12 -1.93044e-12 2.57948e-12 -4.44764e-12 -5.60449e-13 -1.25896e-12 -4.67041e-12 7.47265e-13 
3.9381e-11 5.51948e-11 2.83727e-11 4.46131e-11 -3.58687e-11 -7.47265e-13 -3.34088e-13 -6.01767e-12 -1.90553e-12 
1.82856e-12 2.39125e-12 -2.083e-12 -1.32613e-10 -3.29944e-10 -1.38767e-10 -7.95473e-11 -9.32587e-11 -1.79344e-11 
-5.05557e-11 -7.68687e-11 -3.82273e-11 -6.11168e-12 -6.77521e-11 -2.49088e-12 1.12015e-12 -1.89855e-12 -2.3352e-13 
-1.84405e-12 -4.98177e-13 -9.96354e-13 -1.17413e-12 -5.86262e-12 -2.11103e-12 4.11496e-12 -4.18469e-12 1.6938e-12 
-5.46596e-11 -1.62546e-10 -6.51615e-11 1.10367e-11 -4.79246e-11 -9.44045e-12 7.4495e-11 1.66223e-10 7.22155e-11 
-3.08927e-11 1.75827e-11 -1.75827e-13 -2.00856e-11 -1.48051e-11 -1.04672e-11 -2.03695e-12 1.58244e-12 1.40662e-12 
7.81236e-12 9.77951e-12 5.27756e-12 7.51277e-12 3.11361e-14 -1.88081e-12 -6.64803e-11 -1.57544e-10 -6.72072e-11 
1.84287e-11 -1.29526e-11 2.36634e-12 3.27192e-11 -1.0556e-11 6.64896e-12 -2.15415e-11 -6.33138e-11 -2.08555e-11 
2.72638e-12 -1.13879e-11 -2.59845e-12 -1.50496e-12 -3.057e-13 -1.57945e-12 3.49565e-11 6.28107e-11 2.93302e-11 
-5.59559e-12 5.76017e-12 -2.95793e-13 7.85339e-11 2.22707e-10 9.03724e-11 9.12729e-11 -2.14216e-11 -3.67406e-12 
-9.97002e-12 -2.34288e-12 -3.69387e-12 3.49369e-13 -4.07599e-12 1.90213e-12 3.17186e-11 3.24783e-11 1.92591e-11 
2.13507e-11 -1.02172e-10 -1.99724e-11 -2.49092e-12 -9.79585e-12 -3.68603e-12 1.4992e-12 -1.14964e-13 2.52921e-12 
1.17655e-10 1.39218e-10 7.70618e-11 2.62891e-12 -3.86279e-11 -1.70147e-11 1.06157e-11 2.83488e-11 1.16894e-11 
7.83788e-13 -1.60128e-12 1.28436e-13 6.99608e-11 1.41008e-10 6.32907e-11 6.61417e-11 -6.83214e-12 6.40513e-12 
-9.88044e-11 -1.12298e-10 -6.33308e-11 -1.15941e-10 -6.31973e-11 -3.58687e-11 -1.34881e-11 -2.78783e-11 -1.24099e-11 
3.58476e-12 1.45183e-11 -1.92154e-12 1.28495e-11 3.00464e-11 1.28688e-11 -8.01688e-12 4.1387e-12 3.44892e-12 
3.69764e-12 5.57646e-12 2.78223e-12 -1.25712e-12 4.27009e-13 1.3344e-14 7.22224e-11 1.00152e-10 5.17122e-11 
6.32916e-11 4.32264e-11 4.25367e-12 2.87163e-11 6.8039e-11 2.90266e-11 -3.09238e-11 -2.49088e-12 -1.5568e-12 
1.3621e-12 1.51966e-11 4.96762e-12 4.76616e-12 -4.48359e-12 2.37766e-12 -3.12679e-11 6.04771e-12 -7.56606e-12 
-7.8729e-11 -3.04341e-11 -1.35866e-11 -4.95563e-12 -1.27141e-11 -5.30091e-12 -9.06125e-12 -5.60449e-13 -1.16079e-12 
5.13936e-12 -4.6895e-13 1.40112e-12 1.35844e-11 -8.96719e-12 -1.60662e-11 -2.74808e-12 -1.22751e-11 -4.50695e-12 
5.44182e-13 -3.11361e-13 -4.86501e-13 -1.74443e-11 -6.25754e-11 -2.40059e-11 1.06571e-10 -6.24382e-11 -4.98177e-12 
-6.55041e-12 -2.3418e-11 -8.99054e-12 -7.22156e-12 -8.34446e-12 1.36999e-12 2.55749e-11 3.27385e-11 1.7494e-11 
7.72651e-12 6.83214e-12 1.02482e-11 -3.64918e-12 -1.28529e-11 -4.95063e-12 3.22759e-12 1.36999e-12 -8.7181e-13 
2.77274e-11 -1.98811e-11 2.35389e-12 1.05612e-11 -3.10862e-11 1.09101e-11 -3.69142e-11 -1.15886e-10 -4.58401e-11 
1.04019e-11 -4.38396e-11 -2.98906e-12 -1.53873e-11 -5.7852e-12 -6.35176e-12 6.47814e-12 -2.30407e-12 2.2418e-12 
5.43028e-11 1.25903e-10 5.40618e-11 -8.02143e-11 -9.38106e-11 -7.35769e-12 8.72103e-12 9.60134e-12 5.49671e-12 
1.62016e-12 -2.01187e-12 4.88597e-13 1.55824e-11 2.54394e-11 1.23065e-11 -4.5885e-12 5.00901e-12 -1.20166e-12 
-4.30891e-11 -2.5488e-11 -2.05732e-11 3.35185e-11 -2.59052e-11 -7.34811e-12 -1.98635e-12 -4.89189e-12 -2.06347e-12 
1.95687e-13 -6.83578e-13 -7.33467e-13 -7.62692e-13 -1.7139e-13 -2.80225e-13 -6.68807e-14 -3.32118e-13 -7.05751e-13 
3.24257e-12 -8.55473e-13 7.16129e-13 1.03407e-12 1.43226e-12 -5.05961e-14 4.61286e-12 5.24689e-12 2.95793e-12 
-9.46854e-13 -2.49089e-13 6.01964e-13 7.86397e-12 1.01949e-11 5.41767e-12 1.52671e-12 1.86816e-13 8.92567e-13 
-5.06314e-13 8.17675e-13 9.34082e-14 2.72151e-13 5.34502e-13 -8.09538e-13 -2.19766e-12 1.05601e-12 -3.42497e-13 
4.02926e-13 6.38289e-13 -1.86816e-13 1.25779e-11 9.52868e-12 6.63198e-12 -9.22277e-13 1.66059e-12 -2.51164e-12 
1.29415e-11 1.99589e-11 9.87013e-12 9.20131e-13 -4.98177e-13 -6.22721e-13 -4.28081e-12 -1.94641e-12 -1.86816e-12 
2.70678e-12 -2.98906e-12 -2.20028e-12 -2.28411e-12 2.28411e-12 -3.14142e-28 -3.58807e-12 -1.61908e-12 -1.5568e-12 
-2.12747e-12 7.73196e-12 1.68135e-12 -5.649e-12 -3.77784e-12 7.26508e-13 -8.19629e-13 -2.66839e-11 -8.25106e-12 
-2.70068e-12 -1.66059e-12 -4.15147e-14 -4.47524e-12 -1.70086e-11 -6.44516e-12 -1.49434e-11 8.30295e-14 1.07938e-12 
-1.44324e-11 -7.88173e-12 -6.69425e-12 7.70807e-12 1.66059e-13 -3.73633e-13 -7.7902e-12 2.08193e-12 -1.71248e-12 
-5.29557e-12 -1.66059e-12 -5.83282e-12 7.20596e-13 -1.75341e-11 -5.04404e-12 4.83509e-13 -2.57391e-12 -1.07938e-12 
3.08702e-11 3.94973e-11 2.11103e-11 4.91772e-13 -5.14783e-12 -4.15147e-13 6.23002e-12 2.90322e-12 2.73997e-12 
1.66848e-11 5.97812e-12 -1.18317e-12 8.76021e-12 2.53857e-11 1.02438e-11 -1.75076e-12 -5.72904e-12 -2.71922e-12 
2.47087e-11 4.53475e-11 2.10168e-11 8.79323e-12 -3.6533e-12 -3.81936e-12 -1.02648e-11 -6.02978e-12 -4.88836e-12 
-2.18059e-11 -4.31753e-12 -1.99271e-12 1.9962e-11 4.45934e-11 1.93666e-11 5.13109e-12 -9.2993e-12 -1.66059e-12 
1.13362e-11 8.03094e-14 3.42497e-12 -1.35919e-11 -1.16241e-12 -4.15147e-13 2.78818e-11 5.62894e-11 2.52513e-11 
-1.57369e-11 2.07574e-11 -2.49089e-13 1.9911e-11 3.59264e-11 1.67512e-11 7.45658e-12 -2.823e-12 3.32118e-13 
8.58092e-12 6.11639e-11 2.09234e-11 -1.4234e-11 1.66059e-12 3.98542e-12 7.93141e-12 -3.30478e-11 -7.53493e-12 
8.23836e-12 1.32847e-12 -7.47265e-13 2.14541e-11 2.47311e-11 1.38555e-11 1.753e-11 -2.19198e-11 -5.0648e-12 
3.35586e-12 3.5668e-11 1.17072e-11 -1.75062e-11 -2.95585e-11 -8.30295e-13 -3.35285e-11 -4.56609e-11 -2.37568e-11 
2.11296e-11 1.09599e-11 4.64965e-12 1.05009e-12 1.00551e-11 3.33156e-12 -1.42214e-11 3.32118e-12 -1.90968e-12 
-9.94594e-12 -5.29489e-11 -1.88685e-11 -8.71348e-12 -4.31753e-12 -3.40421e-12 -3.62401e-11 -4.83462e-11 -2.53759e-11 
-8.11225e-12 -9.96354e-12 1.99271e-12 1.24997e-11 1.90516e-11 9.46536e-12 -9.00718e-12 6.97448e-12 5.81206e-12 
4.06253e-12 3.62068e-11 1.20808e-11 2.9358e-11 -3.98542e-12 -3.81936e-12 -4.62221e-12 -2.97312e-11 -1.0306e-11 
-4.09272e-11 7.97083e-12 -5.64601e-12 -5.2347e-11 -2.55969e-11 -2.33832e-11 1.6081e-11 -2.12556e-11 -3.15512e-12 
4.87432e-11 7.4348e-11 3.69274e-11 -9.19187e-12 -2.12556e-11 3.6533e-12 -4.06415e-11 -8.40065e-11 -3.73944e-11 
2.75974e-11 -8.30295e-12 1.82665e-12 -1.9737e-11 -1.00344e-10 -3.60244e-11 -1.118e-11 -1.52774e-11 7.05751e-13 
-3.74777e-11 -1.15297e-10 -4.58323e-11 2.05216e-12 -1.92628e-11 1.16241e-12 2.3186e-11 7.12601e-11 2.83338e-11 
2.09078e-11 -1.59417e-11 -1.99271e-12 -8.50749e-12 -6.54925e-11 -2.22e-11 2.37297e-11 -1.82665e-11 1.99271e-12 
1.14664e-12 -4.26614e-11 -1.24544e-11 -2.29315e-11 -8.96719e-12 6.31024e-12 -1.9706e-11 -6.03136e-11 -2.40059e-11 
-1.97375e-11 -1.16241e-11 2.15877e-12 -3.23923e-11 -5.39584e-11 -2.59052e-11 8.8837e-12 2.15877e-11 6.64236e-13 
-6.52512e-11 -8.27489e-11 -4.44e-11 -5.89133e-12 -1.99271e-12 -4.98177e-13 -6.74451e-11 -1.79879e-10 -7.41972e-11 
-1.50535e-11 1.1292e-11 -1.24544e-12 -2.26924e-12 -4.09061e-11 -1.29526e-11 2.27619e-11 1.19562e-11 3.6533e-12 
5.10496e-11 1.31304e-10 5.47061e-11 7.25886e-12 1.3949e-11 -3.48724e-12 -1.27618e-11 -4.93027e-11 -1.86194e-11 
-8.93067e-12 -6.64236e-13 -3.32118e-13 -6.27902e-11 -1.7758e-10 -7.21111e-11 1.90644e-11 -6.97448e-12 5.0648e-12 
-2.19576e-11 -4.56076e-11 -2.02696e-11 -1.06911e-11 6.57594e-11 -1.66059e-12 1.58718e-11 2.74073e-11 1.29837e-11 
-8.87643e-12 6.64236e-13 -2.57391e-12 -3.29648e-11 -4.10353e-11 -2.22e-11 -1.70877e-11 -6.97448e-12 -8.30295e-13 
3.26703e-11 1.5902e-11 1.45717e-11 -1.82914e-11 1.92628e-11 -1.82665e-12 -9.00798e-11 -1.60669e-10 -7.52247e-11 
4.3857e-11 2.45767e-11 -3.32118e-12 6.70473e-11 8.90482e-11 4.68286e-11 -4.5272e-11 6.64236e-12 1.16241e-12 
5.34522e-11 8.29238e-11 4.09128e-11 1.17531e-11 1.85986e-11 -4.64965e-12 1.56805e-11 -6.13467e-11 -1.36999e-11 
-1.70194e-11 2.87216e-26 3.32118e-13 -1.19062e-11 4.53255e-11 1.00258e-11 -8.3219e-11 3.42082e-11 -4.48359e-12 
-9.77467e-12 -5.84133e-11 -2.04564e-11 5.1846e-11 9.96354e-12 5.81207e-13 -5.32121e-11 -6.91526e-11 -3.67094e-11 
3.24613e-11 2.65694e-11 -1.4115e-11 9.50182e-12 6.58515e-12 4.82609e-12 -3.9818e-11 3.68651e-11 3.15512e-12 
5.1237e-12 -6.53201e-11 -1.80589e-11 9.05946e-11 3.05549e-11 -7.3066e-12 -1.24815e-10 -2.28786e-10 -1.06081e-10 
-1.47895e-11 4.7825e-11 -7.97083e-12 4.46436e-11 7.45037e-11 3.57442e-11 -8.94946e-11 1.1292e-11 2.32483e-12 
-4.92953e-11 -2.5615e-10 -9.16334e-11 1.24454e-10 1.99271e-11 -1.22884e-11 -1.18676e-10 -1.6954e-10 -8.64648e-11 
-1.57502e-11 1.85986e-11 -2.32483e-12 4.34705e-11 4.16771e-12 1.42915e-11 5.66742e-12 8.36937e-11 7.97083e-12 
-9.29689e-11 -1.44703e-10 -7.13016e-11 6.21826e-11 7.63871e-11 3.6533e-12 -8.19721e-11 -1.10137e-10 -5.76328e-11 
-9.21201e-11 6.57594e-11 -9.96354e-12 1.01069e-10 2.50042e-10 1.05333e-10 2.37849e-12 3.6533e-11 -5.31389e-12 
2.162e-11 -6.6456e-11 -1.34508e-11 1.69245e-10 8.03726e-11 1.46132e-11 5.08596e-12 1.09702e-10 3.44365e-11 
-1.80172e-11 5.97812e-12 1.02957e-11 4.65325e-11 -3.35716e-12 1.29526e-11 -8.3435e-11 5.31389e-12 1.34508e-11 
5.38587e-12 -1.03983e-10 -2.95793e-11 5.91537e-11 6.64236e-12 -6.4763e-12 -1.68001e-10 -2.94473e-10 -1.38742e-10 
-9.31742e-11 9.96354e-11 1.29526e-11 8.39549e-11 2.04054e-10 8.64026e-11 -8.15252e-11 6.90805e-11 5.64601e-12 
1.1215e-10 1.68282e-10 8.41296e-11 9.26782e-11 8.23653e-11 3.6533e-12 1.75077e-10 4.17546e-10 1.77787e-10 
1.04512e-14 1.99271e-11 2.32483e-12 7.81296e-11 1.50098e-10 6.84682e-11 2.76401e-11 8.96719e-11 1.34508e-11 
-4.92916e-11 4.14038e-11 -2.36634e-12 -4.96127e-11 3.45403e-11 -3.32118e-13 9.21803e-11 1.42586e-10 7.04298e-11 
2.85422e-11 -6.64236e-12 8.13689e-12 -3.02504e-11 -4.03247e-11 -2.11725e-11 -1.44369e-12 1.72701e-11 5.97812e-12 
-1.26192e-10 -1.68666e-10 -8.84576e-11 -9.18221e-11 -4.25111e-11 -6.64236e-13 1.12816e-11 1.63257e-11 8.28219e-12 
1.278e-10 -6.64236e-11 1.82665e-11 2.80824e-11 1.65584e-10 5.80999e-11 -2.27394e-11 2.39125e-11 -2.65694e-12 
1.3526e-10 1.78799e-10 9.42177e-11 -5.80121e-12 1.32847e-11 5.81207e-13 -7.7137e-11 -1.28936e-10 -6.18218e-11 
2.20185e-11 -1.08526e-10 -1.06916e-11 5.61992e-11 -7.03255e-12 1.475e-11 5.35064e-11 1.99214e-11 -5.43466e-12 
1.67711e-10 3.2372e-10 1.47429e-10 2.30225e-11 1.01628e-10 1.56926e-11 -3.53081e-11 -3.75503e-11 -2.18575e-11 
6.58681e-11 9.13325e-13 -1.29215e-11 1.45303e-10 3.72801e-10 1.55431e-10 1.93662e-11 4.18469e-11 1.99271e-12 
2.06152e-10 3.65714e-10 1.7156e-10 -7.04782e-11 -6.31874e-26 -1.82665e-12 -1.2393e-10 -2.09537e-10 -1.0004e-10 
9.52587e-11 -3.98542e-11 -1.31187e-11 -3.35389e-11 3.91434e-11 1.68135e-12 -5.29551e-11 1.66059e-11 -3.32118e-13 
1.44838e-11 -4.13646e-11 -8.06424e-12 2.21369e-12 -3.12191e-11 -1.81004e-11 -1.4305e-10 -2.48226e-10 -1.17383e-10 
-4.30468e-11 -6.89317e-26 -7.97083e-12 -9.16576e-11 -1.36881e-10 -6.85616e-11 -1.40412e-10 -1.72701e-11 -2.49088e-12 
6.34867e-11 1.4938e-10 6.38601e-11 -3.54717e-11 -1.46132e-11 -1.14581e-11 -3.95402e-11 -1.11366e-10 -4.52718e-11 
9.41232e-12 -1.99271e-12 -1.49453e-12 -9.8523e-11 -2.9047e-10 -1.16698e-10 -4.68695e-11 -7.70514e-11 -6.64236e-12 
-2.95972e-11 -2.54098e-11 -1.65021e-11 6.04958e-14 3.98542e-12 -9.46536e-12 -8.04939e-11 -1.65481e-10 -7.37925e-11 
-3.27628e-11 -7.77156e-11 -1.76023e-11 -1.79264e-10 -4.46052e-10 -1.87595e-10 -3.67583e-11 -8.63507e-11 -1.51114e-11 
3.45231e-11 1.38282e-10 5.18415e-11 -5.4303e-11 -3.05549e-11 -1.82665e-12 -7.93487e-12 -1.5002e-11 -6.88107e-12 
1.86818e-11 -5.24746e-11 8.30295e-14 7.66589e-11 1.14205e-10 5.72592e-11 -4.47845e-11 -3.05549e-11 -9.88051e-12 
-2.11101e-11 1.11465e-11 -2.98906e-12 2.07513e-11 -2.05913e-11 -4.81571e-12 -1.52953e-10 -3.50725e-10 -1.51103e-10 
-6.29081e-12 -5.57958e-11 -5.97812e-12 -1.15207e-10 -2.61955e-10 -1.13148e-10 2.00661e-11 -6.44309e-11 -8.21992e-12 
4.17206e-12 -9.98413e-12 -1.74362e-12 4.19087e-11 -2.98906e-11 -3.6533e-12 7.15906e-12 -1.85756e-11 -3.42497e-12 
-3.17257e-13 -1.46132e-11 1.07938e-12 -6.3412e-11 -1.72288e-10 -7.071e-11 -2.00583e-11 -9.16646e-11 -2.49088e-12 
-5.69971e-11 -1.45491e-10 -6.07465e-11 1.95302e-11 -4.91535e-11 1.49453e-12 -4.26894e-11 -8.26851e-11 -3.76124e-11 
-3.99138e-11 -1.49453e-11 -2.2418e-12 -1.56663e-10 -3.48987e-10 -1.51695e-10 2.58673e-11 -1.92628e-11 -2.823e-12 
-3.31688e-11 -1.09434e-10 -4.27809e-11 -1.19854e-12 2.59052e-11 4.98177e-13 -2.58806e-11 -8.02933e-11 -3.18522e-11 
-1.39031e-11 9.2993e-12 1.16241e-12 -8.50702e-11 -2.2162e-10 -9.20071e-11 -3.83644e-11 6.64236e-13 2.65694e-12 
6.5021e-11 9.56411e-11 4.81986e-11 -6.61201e-11 -1.66059e-11 2.44937e-12 2.0776e-11 1.02938e-10 3.71142e-11 
-4.71412e-12 -2.49088e-11 -3.15512e-12 2.46432e-11 5.7037e-11 2.45041e-11 9.14106e-12 -5.31389e-12 3.32118e-13 
6.76928e-12 -6.76928e-12 -1.60841e-25 4.48796e-11 -2.19198e-11 1.32847e-12 8.65884e-12 5.57928e-11 1.93355e-11 
5.95163e-12 -3.58687e-11 1.99271e-12 -5.30313e-11 -1.03894e-10 -4.70777e-11 -2.62913e-11 -1.99271e-11 -5.81207e-13 
-2.89009e-11 -9.86531e-11 -3.82662e-11 -3.70764e-11 -4.5168e-11 -6.64236e-13 4.96471e-11 2.0928e-11 2.11725e-11 
-1.10979e-11 -1.06278e-11 -2.15877e-12 -4.31942e-11 -3.174e-11 -2.24802e-11 3.31075e-11 -1.06278e-11 2.98906e-12 
3.81697e-11 7.30898e-11 3.33779e-11 -3.72969e-11 6.97448e-12 -4.15147e-13 -7.45927e-11 -1.38067e-10 -6.37978e-11 
-4.12529e-11 -2.2584e-11 1.32847e-12 -2.56583e-12 -2.01635e-11 -6.8188e-12 -2.47775e-11 1.62738e-11 1.49453e-12 
-3.95581e-11 -8.08346e-11 -3.61178e-11 3.4292e-12 -2.5241e-11 -1.32847e-12 -9.28889e-12 -1.3648e-11 -6.88107e-12 
-1.04305e-11 1.99271e-11 1.4115e-12 -2.17963e-11 -3.97493e-11 -1.84637e-11 -3.4017e-11 -1.99271e-11 -2.32483e-12 
-7.48942e-11 -1.54682e-10 -6.8873e-11 9.43269e-12 -1.3949e-11 3.73633e-13 2.34849e-11 7.32445e-11 2.90188e-11 
-6.26431e-12 7.97083e-12 -1.82665e-12 -1.13935e-11 -5.85588e-11 -2.09857e-11 -4.65178e-12 6.64236e-13 1.53605e-12 
-4.73944e-11 -1.21467e-10 -5.06584e-11 9.24599e-12 -2.39125e-11 -6.64236e-13 3.86878e-11 7.29869e-11 3.35024e-11 
1.37282e-12 1.52774e-11 -2.49089e-13 -6.63602e-11 -1.11427e-10 -5.33361e-11 -1.57566e-11 7.63871e-12 3.73633e-12 
-2.96214e-11 -4.87377e-11 -2.35077e-11 -3.82954e-11 -1.59417e-11 2.11725e-12 3.37288e-11 6.134e-11 2.85206e-11 
1.88699e-11 1.29526e-11 2.69846e-12 -3.23748e-11 -6.98553e-11 -3.0669e-11 -4.63484e-11 2.49088e-11 -2.57391e-12 
-3.72982e-11 -7.38575e-11 -3.33467e-11 -1.37466e-11 -4.64965e-12 2.49089e-13 -2.43293e-11 -3.45179e-11 -1.76541e-11 
2.25653e-11 1.99271e-12 -2.44937e-12 -1.71712e-11 -2.69382e-11 -1.32328e-11 -3.14817e-11 -1.99271e-12 2.36634e-12 
-1.53036e-11 -3.17119e-11 -1.41046e-11 -1.09921e-11 2.65694e-11 -1.66059e-13 -8.08036e-12 -4.31904e-11 -1.53812e-11 
-1.25661e-11 -1.26205e-11 -1.74362e-12 -4.13987e-11 -8.05509e-11 -3.65849e-11 1.17486e-12 -1.6938e-11 -2.32483e-12 
-1.88219e-11 -4.26199e-11 -1.84325e-11 2.18763e-11 3.32118e-12 -4.15147e-13 1.09483e-11 2.62074e-11 1.11467e-11 
-2.01891e-11 2.65694e-12 -1.49453e-12 -1.06128e-11 -3.14209e-11 -1.26101e-11 6.87571e-12 -2.65694e-12 7.47265e-13 
4.32339e-12 1.28014e-11 5.13745e-12 4.84577e-13 -9.96354e-13 -8.92567e-13 2.0754e-11 3.09318e-11 1.55058e-11 
-1.82569e-11 9.2993e-12 1.45302e-13 1.44669e-11 3.83606e-11 1.58483e-11 2.17067e-11 -8.13689e-12 -7.68023e-13 
4.28929e-11 9.22376e-11 4.05392e-11 -8.30869e-12 -7.63871e-12 7.16129e-13 1.47784e-11 4.02286e-11 1.65021e-11 
-1.0846e-12 1.85986e-11 1.36999e-12 2.35405e-11 4.75535e-11 2.13282e-11 2.15678e-11 1.66059e-13 1.57756e-12 
1.6378e-11 4.27805e-11 1.77476e-11 -4.09827e-12 -4.48359e-12 1.54902e-12 1.52577e-11 3.92304e-11 1.63464e-11 
-8.94679e-12 -6.97448e-12 1.84741e-12 4.9451e-12 4.39572e-12 2.80225e-12 1.45227e-11 -6.97448e-12 3.32118e-13 
6.86065e-12 1.62838e-11 6.94334e-12 -1.50688e-11 5.47995e-12 1.04825e-12 4.46725e-12 1.31765e-11 5.29313e-12 
3.6595e-12 -3.40421e-12 -1.77735e-13 1.50084e-11 1.92413e-11 1.02749e-11 -4.36773e-12 6.64236e-13 1.81627e-13 
-8.67849e-12 -1.37395e-11 -6.72539e-12 8.69006e-13 -2.98906e-12 4.30716e-13 -4.65206e-12 -1.15387e-11 -4.85723e-12 
-2.675e-12 -5.18934e-12 8.3289e-13 -1.11861e-12 -1.62138e-11 -5.19972e-12 -6.41154e-12 2.57391e-12 4.08661e-13 
9.54986e-12 2.58415e-11 1.06174e-11 1.47496e-12 2.42338e-27 -1.7514e-13 4.45753e-12 1.14696e-12 1.68135e-12 
7.67725e-12 -3.44572e-12 -1.08976e-12 8.9693e-13 -3.77996e-13 1.5568e-13 -1.48439e-12 -1.99271e-12 4.26336e-28 
-3.64214e-12 -4.34944e-12 -2.39748e-12 -6.50133e-13 -1.66059e-13 -6.07153e-13 6.11161e-12 1.34003e-11 5.85358e-12 
1.31207e-12 -8.7181e-13 9.44461e-13 9.14104e-12 5.49291e-12 4.39018e-12 5.6128e-13 -1.05863e-12 -4.15147e-13 
7.89503e-12 4.87076e-12 3.82974e-12 -8.71908e-13 3.84011e-13 -1.36999e-12 1.09068e-11 6.94458e-12 5.3554e-12 
1.04931e-12 -1.76438e-13 -1.34923e-13 -3.43147e-12 -3.04857e-13 -1.1209e-12 -2.1134e-12 2.07574e-13 7.99159e-13 
5.64548e-12 5.35593e-12 3.30042e-12 -1.13605e-12 -5.81207e-13 -1.78513e-12 -2.2316e-12 7.62851e-12 1.61908e-12 
3.15115e-12 6.43479e-13 1.44264e-12 9.71843e-12 1.55867e-11 7.59154e-12 1.61549e-12 -2.51353e-12 -3.057e-13 
-1.99859e-12 -5.37028e-12 -2.21066e-12 1.70537e-12 1.4115e-12 3.32118e-13 1.65805e-11 4.91944e-11 1.97325e-11 
2.96366e-11 -3.0887e-11 2.00516e-11 5.63865e-13 -1.07336e-12 -1.5285e-13 4.06638e-12 4.68739e-12 -3.90616e-13 
1.00138e-10 8.37913e-11 5.51788e-11 1.34415e-10 4.34773e-12 -1.76626e-12 7.98163e-12 9.19111e-12 5.15182e-12 
4.60117e-12 6.98406e-12 2.12683e-12 1.34927e-11 7.58917e-11 2.68153e-11 -1.71941e-11 5.7482e-11 7.12776e-12 
3.82517e-13 5.32576e-12 1.71248e-12 -3.19401e-12 5.14783e-12 1.45302e-13 -4.7087e-11 -1.34125e-10 -5.43636e-11 
-2.62822e-12 2.39125e-11 -8.51883e-12 8.76451e-12 6.6903e-12 4.63644e-12 -5.28432e-12 1.49453e-12 7.30282e-13 
1.0032e-10 2.34289e-10 1.00383e-10 3.05877e-11 -1.99271e-12 -9.96354e-13 -2.76457e-11 -3.21356e-11 -1.79344e-11 
-4.45926e-12 5.45504e-12 -2.17641e-12 -1.84823e-11 -8.79096e-11 -3.19176e-11 9.74356e-11 -9.32587e-11 -3.28797e-12 
-5.35582e-12 -8.5117e-12 -4.16026e-12 2.36625e-12 9.19711e-13 5.7482e-14 2.36033e-11 4.27884e-11 1.99175e-11 
2.21146e-11 2.20217e-25 -4.1387e-12 1.13244e-11 1.59507e-11 8.18256e-12 -3.50545e-12 -6.4763e-12 8.46901e-13 
2.89296e-11 1.14782e-12 9.02323e-12 6.99936e-12 1.1757e-11 1.14332e-11 -4.06493e-13 8.98306e-12 2.57297e-12 
1.95589e-12 1.90213e-12 2.71733e-13 1.11002e-10 2.63669e-10 1.12401e-10 -7.61034e-11 2.12556e-11 6.97448e-12 
1.21341e-11 1.47387e-11 8.06185e-12 -3.82437e-12 -8.62229e-13 -2.18431e-12 1.19282e-11 4.74156e-12 5.00093e-12 
-1.64239e-12 -1.03468e-12 1.37957e-12 3.66209e-13 2.65159e-12 9.05341e-13 1.14544e-12 8.9097e-13 2.64417e-12 
-8.05911e-12 -3.33669e-12 -3.41874e-12 6.32326e-13 1.74362e-13 -5.97812e-13 2.5773e-12 2.45237e-12 1.5089e-12 
-3.33352e-12 1.58075e-13 2.8741e-12 4.43656e-12 4.18573e-12 2.58669e-12 -2.81291e-14 -6.75413e-13 -1.2646e-12 
9.33496e-12 4.3649e-12 4.10996e-12 -1.72181e-12 -3.86087e-13 -2.04253e-12 -4.15605e-12 -4.75365e-12 -2.67291e-12 
-3.4985e-12 3.0178e-13 2.2418e-12 4.22089e-13 5.75722e-12 1.85379e-12 -2.95174e-12 1.60949e-12 9.19711e-13 
9.36753e-12 4.14552e-12 4.05392e-12 5.97878e-12 4.98177e-13 -1.09599e-12 7.24564e-12 3.24482e-12 3.14714e-12 
-2.04914e-12 -2.06935e-12 -9.19711e-13 1.49935e-12 -1.07683e-11 -2.78069e-12 2.81319e-12 2.52921e-12 -2.29928e-13 
-8.7645e-12 2.2882e-12 -1.94289e-12 1.11945e-11 -2.39125e-12 -4.98177e-12 6.01662e-12 1.23776e-11 5.51827e-12 
4.922e-12 4.82848e-12 -5.7482e-12 -1.78523e-12 5.2102e-12 1.02749e-12 3.02208e-12 -1.99271e-13 2.39125e-12 
3.97443e-12 -6.63297e-12 -7.97562e-13 1.43183e-12 -2.29928e-12 3.90877e-12 -5.32552e-12 1.7329e-12 -1.07779e-12 
-3.87158e-12 -1.42555e-11 5.23086e-12 2.47755e-11 4.79583e-11 2.18202e-11 1.39534e-12 -1.03621e-11 6.92466e-12 
-1.46051e-11 -6.44767e-12 -6.31583e-12 1.07548e-11 1.37957e-12 9.19711e-13 3.98819e-12 -2.19188e-12 5.38893e-13 
-1.46364e-12 -9.19711e-12 -6.89784e-13 -1.21942e-11 -6.33878e-13 -3.84842e-12 -1.62277e-11 -5.97812e-12 1.3949e-12 
1.35649e-11 1.57509e-11 8.79474e-12 8.70858e-12 -4.59856e-12 -1.8969e-12 -1.40931e-11 -2.2893e-12 -4.91471e-12 
5.26891e-12 -1.24276e-26 1.32209e-12 -3.27128e-11 -4.92708e-11 -2.45951e-11 -8.06117e-12 1.83942e-12 3.21899e-12 
-1.70058e-11 2.12278e-12 -4.46491e-12 -6.93657e-12 7.17375e-12 5.97812e-13 1.60368e-11 3.23199e-11 1.4507e-11 
7.41123e-12 -5.05841e-12 7.81755e-12 -2.05323e-12 -2.98493e-11 -9.57075e-12 1.08986e-11 -6.89784e-12 5.7482e-12 
8.727e-12 2.91967e-11 1.13771e-11 -1.53292e-13 6.17739e-12 9.26609e-12 6.85491e-12 2.28202e-11 8.90252e-12 
1.04251e-11 9.19711e-13 -1.83942e-12 2.17949e-11 3.88581e-11 1.81959e-11 -5.72973e-12 8.76792e-12 4.98177e-13 
6.66451e-12 2.64595e-11 9.93719e-12 -1.62021e-11 -8.50733e-12 2.41424e-12 3.22668e-11 5.11155e-11 2.50147e-11 
1.71148e-11 -1.1757e-11 -1.89307e-12 1.6806e-11 3.2341e-11 1.47441e-11 1.72134e-11 1.37957e-12 1.03468e-12 
4.38725e-11 8.3474e-11 3.82039e-11 -2.97392e-12 7.57229e-12 6.97448e-13 -1.7297e-11 -4.11909e-11 -1.75464e-11 
5.41511e-12 -5.51827e-12 -3.10403e-12 -2.74048e-11 -7.28293e-11 -3.00703e-11 -9.28289e-12 -8.2774e-12 2.06935e-12 
-2.27813e-11 -2.99632e-11 -1.58233e-11 -1.44536e-11 9.90893e-27 2.39125e-12 -6.38253e-12 -4.42016e-11 -1.51752e-11 
4.99295e-12 -3.67857e-26 6.89784e-13 6.83668e-12 2.51377e-11 9.5923e-12 -9.22161e-15 5.28834e-12 3.10403e-12 
-6.89092e-11 -1.34783e-10 -6.11076e-11 -1.30782e-11 1.1757e-11 -6.97448e-13 -3.45809e-11 -1.45018e-10 -5.38795e-11 
-2.76098e-11 -2.17386e-12 -3.26079e-12 -1.99484e-12 1.08998e-11 2.67147e-12 1.72177e-11 1.03621e-11 9.96354e-13 
-2.07924e-11 -1.34093e-11 -1.02605e-11 -2.37127e-11 -2.20731e-11 -4.59856e-13 -2.88489e-11 3.41317e-12 -7.63073e-12 
-1.15899e-11 5.51827e-12 5.51827e-12 5.43193e-11 9.54931e-11 4.49437e-11 8.5691e-12 2.29928e-12 -7.81755e-12 
3.12761e-11 7.37003e-11 3.14929e-11 -7.56551e-12 -9.19711e-13 3.63507e-26 2.36587e-11 3.61848e-11 1.79531e-11 
-1.70756e-13 -5.47995e-12 4.88213e-12 -1.0544e-11 -2.38946e-12 -3.88003e-12 1.73117e-12 -5.86316e-12 5.08715e-12 
1.64316e-11 2.49554e-11 1.24161e-11 2.51936e-11 2.02336e-11 -2.29928e-12 1.02604e-11 1.77621e-11 8.40674e-12 
-2.42856e-11 7.35769e-12 -2.98906e-12 1.58006e-11 -9.32428e-12 1.94289e-12 -1.15076e-12 6.37667e-12 7.8712e-12 
-1.55969e-11 -1.17788e-11 -8.21274e-12 1.60971e-11 1.19562e-11 1.03468e-12 1.49855e-12 4.03409e-12 1.65979e-12 
3.72073e-11 4.04673e-11 -5.7482e-12 -1.05992e-11 -6.11383e-11 -2.15212e-11 2.87698e-11 2.66027e-11 8.12028e-12 
2.50019e-11 3.98809e-11 1.94648e-11 -1.02791e-11 1.01168e-11 1.49453e-12 1.1077e-10 2.99005e-10 1.22932e-10 
-2.80976e-11 -6.43798e-12 -4.59856e-13 6.94253e-11 1.49222e-10 6.55941e-11 -2.3015e-11 -3.40293e-11 1.01168e-11 
9.75973e-12 5.68714e-11 1.99894e-11 1.71105e-11 -2.3514e-11 1.24544e-12 -8.08712e-11 -1.92384e-10 -8.19765e-11 
2.1039e-11 3.4949e-11 8.73726e-12 -2.34952e-11 -3.85854e-11 -1.86242e-11 -4.75858e-11 2.94308e-11 1.24161e-11 
4.33996e-12 4.24887e-11 1.40486e-11 -2.40915e-11 -1.11592e-11 -2.39125e-12 -3.70346e-11 -9.57749e-11 -3.98428e-11 
-3.14878e-11 -1.95648e-11 -9.78238e-12 1.16519e-10 2.45593e-10 1.08634e-10 -1.54133e-11 -1.59417e-11 1.59417e-11 
4.30663e-11 8.57651e-11 3.86494e-11 6.93344e-11 -1.83942e-11 3.21899e-12 -7.15735e-11 -1.48932e-10 -6.61517e-11 
9.80219e-12 3.98542e-11 3.18833e-12 -5.45688e-11 -1.39217e-10 -5.81358e-11 -3.93485e-11 2.94308e-11 -8.73726e-12 
6.95253e-12 8.7452e-11 2.83214e-11 -6.4117e-11 3.74629e-11 6.97448e-12 8.67544e-12 7.79068e-11 2.59747e-11 
1.07868e-11 2.98906e-11 -1.49453e-12 3.05169e-11 4.97292e-11 2.40738e-11 3.54305e-11 1.33828e-11 -1.24148e-11 
3.62386e-11 4.51914e-11 2.4429e-11 2.15634e-11 6.10999e-12 -5.26383e-12 -8.03329e-11 -2.06071e-10 -8.59212e-11 
-3.06914e-11 3.4949e-11 1.83942e-11 -8.45812e-11 -2.05981e-10 -8.71685e-11 -4.61333e-11 3.02892e-11 5.57958e-12 
-2.66069e-11 -5.76761e-11 -2.52849e-11 1.04723e-11 4.7825e-11 2.03813e-26 1.25327e-11 3.76203e-11 1.50459e-11 
-5.99808e-11 2.94308e-11 3.67885e-12 6.36723e-11 1.28437e-10 5.76328e-11 1.20547e-10 -1.13584e-11 -3.76124e-12 
-2.92622e-11 -7.02535e-11 -2.98547e-11 4.77448e-11 -9.19711e-13 -4.59856e-13 -2.59892e-11 -4.33252e-12 -9.09652e-12 
-3.21431e-11 -6.89784e-11 -1.60949e-12 -4.47974e-11 -1.02356e-10 -4.41461e-11 -1.68626e-12 -3.31096e-11 -3.67885e-12 
2.50922e-11 6.45796e-11 2.69016e-11 2.80885e-11 -3.66658e-11 -1.99271e-11 5.97076e-11 8.78055e-11 4.42539e-11 
-3.02484e-11 1.37957e-11 -4.36863e-12 1.2998e-10 3.48916e-10 1.43669e-10 -1.48147e-11 -3.95476e-11 1.05767e-11 
-6.89168e-11 -1.10676e-10 -5.38778e-11 -2.64596e-11 3.42746e-11 6.57594e-12 5.53811e-12 -7.45165e-11 -2.06935e-11 
2.36052e-11 1.93139e-11 -2.98906e-12 -7.01708e-11 -2.0694e-10 -8.31333e-11 1.35311e-12 7.97083e-11 2.59052e-12 
-4.79777e-11 -1.46776e-11 -1.87966e-11 3.04683e-11 2.29928e-11 -1.83942e-12 -8.72674e-11 -9.53815e-11 -5.47947e-11 
-2.26712e-11 3.31096e-11 2.75913e-12 3.43073e-11 -3.94088e-11 -1.53046e-12 -1.72041e-13 3.67885e-12 6.43798e-12 
-4.44794e-11 -1.24302e-10 -5.06344e-11 -1.02149e-12 -1.47154e-11 6.43798e-12 -9.85683e-12 -4.29547e-11 -1.58435e-11 
-2.9069e-11 3.67885e-12 2.29928e-12 1.15668e-10 2.01561e-10 9.51686e-11 7.66877e-11 -1.83942e-12 1.60949e-12 
8.56431e-11 1.86318e-10 8.15885e-11 2.18412e-11 2.29928e-11 -3.44892e-12 -7.83379e-12 1.9807e-11 3.59197e-12 
-3.15307e-11 -2.39125e-11 -3.80426e-12 3.61395e-11 5.70685e-11 2.79624e-11 -3.19325e-11 4.6117e-11 -7.89966e-12 
2.06967e-10 4.15641e-10 1.86782e-10 1.40719e-10 6.95636e-11 -3.26079e-12 4.53459e-11 1.51812e-10 5.91474e-11 
-1.08299e-10 4.6117e-11 -9.18069e-12 4.50233e-11 8.43046e-11 3.87984e-11 1.2059e-12 1.10867e-10 9.51065e-12 
4.01935e-11 1.3448e-10 5.2402e-11 -3.72711e-11 -2.56205e-11 -4.27009e-12 -6.55759e-11 -1.03833e-10 -5.08225e-11 
-3.76751e-11 8.69545e-12 -4.34773e-12 3.69966e-11 1.14992e-10 4.55965e-11 3.02816e-12 -3.41607e-12 1.28103e-12 
7.30517e-11 8.36193e-11 4.70013e-11 6.86711e-11 7.39113e-11 3.26079e-12 2.78841e-11 7.60659e-11 3.1185e-11 
-2.51076e-12 4.44089e-11 -1.49453e-12 -9.07131e-11 -1.99532e-10 -8.70734e-11 -4.65221e-11 -3.47818e-11 -6.24986e-12 
1.41502e-10 3.03921e-10 1.33627e-10 5.11372e-12 -5.12411e-12 2.98906e-12 -1.46271e-10 -3.03447e-10 -1.34915e-10 
-3.54744e-11 -6.52159e-12 2.4456e-12 -1.08494e-10 -2.41253e-10 -1.04924e-10 -2.43593e-12 -1.70804e-11 -3.62958e-12 
8.49992e-11 2.17643e-10 9.07928e-11 4.06239e-11 -6.52159e-12 -4.07599e-12 2.03064e-10 4.52996e-10 1.96818e-10 
4.86872e-11 1.87884e-11 -6.61864e-12 4.18223e-11 1.47129e-10 5.66854e-11 1.99801e-11 -6.83214e-12 1.70804e-12 
3.71643e-11 9.73434e-11 4.03523e-11 -4.2967e-12 -9.16646e-12 2.49089e-13 1.92678e-11 3.61304e-11 1.66195e-11 
3.25636e-11 5.61024e-11 1.03468e-12 -4.94796e-11 -1.05812e-10 -4.65873e-11 5.63787e-12 -7.47265e-13 -2.80225e-12 
-8.13636e-11 -2.11204e-10 -8.77703e-11 -5.16595e-11 -1.79344e-11 -1.17427e-12 -3.07682e-11 -6.86037e-11 -2.98116e-11 
-3.79506e-12 -3.31096e-11 -1.12345e-25 2.73613e-12 1.40773e-11 5.04404e-12 -2.83667e-11 5.65623e-11 2.29928e-13 
2.74008e-11 5.24632e-11 2.39592e-11 1.11266e-11 3.96051e-11 9.34082e-13 -4.62882e-11 -4.32399e-11 -2.68584e-11 
7.27067e-12 1.2876e-11 -2.98906e-12 6.12889e-11 1.37404e-10 5.96078e-11 1.09871e-12 6.83214e-12 4.27009e-12 
4.70534e-11 8.08535e-11 3.83721e-11 -8.22527e-12 1.43475e-11 -9.96354e-13 4.68964e-11 1.43056e-10 5.69857e-11 
-9.39282e-12 1.53723e-11 1.38778e-12 1.08201e-10 2.03583e-10 9.3535e-11 3.74838e-11 -1.96424e-11 3.84308e-12 
-3.05525e-11 -6.50831e-11 -2.86907e-11 1.73225e-11 1.22437e-11 2.15557e-13 -5.02544e-12 4.23507e-12 -2.37113e-13 
-1.50651e-11 -1.65548e-11 -2.98906e-12 2.07512e-11 5.32748e-11 2.22078e-11 -2.05625e-11 -5.97812e-12 -2.3352e-12 
4.1874e-11 1.13974e-10 4.67544e-11 -1.25232e-11 -1.83942e-11 2.1189e-26 -2.91914e-11 -7.03467e-11 -2.98614e-11 
-3.60814e-11 -4.93195e-11 -1.21431e-12 3.98176e-12 2.55682e-12 1.96157e-12 3.16325e-11 2.57519e-11 -6.89784e-13 
3.31794e-11 4.16806e-11 2.2458e-11 -2.08626e-12 2.64745e-11 1.17427e-12 8.74906e-12 4.05238e-11 1.47818e-11 
6.45837e-12 -9.71445e-12 2.3352e-12 2.47786e-12 5.49776e-12 2.39269e-12 -1.26496e-11 -1.83942e-11 1.83942e-12 
-1.82624e-11 -4.86518e-11 -2.00743e-11 9.5989e-12 -2.81993e-26 -4.07599e-13 -2.88141e-11 -4.45113e-11 -2.19976e-11 
1.94373e-11 9.8212e-12 -2.18842e-12 3.79801e-11 8.42148e-11 3.66585e-11 -1.56837e-11 5.43466e-12 -2.038e-12 
-3.79195e-12 -1.05529e-11 -4.30345e-12 2.55707e-11 1.70804e-12 -9.07394e-13 1.29261e-11 1.9597e-11 9.75691e-12 
3.32301e-11 2.39125e-11 -2.4456e-12 4.65758e-11 9.35365e-11 4.20337e-11 -2.73333e-12 4.01388e-11 6.40513e-13 
4.65929e-11 8.34992e-11 3.90276e-11 1.39881e-12 1.41301e-11 -2.71733e-13 -2.01488e-11 -5.5712e-11 -2.27582e-11 
-2.46659e-11 -4.27009e-12 -2.82893e-12 -2.95602e-11 -6.33385e-11 -2.78696e-11 9.29057e-13 -4.45642e-11 -8.83132e-13 
-8.92786e-12 -2.44989e-11 -1.0028e-11 4.96296e-12 5.97812e-12 5.87137e-13 2.01824e-11 4.36944e-11 1.9163e-11 
-1.05689e-11 -1.2876e-11 -3.21899e-12 9.96648e-13 -2.70842e-11 -7.82627e-12 -1.22372e-11 5.97812e-12 1.4545e-12 
6.75801e-12 2.83868e-11 1.05434e-11 1.40808e-11 -7.47265e-13 -1.1676e-12 -4.24847e-11 -1.01436e-10 -4.31761e-11 
-7.53955e-12 -2.52921e-12 -1.35442e-12 -3.18181e-11 -9.08014e-11 -3.67858e-11 -1.59707e-11 5.43466e-12 -2.83621e-12 
-4.99882e-11 -1.00466e-10 -4.51362e-11 1.38185e-11 5.12411e-12 -1.70136e-12 2.40689e-11 4.87895e-11 2.18575e-11 
-9.9933e-12 5.97812e-12 9.38328e-13 -1.00426e-11 -3.79292e-11 -1.43915e-11 1.29759e-11 8.54018e-13 3.86977e-13 
4.95546e-12 1.16033e-11 4.96762e-12 -2.17265e-11 9.78238e-12 -3.6132e-12 1.75296e-12 1.05235e-11 3.68295e-12 
8.26145e-12 -2.47665e-11 2.0016e-13 4.02758e-11 8.49761e-11 3.75756e-11 1.3575e-11 4.34773e-12 -1.61341e-12 
-7.1668e-12 -2.90622e-11 -1.08687e-11 -1.09198e-11 -1.19562e-11 -6.40513e-13 8.01203e-12 1.84091e-11 7.92635e-12 
5.15351e-12 1.19562e-11 8.00642e-14 2.49572e-11 4.94101e-11 2.23102e-11 1.30432e-11 -9.19711e-13 1.83942e-12 
3.78507e-12 -5.03051e-12 -3.73633e-13 -3.66001e-12 9.96354e-13 1.96157e-13 -2.43073e-11 -6.43637e-11 -2.66013e-11 
3.29353e-12 2.56205e-12 -2.16173e-12 2.88878e-12 5.68779e-12 2.57297e-12 -6.84726e-12 4.89119e-12 -3.39666e-13 
7.97256e-13 -1.10722e-11 -3.08247e-12 5.16401e-12 -1.70804e-12 1.13424e-12 1.4769e-11 2.84535e-11 1.29668e-11 
3.98153e-13 6.52159e-12 -2.10593e-12 -1.51605e-11 -4.20854e-11 -1.71738e-11 -5.11891e-13 -1.66533e-11 -7.47265e-13 
-1.6322e-11 -3.32693e-11 -1.48774e-11 1.77784e-13 -1.16845e-11 1.15486e-12 1.08345e-11 1.35851e-11 7.32587e-12 
-3.03693e-12 2.34855e-12 6.67201e-13 9.99807e-12 2.66313e-11 1.09888e-11 -3.36441e-13 5.97812e-12 2.4553e-12 
9.65653e-13 -2.25741e-11 -6.48253e-12 -4.50635e-12 -5.16988e-27 1.59417e-12 1.05136e-11 1.6934e-11 8.23429e-12 
-6.66329e-12 1.83942e-12 -2.06935e-12 2.23519e-13 4.24673e-12 1.34107e-12 -2.2337e-12 9.6077e-13 -8.00642e-14 
7.82985e-12 1.07272e-11 5.56713e-12 -1.38182e-12 2.49088e-12 -1.76853e-12 -1.1829e-11 -2.2265e-11 -1.02282e-11 
2.78666e-12 3.62958e-12 -4.27009e-13 8.34513e-12 1.50918e-11 7.03109e-12 -3.27545e-12 4.07599e-12 1.35866e-13 
4.84555e-12 1.09671e-11 4.7438e-12 -5.16642e-12 -8.54018e-13 -5.87137e-13 -3.03344e-12 -2.21179e-12 -1.57357e-12 
-4.80871e-13 -2.06935e-12 1.14964e-13 2.50573e-12 -6.90926e-12 -1.32106e-12 -1.57566e-12 -2.37524e-12 -9.6077e-13 
-7.19317e-12 -1.11148e-11 -5.4924e-12 -3.94117e-13 4.98177e-14 -1.79344e-12 5.22365e-12 6.1855e-12 3.42274e-12 
-8.21751e-13 -9.34082e-13 6.40513e-13 1.38923e-12 2.77168e-12 1.24827e-12 -4.44326e-13 3.057e-13 -2.17386e-12 
-4.52626e-13 3.12143e-12 8.00642e-13 5.53698e-13 5.73793e-13 -4.27009e-13 8.95889e-12 6.99236e-12 4.78537e-12 
2.31643e-14 -1.58075e-13 -1.32209e-12 -4.68861e-12 -1.6498e-12 -1.90152e-12 -4.48172e-13 -2.66881e-13 -5.33761e-13 
2.31087e-12 -5.67246e-13 5.23086e-13 7.78918e-13 -5.97812e-13 -8.96719e-13 4.9863e-11 7.03222e-11 3.60556e-11 
3.43528e-11 -3.98542e-11 2.98906e-12 -3.35902e-12 8.90379e-13 -7.40593e-13 3.29754e-13 -2.13504e-12 -2.13504e-13 
-1.35805e-12 1.82509e-12 1.40112e-13 1.89103e-12 -3.98542e-12 1.24544e-12 -5.6974e-12 -7.96933e-11 -2.56172e-11 
5.18802e-11 -2.5407e-11 8.7181e-12 -6.01728e-12 -6.84431e-12 -3.85848e-12 -3.47154e-12 3.21899e-12 8.04747e-13 
-2.13966e-11 -1.09806e-10 -3.93608e-11 2.01325e-11 -7.35769e-12 -7.35769e-12 -6.16469e-11 -1.37482e-10 -5.97388e-11 
2.73248e-11 1.30432e-11 1.33149e-11 -2.16537e-11 -1.75777e-11 -1.17694e-11 -1.57882e-12 2.94755e-12 -1.24544e-13 
9.69128e-11 1.83779e-10 8.42075e-11 5.81695e-12 -6.77521e-11 -1.04617e-11 5.43664e-12 -6.10551e-13 1.44783e-12 
8.04107e-12 -1.5568e-12 3.11361e-14 7.41731e-12 1.32882e-11 6.21164e-12 -2.36696e-12 -9.96354e-13 -2.73997e-12 
8.82658e-11 1.48804e-10 7.1121e-11 1.1378e-12 -1.05215e-10 -5.97812e-12 -4.83807e-13 1.06419e-11 3.04744e-12 
-3.16189e-12 -8.40674e-13 -2.84895e-12 8.93701e-13 -9.56732e-12 -2.60209e-12 5.1874e-12 2.88231e-12 3.84308e-12 
3.43555e-11 1.98212e-11 1.6253e-11 -4.88355e-12 -2.24387e-28 5.68752e-12 -8.96069e-12 3.50191e-14 -2.6777e-12 
2.00138e-13 4.98177e-13 1.93044e-12 2.04187e-11 7.87061e-12 8.4868e-12 2.28683e-12 -1.86816e-13 -3.7897e-12 
1.23038e-11 7.93468e-12 6.07153e-12 -3.79117e-12 -9.54839e-13 -1.99271e-12 -1.95824e-11 -4.59996e-12 -7.2547e-12 
7.66848e-13 4.20337e-13 -2.69846e-12 -2.79866e-12 1.99802e-12 -2.40192e-13 2.88641e-12 -8.00642e-14 5.33761e-14 
-1.22786e-11 1.79616e-12 -3.14474e-12 -3.9966e-12 3.03058e-12 3.12399e-12 1.30588e-12 -5.45736e-12 -1.24544e-12 
5.13048e-12 -3.40421e-12 -4.15148e-12 3.31421e-11 2.69061e-11 1.80144e-11 2.23591e-14 -2.72218e-12 3.73633e-12 
-2.35385e-11 -9.67327e-12 -9.96354e-12 9.36554e-12 -1.5568e-12 2.03422e-12 1.10704e-11 1.17642e-12 3.67406e-12 
-4.77227e-12 -4.89874e-12 1.28696e-12 5.75286e-11 2.45371e-11 2.46197e-11 5.48634e-12 -4.21671e-12 3.46945e-13 
-6.20986e-12 -2.71581e-12 -2.6777e-12 1.32923e-11 -1.34923e-12 -9.5432e-12 -9.31896e-12 3.54463e-12 -1.7323e-12 
8.66596e-12 1.76626e-12 -4.41566e-12 -3.0669e-11 -4.21894e-11 -2.18575e-11 9.53285e-13 2.65694e-12 1.99271e-12 
2.83313e-11 4.57725e-11 2.22311e-11 -1.15439e-11 -4.98177e-13 -3.48724e-12 -8.13006e-12 1.68037e-11 2.60209e-12 
2.09847e-11 8.54018e-12 7.68616e-12 -9.35546e-12 1.91114e-11 2.92679e-12 1.20398e-12 9.96354e-12 7.3066e-12 
2.80135e-11 4.35994e-11 2.14839e-11 -1.62519e-11 1.16241e-12 -4.98177e-13 3.73628e-11 4.81724e-11 2.56606e-11 
6.2517e-12 -1.76141e-11 2.2418e-12 -5.58259e-11 -5.07929e-11 -3.19856e-11 9.28566e-12 1.46251e-11 -4.27009e-13 
3.74874e-11 2.57188e-11 1.89619e-11 2.16751e-14 -4.85723e-12 1.53605e-12 -2.93918e-11 -8.0753e-12 -1.12401e-11 
-4.29759e-12 -1.82665e-12 -3.32118e-13 -2.53388e-11 -1.53605e-11 -1.22098e-11 -5.2293e-12 -1.83347e-11 -9.2741e-12 
3.42084e-11 1.95532e-11 1.61285e-11 2.99988e-11 8.30295e-13 -6.06115e-12 1.12359e-11 2.42592e-11 1.06485e-11 
-6.99713e-12 -1.49453e-11 -2.65694e-12 -6.97883e-11 -1.08755e-10 -5.35629e-11 1.3244e-11 -2.43395e-11 -5.01735e-12 
5.7273e-11 5.20146e-11 3.27863e-11 2.44691e-11 -8.55204e-12 -8.30295e-14 -8.13975e-11 -1.09467e-10 -5.72592e-11 
-2.00608e-12 7.86252e-26 -2.90603e-12 -3.57321e-11 -5.8714e-11 -2.83338e-11 2.32807e-11 -9.96354e-13 5.29554e-26 
3.06862e-11 4.75691e-11 2.34766e-11 -5.50075e-11 -1.06278e-11 -2.32483e-12 3.71999e-11 -1.37441e-11 7.03675e-12 
3.0962e-11 3.12191e-11 7.05751e-12 1.81164e-11 6.28374e-11 2.42861e-11 2.40137e-11 -1.31187e-11 6.64236e-13 
1.30235e-11 2.38208e-11 1.10533e-11 -2.11651e-11 -4.4016e-11 -1.151e-11 -2.25248e-12 3.43226e-11 9.62104e-12 
-9.51236e-12 3.25476e-11 -7.47265e-13 4.84778e-13 -3.87821e-11 -1.14892e-11 -2.91118e-12 5.97812e-12 1.49453e-12 
1.51039e-11 8.04062e-12 6.94334e-12 -3.38613e-11 2.65694e-11 -6.64236e-12 -3.86945e-11 -1.15637e-10 -4.62993e-11 
2.44028e-11 1.36168e-11 2.03422e-12 -1.10155e-10 -1.71271e-10 -8.44277e-11 3.94436e-11 1.36643e-11 -6.83214e-12 
-8.18428e-12 -8.48236e-11 -2.79024e-11 -6.92736e-13 -1.87884e-11 -8.54018e-13 2.15075e-11 1.07702e-11 9.68332e-12 
4.58882e-11 1.06278e-11 3.6533e-12 -3.87164e-11 -4.17481e-11 -2.41393e-11 3.52545e-11 4.20604e-11 1.14225e-11 
6.6321e-12 2.07232e-11 8.20658e-12 7.45794e-11 -2.22045e-11 -2.56205e-12 -4.43506e-12 6.66034e-11 1.86505e-11 
-2.15068e-11 -1.85986e-11 3.6533e-12 3.97769e-11 9.62877e-11 4.08194e-11 3.98726e-11 9.2993e-12 1.42811e-11 
5.45314e-12 9.43602e-11 2.9944e-11 -5.68648e-12 -2.73286e-11 -2.13504e-12 5.80274e-11 8.02167e-11 4.14732e-11 
-1.82445e-11 -3.41607e-11 -2.98906e-12 3.69999e-11 3.04616e-11 2.02384e-11 -7.39499e-11 -7.97083e-12 -1.59417e-11 
-1.07519e-11 -3.67449e-12 -4.32791e-12 1.20483e-11 -1.46132e-11 1.99271e-12 1.85514e-11 -2.1754e-11 -9.6077e-13 
-1.00854e-11 3.92848e-11 -6.83214e-12 -6.44172e-11 -1.02576e-10 -5.00979e-11 -3.79859e-11 -5.31389e-12 -1.62738e-11 
-5.55009e-11 -1.22909e-10 -5.35229e-11 -2.53782e-11 -2.2584e-11 -7.97083e-12 6.77108e-11 7.37359e-11 4.2434e-11 
1.01553e-11 -2.73286e-11 1.02482e-11 -4.76861e-12 5.05386e-11 1.3731e-11 -5.1336e-11 2.22045e-11 9.39419e-12 
8.00301e-11 8.80008e-11 5.04093e-11 -8.26774e-12 -1.85986e-11 -1.49453e-11 2.70442e-11 5.29755e-11 2.40059e-11 
3.79275e-11 1.06278e-11 3.98542e-12 1.52202e-10 3.08834e-10 1.38311e-10 1.01292e-10 -2.04964e-11 -2.04964e-11 
-9.00657e-11 -1.18961e-10 -6.2708e-11 3.48521e-11 1.00964e-10 2.65694e-12 1.086e-10 1.89891e-10 8.95473e-11 
-3.85946e-11 2.12556e-11 -3.98542e-12 -1.10887e-10 -1.52257e-10 -7.89433e-11 -7.31006e-11 -4.7825e-11 -1.36643e-11 
-3.60302e-11 6.72552e-11 9.36751e-12 -4.1858e-11 -4.09929e-11 -1.70804e-11 -7.3577e-12 -1.97473e-10 -6.14492e-11 
4.04873e-11 6.83214e-12 6.83214e-12 1.07989e-10 2.13128e-10 9.6335e-11 3.54508e-11 1.06278e-11 1.06278e-11 
3.87177e-11 4.40759e-11 2.48381e-11 2.80701e-11 5.78791e-11 8.55959e-12 -4.53818e-11 -6.65005e-11 -3.35647e-11 
-3.42769e-11 -5.31389e-12 -7.97083e-12 5.09893e-11 2.09789e-10 7.82336e-11 3.50138e-12 4.34773e-12 3.26079e-12 
1.89825e-12 -4.83948e-11 -1.3949e-11 1.51948e-11 -1.59417e-11 -1.32847e-12 -7.55721e-12 -2.36826e-11 -9.37195e-12 
2.10814e-11 4.94856e-11 2.20858e-11 -3.18616e-11 -6.20804e-11 -2.81826e-11 -1.35656e-11 4.05658e-11 -6.40513e-13 
-2.43321e-11 -1.98187e-10 -6.67557e-11 3.31994e-11 -1.1126e-11 7.43114e-12 1.10469e-10 1.71417e-10 8.45655e-11 
3.39676e-11 -2.62373e-11 9.96354e-12 -1.45797e-10 -1.15746e-10 -7.84629e-11 -1.93389e-11 -1.42811e-11 8.75961e-12 
-4.64607e-11 -5.99208e-11 -3.19145e-11 2.20748e-11 -1.92628e-11 -1.17072e-11 1.68714e-10 2.04785e-10 1.1205e-10 
1.01385e-10 -6.66134e-11 1.18495e-11 -1.56533e-10 -1.86942e-10 -1.03043e-10 -2.19779e-11 -3.75768e-11 -2.56205e-12 
6.22431e-11 9.93531e-11 4.84788e-11 -2.59965e-11 2.65694e-12 3.32118e-12 -4.74956e-11 4.72881e-11 -6.22721e-14 
-9.32973e-11 -4.7825e-11 -2.65694e-12 4.47335e-11 2.40028e-10 8.54285e-11 1.00848e-11 1.81052e-10 1.19562e-11 
-1.10121e-10 5.50399e-12 -3.13852e-11 6.72754e-11 -1.02482e-11 1.70804e-12 -3.1344e-11 -1.17486e-10 -4.46491e-11 
-2.11526e-11 -2.92264e-11 -1.32847e-12 1.31595e-10 1.588e-10 8.71187e-11 1.07453e-10 3.12191e-11 1.56926e-11 
-5.40399e-11 -1.17416e-10 -5.14368e-11 1.92075e-11 8.86755e-11 -1.57756e-12 -9.2836e-11 -2.52774e-10 -1.03683e-10 
-3.69344e-11 -6.77521e-11 7.80477e-12 -3.70455e-11 1.04761e-11 -7.97083e-12 -6.84012e-11 3.57027e-11 8.05905e-12 
-8.47029e-11 -1.39062e-10 -6.71294e-11 1.05955e-10 -6.79181e-11 1.74362e-12 6.77641e-11 -1.17831e-10 -1.502e-11 
2.67292e-13 -1.913e-11 4.7825e-12 -2.59909e-11 3.35674e-11 2.27293e-12 -7.36443e-11 -1.85986e-11 -9.96354e-12 
6.01448e-11 1.08584e-10 5.06187e-11 3.83656e-11 4.56511e-11 9.20495e-12 -1.76629e-13 1.92085e-11 5.70958e-12 
-1.39873e-11 -7.77156e-11 -3.73633e-13 5.36419e-11 2.01362e-10 7.65013e-11 -3.80614e-11 3.07446e-11 7.89966e-12 
6.33234e-11 1.39712e-10 6.09106e-11 4.43409e-11 6.52159e-12 -9.23892e-12 -5.49273e-12 3.25811e-11 8.12651e-12 
-3.94222e-11 -2.39125e-11 8.11317e-12 1.16175e-10 3.16559e-10 1.2982e-10 -5.70484e-11 -8.91284e-11 -1.6304e-12 
-7.45447e-11 -2.59649e-10 -1.00258e-10 1.17881e-11 7.17375e-11 5.64601e-12 1.03194e-10 2.29132e-10 9.96977e-11 
-5.68961e-11 -1.19562e-11 -5.68752e-12 -1.25314e-10 -2.47919e-10 -1.1197e-10 -1.0298e-10 1.36643e-11 -1.11022e-11 
-7.24042e-11 -8.21439e-11 -4.63644e-11 -2.33696e-11 5.02706e-12 -5.10348e-12 8.62294e-11 8.65757e-11 5.18415e-11 
1.44636e-10 9.19967e-11 1.93874e-11 1.36071e-10 3.69692e-10 1.51729e-10 -2.944e-12 -9.91825e-12 1.03598e-12 
6.49366e-11 1.30702e-10 5.86915e-11 7.88602e-11 -2.12556e-11 -9.2993e-12 -5.81214e-11 -1.79645e-10 -7.13299e-11 
-7.62956e-11 2.77168e-11 1.12769e-11 -6.87233e-11 -1.6843e-10 -7.11459e-11 8.99768e-11 4.11826e-11 1.23714e-11 
-6.92401e-11 -8.20812e-11 -4.53964e-11 -7.7138e-11 -6.39931e-11 -5.38371e-12 1.98715e-12 7.18053e-11 2.21377e-11 
6.28467e-11 -4.81571e-11 -1.98441e-11 1.50354e-10 2.71124e-10 1.26444e-10 1.0964e-10 4.18469e-11 -2.40786e-12 
9.20222e-11 2.63344e-10 1.0661e-10 -3.84115e-11 -7.3066e-11 -1.76438e-13 6.50752e-11 2.14112e-10 8.3756e-11 
1.70176e-11 1.54435e-11 -1.07938e-12 9.37049e-11 2.0819e-10 9.05686e-11 -3.37828e-12 3.826e-11 8.96719e-12 
2.70148e-11 6.14561e-11 2.65413e-11 -6.05013e-11 -1.70804e-11 -3.62958e-12 -4.45727e-11 -6.38845e-11 -3.25372e-11 
6.61539e-12 -6.64236e-11 3.98542e-12 8.97214e-11 2.01288e-10 8.73027e-11 -4.60545e-11 -5.21727e-11 -2.8532e-12 
-1.74802e-11 -3.05731e-11 -1.4416e-11 1.12942e-10 -1.10578e-25 -5.31389e-12 -8.19559e-12 -5.39727e-11 -1.86505e-11 
-2.6092e-11 -5.31389e-12 -1.99271e-12 -3.81328e-11 -1.17651e-10 -4.67352e-11 -1.99912e-11 -6.24382e-11 -4.15148e-12 
5.44522e-11 1.34544e-10 5.66988e-11 2.87033e-11 3.18833e-11 5.31389e-12 1.1271e-10 1.93876e-10 9.19759e-11 
2.64358e-11 -1.33677e-11 2.49088e-12 -3.67035e-11 -9.50021e-11 -3.95117e-11 -3.28923e-11 4.30425e-11 -5.08141e-12 
1.30825e-10 2.88682e-10 1.25852e-10 3.79473e-11 1.06278e-11 2.823e-12 -6.20837e-11 -1.62096e-10 -6.72539e-11 
5.60456e-11 -1.44471e-11 2.72959e-12 1.40568e-10 2.96396e-10 1.31089e-10 9.12128e-11 -4.06512e-11 -2.98906e-12 
2.90838e-11 1.10361e-10 4.18335e-11 -3.87972e-11 1.70804e-12 -8.54018e-13 8.21481e-11 1.58845e-10 7.22979e-11 
-2.32584e-11 6.99712e-12 2.77677e-12 -2.65874e-11 -3.34014e-11 -1.79966e-11 -3.50321e-11 4.7825e-11 -3.32118e-13 
-9.29797e-11 -2.33845e-10 -9.80475e-11 -1.0631e-11 4.86553e-11 2.5324e-12 7.05207e-11 1.30515e-10 6.03106e-11 
-5.84118e-11 1.79344e-11 1.66059e-13 9.68359e-11 1.95532e-10 8.77103e-11 -2.33676e-12 1.52774e-11 6.22721e-13 
1.34165e-12 1.86477e-11 5.99681e-12 -2.80442e-11 -5.739e-11 5.97812e-13 2.84359e-11 6.59063e-11 2.83027e-11 
-1.828e-11 -4.09929e-11 7.68616e-12 3.04608e-11 8.40161e-11 3.43431e-11 -2.34007e-11 -3.42912e-11 -3.64811e-12 
1.08877e-11 -9.22711e-12 4.98177e-13 4.185e-12 1.06278e-11 -9.96354e-13 4.4725e-11 1.39704e-10 5.53288e-11 
-6.71796e-11 3.60348e-11 -5.44881e-12 3.6907e-12 -2.08942e-12 4.80385e-13 1.28312e-11 1.19562e-11 -3.00241e-12 
3.7071e-11 5.08365e-11 2.63722e-11 2.78488e-11 2.15877e-11 -3.75708e-12 1.9524e-11 4.76261e-11 2.0145e-11 
-2.69116e-11 7.97083e-12 7.8878e-13 -2.85999e-11 -7.38377e-11 -3.07313e-11 -2.03804e-11 2.67355e-11 1.66059e-12 
-1.92315e-11 -6.97138e-11 -2.66836e-11 -1.5327e-11 -3.6533e-11 -1.53605e-12 -6.14017e-11 -1.35274e-10 -5.90028e-11 
5.79209e-11 1.09599e-11 1.16241e-12 -1.4846e-11 -4.56825e-11 -1.81586e-11 -2.80317e-11 -2.74994e-11 -7.56606e-13 
-4.71004e-11 -1.27884e-10 -5.24954e-11 -2.67355e-11 6.97448e-12 1.64762e-12 -6.66603e-12 -2.00072e-11 -8.00197e-12 
7.68452e-12 -2.45767e-11 -1.56718e-12 -6.45176e-11 -1.32387e-10 -5.90713e-11 2.28021e-11 -2.83961e-11 -1.97091e-12 
-6.83993e-11 -1.72861e-10 -7.2378e-11 4.74948e-12 -7.25915e-12 -3.18255e-12 -1.50789e-11 -2.22844e-11 -1.1209e-11 
3.64662e-11 8.63507e-12 -1.60221e-12 2.43649e-11 4.06057e-11 1.94912e-11 -2.81466e-11 1.52774e-11 1.10634e-12 
1.72914e-11 2.69218e-11 1.3264e-11 7.03548e-12 1.6772e-11 1.30253e-12 -2.6231e-11 -5.74361e-11 -2.51001e-11 
-7.5947e-13 2.30585e-11 -3.29597e-12 2.86759e-11 5.29006e-11 2.44729e-11 -3.33685e-11 3.18833e-11 1.55161e-12 
4.51379e-11 1.2692e-10 5.16174e-11 2.91383e-11 1.19562e-11 2.01295e-12 -1.36933e-11 -5.21075e-11 -1.97403e-11 
2.40046e-11 7.3066e-12 -3.20053e-12 -3.70506e-11 -1.07732e-10 -4.34348e-11 -7.80647e-12 -1.19562e-11 3.87644e-13 
1.72197e-12 -8.79431e-12 -2.1217e-12 1.33276e-11 1.70804e-11 5.33761e-12 1.18304e-11 4.25539e-11 1.63153e-11 
-1.9882e-11 -8.96719e-12 6.95372e-13 -6.20714e-12 -3.60134e-11 -1.26662e-11 3.61002e-12 4.18469e-12 -3.6616e-12 
1.48153e-12 -9.68069e-12 -2.45975e-12 -7.96835e-12 3.6533e-12 8.7181e-13 -1.91321e-11 -2.92326e-11 -1.45094e-11 
-1.42761e-12 4.64965e-12 8.51052e-13 -1.28819e-11 -2.79063e-11 -1.22365e-11 2.658e-11 1.1375e-11 3.10323e-12 
8.45462e-13 -1.78288e-11 -5.09499e-12 -1.71948e-11 2.038e-12 1.78325e-12 -3.60688e-11 -8.14921e-11 -3.52683e-11 
2.55101e-12 -2.5407e-11 7.73954e-13 3.96832e-11 7.05385e-11 3.30665e-11 1.39917e-11 1.07938e-11 -6.53857e-13 
9.73136e-12 3.75332e-11 1.41794e-11 5.14823e-13 5.67922e-12 -1.90553e-12 -2.00633e-11 -4.09634e-11 -1.8308e-11 
-1.93699e-13 -1.26205e-11 1.97195e-12 -1.06785e-12 -5.05558e-12 -1.83703e-12 -1.83423e-11 8.51052e-12 -3.68443e-12 
1.69843e-11 1.56392e-12 5.56446e-12 3.83619e-12 1.28103e-12 -3.92314e-12 1.21272e-11 3.78981e-11 1.50076e-11 
-6.3382e-12 1.57756e-12 2.59467e-12 -1.29293e-11 -2.57684e-11 -1.16093e-11 8.79819e-12 3.73633e-12 -4.35015e-12 
-1.36543e-11 -1.46351e-11 -8.4868e-12 -5.39411e-12 1.10222e-11 2.29517e-12 -4.62066e-12 2.96007e-12 -4.98177e-13 
2.793e-13 2.07574e-12 9.54839e-13 -1.95403e-11 1.79274e-12 -5.32427e-12 1.16909e-11 4.48359e-12 -4.81986e-12 
-6.13616e-12 -1.36871e-11 -5.94699e-12 3.93856e-12 -2.21066e-12 -1.03787e-12 1.91887e-11 9.45649e-12 8.59355e-12 
-3.39811e-13 -3.38345e-12 1.78513e-12 5.1755e-12 4.28991e-13 1.68135e-12 4.26689e-13 -3.73633e-14 1.71871e-12 
9.79808e-12 2.74531e-12 3.76302e-12 2.63399e-12 1.3344e-12 -2.50868e-12 -1.26607e-11 -4.87927e-12 -5.26199e-12 
3.01318e-12 4.61203e-13 2.92679e-12 -5.9031e-12 6.08992e-12 5.60449e-14 8.19471e-12 9.71445e-13 3.21324e-12 
2.25983e-11 1.66332e-11 1.17694e-11 -6.78453e-13 3.75708e-12 9.54839e-13 5.34012e-12 -5.67979e-12 -1.019e-13 
3.59899e-13 2.038e-12 -3.26079e-12 1.20748e-11 6.70419e-11 2.3735e-11 3.89832e-11 -4.7825e-12 -5.67922e-12 
-9.93855e-12 -1.63714e-11 -7.89299e-12 -1.82021e-12 -1.02749e-12 -3.11361e-12 -1.07094e-11 -2.09715e-11 -9.50428e-12 
2.37397e-12 -1.86816e-13 2.25736e-12 2.27509e-10 5.05434e-10 2.19883e-10 -7.86295e-11 1.59417e-11 2.2418e-12 
-9.62484e-12 -2.95028e-11 -1.17383e-11 -1.77249e-12 9.96354e-13 -1.0223e-12 3.25995e-11 1.05126e-10 4.13176e-11 
-2.26813e-11 -2.92264e-11 -8.30295e-12 1.1364e-10 2.3644e-10 1.05024e-10 2.52383e-11 -1.09588e-11 5.45187e-12 
-1.02528e-12 1.10312e-12 2.3352e-14 -3.74276e-12 -4.17223e-12 -3.54951e-12 -1.65902e-11 -4.66604e-11 -1.89752e-11 
5.3002e-12 -2.4553e-12 -7.52603e-12 -1.22661e-11 -3.81347e-12 -4.82387e-12 2.86216e-12 5.55779e-12 -7.87298e-13 
3.12531e-12 5.20359e-12 2.49867e-12 -2.13582e-12 -1.08353e-11 -9.08084e-13 -2.09241e-11 -3.09953e-11 -1.55758e-11 
-1.52785e-11 -3.98542e-11 -8.84264e-12 6.19609e-12 1.5488e-11 6.50521e-12 6.06315e-12 -1.41447e-12 -1.26768e-13 
-5.80548e-11 -1.84073e-10 -7.26382e-11 2.27707e-12 8.54018e-13 1.76141e-12 -2.20814e-12 7.41231e-12 1.56125e-12 
2.16748e-12 -4.27009e-13 -1.70804e-12 -2.18172e-10 -4.50897e-10 -2.00721e-10 9.56935e-11 -1.36643e-11 1.22785e-25 
-3.07123e-11 -2.54105e-12 -9.97599e-12 -3.55363e-12 9.565e-12 1.09848e-11 9.04353e-12 -2.22473e-12 2.04564e-12 
-1.22083e-12 -5.97812e-13 -3.28797e-12 -3.35665e-11 4.38414e-11 3.08247e-12 -7.32885e-11 -2.78979e-11 7.97083e-12 
4.36626e-12 1.29662e-11 5.19972e-12 -1.82308e-12 -2.75035e-13 -4.04769e-13 1.1552e-12 1.24672e-12 7.20577e-13 
3.0682e-12 -1.22765e-12 7.47265e-13 8.01592e-11 2.19881e-10 9.00121e-11 -2.71425e-11 6.83214e-12 -6.40513e-12 
2.17057e-11 2.02431e-11 1.25846e-11 -2.86501e-12 -8.83132e-13 -5.43466e-13 6.032e-12 8.19946e-14 1.8342e-12 
-1.78033e-12 1.69833e-12 -3.39666e-12 -3.18566e-12 4.37478e-14 -9.42573e-13 2.29255e-12 7.13299e-13 1.29073e-12 
-3.54124e-12 1.24849e-12 -6.87824e-13 -2.74766e-12 2.71733e-13 -2.51353e-12 6.4563e-12 2.71468e-12 2.7513e-12 
-2.97269e-12 2.75979e-14 2.10593e-12 9.21443e-12 4.54205e-12 4.12694e-12 7.6815e-13 -1.86816e-13 -1.9361e-12 
1.40369e-11 7.95643e-12 6.59801e-12 -2.22631e-13 -8.57657e-13 1.18883e-12 1.94108e-12 6.72041e-12 2.59845e-12 
-3.03683e-12 5.60449e-13 3.77029e-12 -2.98101e-12 -4.40672e-12 -2.21632e-12 1.59927e-12 -9.51065e-13 4.24583e-12 
5.235e-12 -1.83834e-12 1.019e-12 1.48745e-12 3.09096e-12 3.73633e-13 1.56764e-11 1.47237e-11 9.12004e-12 
1.55113e-12 1.59643e-12 -1.86816e-12 5.39612e-12 1.22737e-12 1.98705e-12 -7.27836e-12 -4.75533e-12 -2.37766e-12 
2.97643e-12 -6.11834e-12 -9.42573e-13 3.88974e-13 2.8532e-12 -8.96719e-12 -1.49431e-12 1.77134e-11 4.86572e-12 
-1.27132e-11 6.18192e-12 3.94013e-12 -1.5259e-11 -1.06405e-11 -7.76986e-12 4.55775e-12 -4.00806e-12 -4.40615e-28 
7.08643e-13 2.78233e-11 8.55959e-12 -1.14606e-11 -4.07599e-13 1.7323e-12 -1.03581e-11 -1.53717e-11 -7.71891e-12 
-2.75728e-12 -5.77432e-12 -2.1399e-12 -1.66891e-11 -3.08642e-11 -1.4266e-11 2.24004e-12 -7.06506e-12 1.90213e-12 
2.66082e-11 2.11998e-11 1.43424e-11 -2.08544e-12 -2.71733e-12 -1.56246e-12 -4.59525e-11 -4.01528e-11 -2.58316e-11 
1.29956e-11 -1.35866e-13 -2.17386e-12 1.18437e-11 6.32841e-12 5.45164e-12 -2.28959e-11 7.74439e-12 3.43063e-12 
-6.54884e-12 -4.00703e-11 -1.39858e-11 8.32138e-12 -8.28785e-12 2.038e-13 7.71659e-12 3.85629e-11 1.38839e-11 
-2.88205e-11 -6.79332e-13 -8.15199e-13 2.25994e-11 2.67371e-11 1.4801e-11 1.14081e-11 -5.16293e-12 2.10593e-12 
-9.96329e-12 1.25957e-11 7.89724e-13 7.0838e-13 -2.17386e-12 -2.4456e-12 1.63639e-11 1.7233e-12 5.42617e-12 
1.02363e-11 -2.71733e-13 3.66839e-12 3.88118e-12 -7.87226e-12 -1.19732e-12 -2.43115e-11 -5.97812e-12 3.80426e-12 
-1.0377e-11 -1.99382e-11 -9.09456e-12 1.2604e-11 5.43466e-13 -5.16293e-12 -3.4696e-11 -5.80914e-12 -1.21516e-11 
-5.64195e-12 -1.24997e-11 1.8342e-12 3.70161e-11 1.33394e-11 1.51067e-11 -1.77558e-11 7.88025e-12 2.78526e-12 
-4.60124e-11 -6.01333e-11 -3.18437e-11 7.74151e-12 -9.37479e-12 -3.057e-12 -1.17839e-11 -1.45402e-11 -7.89724e-12 
-1.34638e-11 7.74439e-12 1.49453e-12 -2.17819e-11 -1.93177e-11 -1.23299e-11 -2.46164e-11 7.06506e-12 1.90213e-12 
3.19596e-11 5.27871e-11 2.5424e-11 4.42949e-12 1.08693e-11 -3.39666e-12 1.14346e-11 6.30372e-11 2.23415e-11 
9.93558e-12 2.98906e-11 2.4456e-12 8.33617e-14 -1.4689e-11 -4.38169e-12 -5.93772e-12 8.69545e-12 1.07334e-11 
-5.60183e-11 -1.0371e-10 -4.79184e-11 3.08701e-11 5.70639e-12 -2.038e-12 1.34776e-11 3.77271e-11 1.53614e-11 
1.83182e-11 5.43466e-13 2.10593e-12 6.04802e-11 8.03115e-11 4.22375e-11 -4.52469e-12 -8.69545e-12 5.43466e-13 
1.21003e-11 3.28206e-11 1.34763e-11 -2.46346e-12 5.43466e-12 -3.66839e-12 4.90321e-11 7.63896e-11 3.76265e-11 
5.61509e-13 2.71733e-11 9.78238e-12 -2.3854e-11 -5.22312e-11 -2.28256e-11 -6.89516e-12 3.26079e-12 -3.12493e-12 
1.44017e-12 -1.06112e-11 -2.7513e-12 -3.41418e-12 9.23892e-12 3.26079e-12 -1.69283e-11 -1.95858e-11 -1.09542e-11 
1.1946e-11 2.98906e-11 1.6304e-12 -4.32832e-12 5.60425e-11 1.55143e-11 7.99868e-13 2.28256e-11 8.15199e-13 
4.99275e-11 -1.23944e-11 1.12599e-11 -1.13543e-12 2.71733e-11 -6.79332e-13 -3.8891e-11 -4.01663e-11 -2.37172e-11 
2.87506e-11 9.78238e-12 -5.29879e-12 -4.6353e-11 -1.0276e-10 -4.4734e-11 -2.80815e-11 2.038e-11 -1.8342e-12 
-3.75527e-13 -1.2362e-11 -3.82124e-12 -3.29544e-11 3.04341e-11 -4.34773e-12 -2.66712e-11 -9.14477e-11 -3.54357e-11 
1.15728e-11 2.28256e-11 4.27979e-12 -6.33519e-11 -8.729e-11 -4.51926e-11 -1.43447e-11 2.3369e-11 -1.35866e-13 
4.64342e-11 4.24734e-11 2.66723e-11 -1.51167e-11 3.53253e-11 4.07599e-13 3.01122e-11 1.84601e-11 1.45717e-11 
1.68141e-11 1.79344e-11 2.30973e-12 -2.94794e-11 -9.38194e-11 -3.69896e-11 -5.38483e-11 4.13034e-11 -1.35866e-12 
-4.8394e-11 -1.49377e-10 -5.93312e-11 1.01746e-11 4.99989e-11 -4.07599e-12 4.27695e-11 3.52688e-11 2.34115e-11 
2.30553e-11 3.1521e-11 9.51065e-13 3.95962e-11 4.69337e-11 2.5959e-11 -2.26735e-12 1.84778e-11 -2.71733e-12 
-1.02321e-10 -2.39553e-10 -1.02562e-10 -7.55891e-12 -2.69016e-11 4.48359e-12 2.17835e-11 9.58259e-11 3.52828e-11 
-4.56778e-11 -1.30432e-11 3.53253e-12 1.12055e-10 2.31008e-10 1.02919e-10 -8.10489e-12 -1.08693e-12 7.47266e-12 
-6.7164e-11 -1.1736e-10 -5.53571e-11 -3.59743e-12 3.26079e-11 6.52159e-12 -6.10317e-11 -4.11229e-11 -3.06464e-11 
1.7271e-11 6.52159e-12 5.16293e-12 1.03492e-10 2.47128e-10 1.05186e-10 -6.97406e-11 -1.08693e-11 1.76626e-12 
4.00703e-11 1.03693e-10 4.31291e-11 1.21865e-11 -5.46183e-11 -7.26886e-12 8.70354e-11 1.24831e-10 6.356e-11 
-1.15861e-11 -3.58687e-11 -1.13448e-11 -3.03527e-11 -1.26658e-10 -4.71032e-11 -8.65148e-12 -2.17386e-11 1.6304e-12 
-3.48194e-11 -6.35139e-11 -2.95e-11 1.95063e-12 -1.08693e-12 -4.48359e-12 -4.57463e-11 -1.50581e-10 -5.88981e-11 
7.22081e-11 4.18469e-11 -5.02706e-12 -6.26695e-11 -1.17099e-10 -5.39305e-11 -2.91596e-11 -2.88037e-11 6.79332e-13 
1.63009e-10 2.16653e-10 1.13899e-10 -3.9193e-11 2.47277e-11 -8.83132e-13 -3.55575e-11 -3.86596e-11 -2.22651e-11 
5.77024e-12 8.47807e-11 -3.80426e-12 -1.67308e-12 -3.12745e-11 -9.88428e-12 7.11797e-11 1.01628e-10 2.35049e-11 
1.03556e-11 -5.40876e-11 -1.31196e-11 -5.31671e-11 2.98906e-11 4.89119e-12 -4.0282e-11 -9.25274e-11 -3.98428e-11 
9.02384e-12 3.1521e-11 8.96719e-12 1.68543e-12 1.28353e-11 4.35622e-12 3.70405e-11 2.82602e-11 7.74439e-12 
1.1922e-10 3.22431e-10 1.32495e-10 -3.47887e-11 4.13034e-11 2.038e-12 9.46832e-11 8.69533e-11 5.44909e-11 
4.95258e-11 6.3042e-11 8.69545e-12 5.50696e-11 1.69789e-10 6.74577e-11 4.30662e-11 1.15215e-10 -1.35866e-11 
7.65651e-11 1.73429e-10 7.49983e-11 -1.20467e-10 -4.7825e-11 -7.60852e-12 -4.26321e-11 -1.71443e-10 -6.42224e-11 
6.29109e-11 -6.3042e-11 1.08693e-12 -1.89579e-13 -3.64944e-11 -1.10052e-11 5.43854e-11 1.30432e-11 -8.69545e-12 
8.9878e-11 2.58704e-10 1.04575e-10 2.94444e-12 -2.82602e-11 -6.79332e-12 -5.90818e-11 -1.36906e-10 -5.87962e-11 
5.74421e-13 -4.23903e-11 -8.96719e-12 -1.88814e-11 -5.57452e-12 -7.33679e-12 3.38108e-11 -2.17386e-11 5.16293e-12 
4.23794e-11 7.20031e-11 3.43148e-11 -2.31275e-11 1.08693e-11 -1.46736e-11 4.45803e-11 1.18083e-10 4.87991e-11 
-1.22441e-10 6.40513e-11 -4.6971e-12 -4.11439e-11 -8.10132e-11 -3.66471e-11 3.94437e-11 4.64965e-11 -1.76023e-11 
2.10962e-11 7.16893e-11 2.78356e-11 -2.95648e-11 1.32847e-12 5.64601e-12 -1.61003e-11 -2.32245e-11 -1.17975e-11 
-1.90108e-11 4.27436e-11 1.38991e-11 -1.97087e-10 -3.80516e-10 -1.73281e-10 5.58985e-11 6.08682e-11 5.57052e-12 
-7.97524e-12 1.32401e-11 1.57945e-12 -7.98495e-11 1.19562e-11 -8.69545e-12 -1.18201e-10 -2.16455e-10 -1.00397e-10 
3.61752e-11 2.77168e-11 1.15486e-12 8.69282e-11 1.27911e-10 6.44517e-11 -6.65486e-11 -7.71721e-11 -1.18204e-11 
8.44329e-11 1.52824e-10 7.1177e-11 3.61584e-11 9.23892e-12 3.39666e-13 -1.52988e-10 -3.20167e-10 -1.41946e-10 
3.86434e-12 2.39125e-11 3.39666e-12 -1.42558e-10 -2.69881e-10 -1.23732e-10 1.94414e-11 6.08682e-11 3.60046e-12 
-8.10181e-12 -4.48861e-11 -1.58964e-11 1.1057e-12 1.5217e-11 3.39666e-12 1.30939e-10 2.23418e-10 1.06307e-10 
6.34955e-11 -1.19562e-11 -4.27979e-12 5.99284e-11 7.55135e-11 4.06326e-11 -6.53024e-11 3.1521e-11 8.76339e-12 
-1.5118e-11 -3.95683e-11 -1.64059e-11 1.20951e-10 -1.84778e-11 -3.87219e-12 4.66236e-11 1.14718e-10 4.84024e-11 
-5.50627e-11 5.43466e-13 -1.13109e-11 -4.21639e-11 -7.23036e-11 -3.43402e-11 -2.62878e-11 -1.73909e-11 1.18883e-12 
4.77378e-11 8.66851e-11 4.03269e-11 5.54141e-11 9.23892e-12 -5.70639e-12 2.99996e-11 9.41484e-11 3.72444e-11 
4.36821e-12 1.68474e-11 5.77432e-12 7.75551e-11 1.8679e-10 7.93035e-11 -2.28266e-12 -6.84767e-11 -9.78238e-12 
9.78872e-11 1.97707e-10 8.86783e-11 2.57342e-11 -8.26068e-11 1.18883e-12 -4.95044e-11 -1.59135e-10 -6.2592e-11 
-3.86892e-11 -6.52159e-11 -6.45366e-12 -2.76898e-11 -5.54435e-11 -2.494e-11 3.29969e-11 -3.26079e-11 -7.71042e-12 
2.96849e-11 6.36383e-11 2.7997e-11 -5.26487e-11 -7.49983e-11 -7.94819e-12 2.27322e-11 2.21886e-11 1.34763e-11 
2.07959e-12 -1.5217e-11 -9.57859e-12 4.3133e-11 4.26327e-11 2.57297e-11 3.51269e-11 -1.30432e-11 2.30973e-12 
-1.45663e-11 1.23585e-11 -6.62349e-13 -1.59654e-11 1.41301e-11 -2.10593e-12 3.7229e-11 8.90419e-11 3.78813e-11 
-2.22193e-11 -2.20104e-11 6.28382e-13 1.32219e-10 2.08976e-10 1.02358e-10 3.64582e-11 -3.61405e-11 -2.12291e-12 
-1.74973e-11 -1.06101e-11 -8.43221e-12 -2.03686e-11 -1.73909e-11 -4.75533e-13 -1.66851e-11 -2.41597e-11 -1.22535e-11 
-3.05881e-11 1.49453e-11 -1.3247e-12 8.32459e-11 2.32474e-10 9.47159e-11 -5.89555e-11 -1.5217e-11 -3.60046e-12 
-9.39377e-12 -3.09416e-11 -1.21006e-11 7.8092e-11 -1.84778e-11 -5.26483e-12 7.57832e-11 1.46613e-10 6.67189e-11 
-3.46814e-11 -2.60864e-11 -1.2228e-12 -3.61375e-11 -1.15948e-10 -4.56257e-11 -9.57279e-12 2.52712e-11 -4.58549e-12 
-5.32878e-11 -4.7678e-11 -3.02897e-11 1.09894e-11 1.24997e-11 4.07599e-13 3.97742e-11 5.72005e-11 2.90924e-11 
8.26027e-11 -3.80426e-12 -2.92113e-12 2.591e-12 1.82136e-11 6.24137e-12 -4.00162e-11 -4.34773e-12 -2.92113e-12 
-2.80942e-11 -6.76067e-11 -2.87103e-11 2.37076e-11 -4.72815e-11 -1.61341e-12 -4.10667e-11 -1.05075e-10 -4.38424e-11 
-9.80112e-12 -1.98365e-11 1.56246e-12 6.17641e-11 1.38979e-10 6.02228e-11 -1.53542e-11 -2.25538e-11 -3.02303e-12 
4.473e-11 1.04638e-10 4.48105e-11 1.13718e-12 -1.9293e-11 -3.36269e-12 1.64348e-11 3.40905e-11 1.51576e-11 
1.41383e-11 -3.42383e-11 -1.49453e-12 -2.6406e-11 -4.90848e-11 -2.26472e-11 4.61681e-11 -1.90213e-11 -1.4266e-12 
3.49644e-11 7.74651e-11 3.37288e-11 -6.54384e-12 9.51065e-12 -5.80829e-12 4.39562e-11 9.00421e-11 4.01995e-11 
-2.20675e-11 9.23892e-12 -2.70035e-12 -3.66207e-11 -4.17573e-11 -2.35134e-11 7.58145e-12 -4.02165e-11 3.73633e-13 
-9.58254e-12 -2.04779e-11 -9.01814e-12 3.05363e-11 1.33149e-11 1.29922e-12 -8.41669e-12 -7.12304e-12 -4.66192e-12 
1.75575e-11 -1.30432e-11 7.7274e-13 5.5796e-11 8.27878e-11 4.15751e-11 -3.28255e-11 -1.65757e-11 2.87018e-12 
-2.98803e-11 -4.75636e-11 -2.32332e-11 1.26117e-11 -3.53253e-12 -2.59845e-12 -3.65647e-11 -4.58043e-11 -2.47107e-11 
-1.75226e-12 -4.07599e-12 -1.29073e-12 -6.697e-12 -4.28093e-11 -1.48519e-11 -6.58723e-12 1.73909e-11 -1.7323e-12 
2.99604e-12 8.21294e-12 3.36269e-12 3.7426e-11 -8.96719e-12 -8.15199e-13 1.53887e-11 2.57109e-11 1.23299e-11 
-1.71812e-11 -3.5597e-11 -1.13788e-12 -5.26863e-12 -6.53477e-12 -3.54102e-12 -3.56831e-11 -1.08693e-12 -1.53699e-12 
-7.20985e-12 -4.81557e-11 -1.66097e-11 3.62735e-11 7.88025e-12 1.11241e-12 5.55486e-11 1.42307e-10 5.93567e-11 
-6.74919e-12 -2.47277e-11 -6.70841e-13 -3.28056e-12 -1.87128e-11 -6.59801e-12 -2.33464e-11 -2.8532e-12 -2.25241e-12 
-1.75431e-11 -4.65689e-11 -1.92336e-11 6.80174e-12 2.98906e-12 -1.31196e-12 2.8749e-11 7.06034e-11 2.98057e-11 
3.41707e-12 -1.12769e-11 -1.04447e-12 3.30981e-11 6.39615e-11 2.91179e-11 2.3668e-11 6.92919e-12 -2.98482e-12 
-9.8911e-13 -9.71037e-12 -3.20984e-12 -2.7809e-11 -9.37479e-12 -1.83844e-12 -1.06527e-11 -2.14458e-11 -9.62954e-12 
2.1285e-11 -1.24997e-11 -4.17577e-12 -5.88491e-12 -2.12035e-11 -8.12651e-12 3.50512e-12 -2.36408e-11 -1.32576e-12 
-5.05449e-12 -2.13546e-11 -7.92271e-12 2.43647e-11 7.47266e-12 -1.58529e-12 1.32772e-11 1.58492e-11 8.73791e-12 
1.17229e-11 2.11952e-11 1.06146e-13 -5.46377e-12 1.27666e-11 2.19085e-12 -2.36128e-12 1.12769e-11 -1.23978e-12 
1.0133e-11 2.98627e-11 1.19987e-11 1.63651e-12 9.51065e-13 -1.08269e-13 1.92298e-12 -2.76527e-11 -7.71891e-12 
-4.41419e-12 -1.2228e-11 -2.02526e-12 -8.42068e-15 8.58499e-12 2.57297e-12 1.42118e-11 9.78238e-12 -1.10391e-12 
-2.33398e-12 -1.02337e-11 -3.77029e-12 -1.19234e-11 7.33679e-12 -2.29275e-13 -1.94569e-11 -5.55244e-11 -2.24944e-11 
1.06933e-12 4.61946e-12 -5.26483e-13 8.14371e-12 1.43592e-11 6.75086e-12 -3.51405e-12 -5.43466e-12 -3.00605e-12 
-7.16909e-14 1.59511e-11 4.76382e-12 1.35271e-11 -1.45377e-11 -9.85032e-13 1.843e-11 3.753e-11 1.6788e-11 
-1.31845e-11 -4.07599e-13 -3.39666e-13 2.27287e-11 2.11732e-11 1.31706e-11 5.0641e-12 6.58952e-12 -7.47265e-13 
-1.49611e-11 -1.22122e-11 -8.15199e-12 8.84715e-12 -3.057e-12 -7.47265e-13 -4.7758e-12 -1.22924e-11 -5.12047e-12 
1.08747e-12 -2.78526e-12 -7.98215e-13 -1.49155e-12 -2.3389e-11 -7.46416e-12 2.43264e-12 2.10593e-12 2.5475e-13 
-2.62414e-11 -3.00583e-11 -1.68899e-11 5.69786e-12 3.80426e-12 -1.69833e-12 2.74376e-12 6.17248e-12 2.67487e-12 
-3.14937e-12 -1.2228e-12 -2.2418e-12 3.0854e-12 -1.60776e-11 -3.89767e-12 9.17865e-13 -3.66839e-12 -4.75533e-13 
-2.75944e-12 8.91274e-13 -5.60449e-13 -2.82869e-12 -1.08693e-12 5.43466e-13 -1.78767e-11 -1.16743e-11 -8.86529e-12 
2.28518e-13 1.4266e-12 -3.22683e-12 1.38726e-11 1.86505e-11 9.75691e-12 -4.35246e-12 -1.59643e-12 -3.19286e-12 
-1.17547e-11 -7.86101e-12 -5.88472e-12 4.73333e-12 -1.25676e-12 -1.90213e-12 1.19182e-11 9.31089e-12 6.36874e-12 
4.15938e-13 5.26483e-13 -4.04203e-12 -1.64899e-11 -5.58842e-12 -6.62349e-12 -8.24645e-13 9.97769e-14 -2.2418e-12 
3.60029e-12 9.85208e-13 1.37565e-12 -3.07209e-12 1.86816e-13 2.00403e-12 1.38621e-11 7.43546e-13 4.38169e-12 
2.49095e-13 4.07599e-13 8.49165e-13 3.84783e-12 4.97406e-12 2.64657e-12 -2.95611e-12 -6.64236e-13 -7.49341e-12 
3.25628e-12 8.79338e-12 3.6149e-12 4.31983e-12 -5.97812e-13 -5.97812e-13 -2.31849e-11 -7.17278e-12 -9.1073e-12 
-3.75556e-12 -4.98177e-13 2.73997e-12 2.57038e-11 1.97159e-11 1.36259e-11 -4.66828e-11 -4.03523e-11 7.16908e-12 
2.80709e-12 1.34438e-12 1.24544e-12 3.26086e-12 2.15877e-12 -5.81207e-13 3.65898e-11 5.19782e-11 2.65704e-11 
7.45825e-11 -8.12481e-11 -9.51065e-12 -3.54738e-12 6.76477e-12 9.65218e-13 2.90692e-12 6.64236e-13 -1.57756e-12 
3.09452e-11 3.45443e-11 1.96469e-11 6.50958e-13 -1.06278e-11 2.72337e-11 -1.59239e-12 -1.50343e-11 -4.988e-12 
-1.54561e-13 1.86816e-12 -2.98906e-12 5.76845e-11 1.26703e-10 5.53163e-11 -2.79989e-11 -5.97812e-12 6.72539e-12 
6.19314e-13 -9.31346e-12 -2.60824e-12 -6.1656e-12 -4.02374e-12 5.7482e-13 -2.98189e-11 -4.66321e-11 -2.29353e-11 
-3.02067e-11 -7.35769e-12 1.95439e-12 6.18541e-11 2.2907e-10 8.72772e-11 -1.96848e-11 -5.65204e-11 -1.6304e-11 
6.82486e-12 7.33007e-12 4.24648e-12 5.76975e-13 -5.7482e-13 5.7482e-14 1.7826e-11 1.29987e-11 9.24741e-12 
-1.60805e-13 -1.58794e-12 -2.04979e-12 2.40303e-11 8.27664e-11 3.2039e-11 -5.29779e-11 5.31389e-12 3.98542e-12 
1.14291e-12 -8.4988e-12 -2.20677e-12 -3.51077e-12 1.20263e-12 1.99076e-12 4.0639e-12 2.94172e-12 2.10168e-12 
1.95241e-13 -2.49089e-13 3.73633e-13 5.85559e-12 8.467e-12 4.29678e-12 2.2907e-12 -9.96354e-13 2.49089e-13 
-1.53657e-12 2.78201e-12 3.73633e-13 -5.28905e-13 -9.65218e-13 -2.42861e-12 3.01009e-12 1.58248e-12 1.37777e-12 
-8.73613e-13 -4.92339e-13 -1.49453e-12 2.63742e-12 -3.80057e-13 6.77209e-13 -3.69193e-12 -2.56873e-13 3.11361e-13 
-1.03907e-11 -4.71027e-12 -4.5303e-12 -3.36925e-14 -2.17952e-13 -1.74362e-12 5.51998e-12 3.04243e-12 2.56873e-12 
4.96653e-12 -3.11361e-13 -3.42497e-12 -2.4793e-12 -5.53824e-12 -2.40526e-12 5.20325e-13 2.80225e-13 -1.60351e-12 
1.09904e-11 1.64872e-11 8.24327e-12 2.71416e-12 9.34082e-13 -6.22721e-13 7.83078e-12 1.59883e-11 7.14573e-12 
1.22792e-13 -2.02384e-13 -1.75919e-12 -9.37703e-12 -1.46756e-11 -7.21578e-12 6.61607e-13 2.41304e-12 1.63464e-12 
-1.85337e-14 1.03046e-12 3.03577e-13 4.40589e-12 -4.98177e-12 4.17223e-12 7.69107e-12 -2.7093e-12 1.49453e-12 
-1.85129e-12 -1.02749e-11 7.9397e-13 1.65971e-11 1.15045e-12 5.32427e-12 5.72407e-12 -4.48359e-12 9.96354e-13 
9.87569e-12 -6.37288e-12 1.05084e-12 -6.02477e-12 4.51473e-12 -1.15203e-12 -6.85584e-12 8.95752e-12 6.30505e-13 
-4.29872e-12 1.49453e-12 -3.73633e-12 -7.31274e-12 1.04263e-11 9.34082e-13 -2.00642e-12 -6.35176e-12 -1.69692e-12 
-1.02993e-11 -1.67112e-11 -8.10316e-12 -6.26282e-13 -5.23086e-12 5.60449e-13 1.96406e-11 9.78303e-12 8.82707e-12 
8.94805e-12 -1.36999e-11 -2.36634e-12 5.41103e-12 1.31149e-11 5.55779e-12 1.06463e-11 1.5568e-12 -2.73997e-12 
1.21359e-11 -1.93885e-12 3.05912e-12 -8.83486e-12 4.2345e-12 -3.23815e-12 -1.07267e-11 -5.17789e-11 -1.87517e-11 
7.89721e-12 9.96354e-13 -1.49453e-12 -2.98398e-12 -2.08351e-11 -7.14573e-12 2.27213e-12 9.34082e-12 -1.65021e-12 
3.56484e-12 2.72599e-11 9.24741e-12 6.46026e-12 1.89307e-11 -3.90434e-27 1.60951e-11 3.82373e-11 1.62997e-11 
1.18944e-11 -6.10267e-12 -2.77111e-12 -7.36062e-12 -2.08175e-11 -8.45344e-12 -5.7902e-12 -4.2345e-12 -1.74362e-12 
3.73574e-11 6.84273e-11 3.17354e-11 1.4721e-12 9.96354e-13 -2.98906e-12 3.3781e-11 4.74063e-11 2.43562e-11 
9.45516e-12 -8.59355e-12 -1.77476e-12 3.31705e-11 7.81409e-11 3.33934e-11 2.04622e-11 -9.96354e-12 -1.49453e-12 
-4.70182e-12 -2.95478e-11 -1.02749e-11 -3.73525e-12 -1.00436e-25 1.99271e-12 -6.43498e-11 -1.04096e-10 -5.05338e-11 
-1.59306e-11 -2.49089e-13 1.27658e-12 1.40758e-11 8.03076e-12 6.63198e-12 -6.34325e-12 1.1209e-11 -5.63563e-12 
2.97275e-11 2.83413e-11 1.74206e-11 -7.37627e-12 9.46536e-12 -4.85723e-12 -2.27652e-11 -4.07524e-11 -1.90553e-11 
6.34534e-12 1.99271e-12 4.98177e-13 3.90591e-11 8.04256e-11 3.58454e-11 -4.49414e-12 1.07108e-11 -3.0202e-12 
5.18034e-12 5.1724e-12 3.10582e-12 -2.12495e-11 -5.85358e-12 -4.577e-12 4.01349e-11 7.41344e-11 3.42808e-11 
1.94531e-11 -5.97812e-12 -2.98906e-12 -1.91649e-11 -2.49704e-11 -1.32406e-11 7.26053e-13 -8.96719e-12 -2.49089e-13 
-6.47867e-12 -2.93428e-13 -2.03163e-12 -2.01197e-11 -4.35905e-12 -1.77476e-12 6.88565e-12 2.72862e-11 1.02515e-11 
-3.61306e-12 -1.1209e-12 2.30407e-12 -1.58253e-11 -4.13872e-11 -1.71638e-11 -6.22724e-12 -1.90553e-11 3.82974e-12 
-8.33237e-12 8.72157e-12 1.1676e-13 6.12222e-12 -9.71445e-12 6.25835e-12 3.48697e-11 6.55441e-11 3.01241e-11 
1.27727e-11 6.72539e-12 -9.34082e-14 1.4193e-11 5.00251e-11 1.92654e-11 -2.58782e-11 -1.19562e-11 -3.48724e-12 
4.80419e-12 1.93263e-11 7.23913e-12 -2.20032e-11 -7.97083e-12 1.99271e-12 -4.26144e-13 -4.03621e-11 -1.22365e-11 
1.99952e-11 -4.52364e-26 -4.98177e-12 -1.64446e-11 -8.42805e-11 -3.02175e-11 -7.18625e-12 -5.97812e-12 -6.97448e-12 
7.27965e-12 2.36229e-11 9.27076e-12 -2.50544e-12 -1.19562e-11 -2.49088e-12 7.69731e-13 4.30543e-11 1.31472e-11 
-1.69277e-11 5.97812e-12 -8.46901e-12 -3.83046e-11 -6.81029e-11 -3.19222e-11 5.28482e-12 1.29526e-11 -1.05863e-12 
1.82572e-11 3.59195e-11 1.6253e-11 -1.07271e-11 2.09234e-11 5.41767e-12 7.24816e-11 1.41267e-10 6.41247e-11 
-1.76305e-11 1.36999e-11 -4.42132e-12 6.92788e-11 2.0106e-10 8.11017e-11 1.51563e-11 1.49453e-11 5.3554e-12 
1.02573e-10 2.36499e-10 1.01722e-10 2.07126e-11 6.4763e-12 4.10996e-12 8.44473e-11 1.29924e-10 6.43115e-11 
3.46824e-11 -7.47265e-13 8.09538e-13 8.22047e-11 2.42622e-10 9.74481e-11 1.18889e-11 2.2418e-12 3.73633e-12 
1.04431e-10 2.21563e-10 9.77984e-11 -3.84949e-11 -8.7181e-12 -1.74362e-12 5.99122e-11 1.40993e-10 6.02716e-11 
2.38196e-11 -1.89307e-11 1.74362e-12 6.46165e-11 1.66802e-10 6.94256e-11 1.4135e-11 4.58323e-11 5.72904e-12 
1.00127e-10 2.49843e-10 1.04991e-10 2.09849e-11 -3.98542e-12 -5.23086e-12 8.14637e-11 1.83893e-10 7.96071e-11 
5.89571e-11 -1.3949e-11 -2.73997e-12 7.89363e-11 1.71476e-10 7.51235e-11 -4.28533e-12 2.88943e-11 -4.98177e-13 
6.63573e-11 1.13298e-10 5.38965e-11 -9.90545e-12 4.95686e-11 2.36634e-12 4.37879e-11 1.06911e-10 4.52096e-11 
-1.08592e-11 3.36269e-11 3.11361e-12 -2.14456e-11 -6.40229e-11 -2.56405e-11 -2.96623e-11 4.93195e-11 -1.06485e-11 
7.05756e-11 1.89722e-10 7.80892e-11 7.41032e-11 5.72904e-11 1.02749e-11 4.40683e-11 9.83792e-11 4.27342e-11 
-4.71931e-12 -6.67776e-26 7.47265e-13 5.73584e-11 9.64538e-11 4.61436e-11 3.6707e-12 -3.18833e-11 -1.32017e-11 
6.23789e-11 1.72465e-10 7.04531e-11 3.6926e-11 1.14581e-11 1.05863e-12 1.16954e-10 1.95885e-10 9.38519e-11 
4.57761e-11 7.47266e-12 4.54586e-12 1.88664e-10 4.14286e-10 1.80885e-10 5.02177e-11 -2.39125e-11 7.47265e-13 
2.04927e-10 3.8767e-10 1.77779e-10 4.21913e-11 2.19198e-11 -3.98542e-12 1.0592e-10 2.90831e-10 1.19025e-10 
9.1415e-12 3.0887e-11 -3.48724e-12 -7.53965e-12 -7.56134e-12 -4.5303e-12 1.74503e-11 -2.69016e-11 -4.48359e-12 
1.74856e-10 3.34686e-10 1.52863e-10 4.24686e-11 2.39125e-11 -9.96354e-13 2.34761e-10 5.1881e-10 2.26071e-10 
5.48219e-11 5.57958e-11 5.14295e-26 1.55674e-10 3.34953e-10 1.47188e-10 -1.00132e-12 3.23815e-12 -1.0524e-11 
2.95388e-11 5.32831e-11 2.48466e-11 1.96802e-11 3.51215e-11 3.42497e-12 -2.95252e-12 -2.57413e-12 -1.658e-12 
9.9889e-12 8.19501e-11 1.42603e-11 7.34922e-11 1.00091e-10 5.20751e-11 6.47737e-11 -1.24544e-11 -8.28219e-12 
2.39695e-12 4.66423e-11 1.47118e-11 -6.03182e-11 -1.86816e-11 -6.22721e-13 1.01896e-11 4.78013e-11 1.73973e-11 
-4.82972e-11 2.78979e-11 1.59417e-11 -3.22308e-13 2.16505e-11 6.39846e-12 2.63812e-11 3.18833e-11 5.97812e-12 
1.03998e-10 2.4527e-10 1.04781e-10 1.57426e-11 5.18104e-11 2.98906e-12 3.41231e-11 1.41796e-10 5.27756e-11 
6.47823e-11 -2.2418e-12 1.61908e-12 -2.88729e-11 -1.118e-10 -4.22018e-11 3.95479e-12 -6.00801e-11 -9.71445e-12 
8.26569e-11 1.28446e-10 6.33308e-11 1.01639e-12 4.90206e-11 6.27703e-12 5.68699e-11 8.95941e-11 4.39392e-11 
1.90133e-11 -4.85909e-11 -1.29557e-11 1.8802e-10 3.73013e-10 1.6831e-10 6.33105e-11 -7.77156e-11 2.09234e-11 
-9.25366e-11 -1.34165e-10 -6.80105e-11 -1.30679e-10 2.83961e-11 1.61409e-11 8.47025e-11 1.7326e-10 7.73887e-11 
2.81004e-12 2.04253e-11 2.58429e-12 1.76515e-10 4.4208e-10 1.85579e-10 3.31487e-11 -3.23815e-12 1.08976e-12 
1.79582e-10 3.55413e-10 1.60499e-10 3.34246e-11 -1.99271e-11 1.99271e-12 1.07159e-10 2.15255e-10 9.67242e-11 
3.33921e-11 -7.97083e-12 8.46901e-12 -9.13276e-11 -1.92244e-10 -8.50715e-11 -2.51093e-11 -4.7825e-11 -3.98542e-12 
-3.85109e-11 -9.65417e-11 -4.05158e-11 -7.01427e-12 -3.48724e-11 2.39748e-12 -5.74815e-11 -1.27311e-10 -5.54378e-11 
-4.79805e-11 6.07776e-11 6.75653e-12 -1.37947e-10 -2.60361e-10 -1.19492e-10 -9.07563e-12 -1.99271e-11 -1.09599e-11 
3.45422e-12 2.91608e-11 9.78451e-12 -1.86869e-11 -5.08141e-11 -8.34446e-12 6.57622e-11 9.81692e-11 4.91794e-11 
-1.07504e-11 3.23815e-11 1.46339e-12 8.35648e-11 1.34699e-10 6.54791e-11 -1.34384e-12 1.99271e-11 1.99271e-12 
-9.81529e-11 -1.27817e-10 -6.7791e-11 -5.27236e-11 -2.98906e-11 -3.23815e-12 7.09398e-11 1.92938e-10 7.91634e-11 
-2.18736e-11 1.59417e-11 3.73633e-12 -5.89517e-11 -1.57522e-10 -6.4942e-11 -1.60556e-11 2.76488e-11 2.73997e-12 
-3.22102e-11 -1.15842e-10 -4.44156e-11 -3.72058e-11 -1.6938e-11 -1.58794e-12 1.4238e-11 3.44121e-11 1.4595e-11 
-5.00127e-12 -3.98542e-12 -7.47266e-12 1.01532e-10 2.14577e-10 9.48327e-11 2.96446e-11 3.98542e-11 1.86816e-12 
1.71904e-11 1.70592e-11 1.02749e-11 -1.35145e-11 3.31288e-11 6.97448e-12 5.91779e-11 5.16665e-11 3.32533e-11 
5.42057e-11 6.27703e-11 1.12401e-11 4.25415e-11 1.01229e-10 4.31312e-11 3.16359e-12 -9.96354e-13 1.27658e-12 
-4.92959e-11 -3.16578e-11 -2.42861e-11 -2.47505e-11 3.98542e-12 -3.98542e-12 -5.91248e-12 -3.11698e-12 -2.70884e-12 
3.29142e-11 1.79344e-11 -3.89201e-12 1.41813e-11 2.54394e-11 1.18862e-11 -4.08138e-11 2.59052e-11 -7.37925e-12 
1.08282e-12 3.30112e-11 1.02282e-11 -5.90737e-11 -5.92831e-11 -7.19243e-12 -2.07794e-11 -4.94325e-11 -2.10635e-11 
-1.11547e-11 4.98177e-13 2.52202e-12 1.05257e-10 2.19492e-10 9.74247e-11 6.84936e-11 3.58687e-11 1.24544e-12 
8.4886e-11 1.84752e-10 8.08915e-11 2.94225e-11 -2.39125e-11 4.98177e-12 1.0796e-10 2.49404e-10 1.07209e-10 
-6.52848e-12 -5.67922e-11 6.22721e-13 7.56043e-11 1.56593e-10 6.96592e-11 1.23501e-11 -2.69016e-11 -1.1209e-12 
2.35829e-11 4.21921e-11 1.97325e-11 -3.00767e-12 -1.19562e-11 -1.1209e-12 1.91936e-11 4.02763e-11 1.7841e-11 
1.59425e-11 3.3876e-11 5.3554e-12 9.24298e-11 2.13248e-10 9.17035e-11 4.53218e-11 4.98177e-12 3.48724e-12 
5.70172e-11 1.312e-10 5.64652e-11 -1.4535e-11 6.97448e-12 7.47265e-13 2.5965e-11 4.89951e-11 2.2488e-11 
-1.09386e-11 -2.34143e-11 -3.42497e-13 5.04263e-13 -9.37804e-12 -2.66213e-12 1.89131e-11 1.64398e-11 4.1411e-12 
-2.28894e-12 6.18095e-12 1.1676e-12 3.11603e-11 4.88213e-11 3.11361e-12 -1.02689e-11 -9.19109e-12 -5.83801e-12 
-2.7949e-11 1.19562e-11 -2.80225e-12 2.58662e-11 3.58611e-11 1.85182e-11 2.03003e-11 2.98906e-12 -3.17588e-12 
-4.23387e-11 -1.026e-10 -4.34815e-11 3.58828e-12 -9.96354e-13 1.80589e-12 -3.37001e-11 -5.71393e-11 -2.72518e-11 
-1.91037e-11 -1.89307e-11 3.30042e-12 4.94866e-11 9.94994e-11 4.46958e-11 1.15593e-11 1.29526e-11 -3.73633e-13 
3.48417e-11 6.44045e-11 2.97739e-11 4.51393e-12 1.89307e-11 -3.23815e-12 1.79755e-11 2.91178e-11 1.4128e-11 
3.48997e-12 1.99271e-11 6.22721e-13 -4.19332e-11 -1.15849e-10 -4.73346e-11 -2.31873e-11 -1.49453e-12 1.15203e-12 
3.21382e-12 3.2904e-11 1.08353e-11 2.05182e-11 4.48359e-12 -6.53857e-13 -8.87891e-12 -1.57186e-11 -7.37925e-12 
-6.49657e-12 2.49088e-12 -9.65218e-13 3.06792e-11 6.47529e-11 2.86296e-11 3.84248e-12 4.85723e-12 1.74362e-12 
1.19861e-11 2.91135e-11 1.23299e-11 2.01346e-12 -1.49453e-11 1.77476e-12 -6.18972e-11 -1.56522e-10 -6.55258e-11 
-2.22418e-11 6.4763e-12 -1.82146e-12 8.53618e-12 1.80852e-11 7.9864e-12 2.12685e-12 2.57807e-11 2.38969e-12 
-2.03711e-11 -5.23316e-11 -2.18108e-11 -2.64167e-11 1.99271e-12 3.42497e-13 2.18809e-11 4.9265e-11 2.13438e-11 
1.85329e-11 1.64398e-11 -5.29313e-13 -1.94435e-11 -5.05348e-11 -2.09935e-11 -3.92187e-12 7.5972e-12 4.82609e-13 
-7.30484e-11 -1.6125e-10 -7.02897e-11 -3.06117e-11 3.73633e-13 7.00561e-13 -4.53967e-13 -1.83055e-11 -5.62784e-12 
9.68555e-12 3.47351e-26 4.59257e-13 -1.18344e-11 -1.64216e-11 -8.47679e-12 8.74707e-12 3.61178e-12 3.42107e-12 
-4.17304e-11 -1.09902e-10 -4.54898e-11 -5.89677e-12 -4.35905e-12 3.34518e-12 5.33356e-12 1.07015e-11 4.81052e-12 
1.6856e-11 2.39125e-11 3.39383e-12 2.57688e-11 4.32754e-11 2.07133e-11 -1.45476e-11 1.27035e-11 3.01631e-12 
-7.96655e-12 -2.099e-11 -8.68696e-12 -9.82412e-13 -5.97812e-12 1.10241e-12 1.6756e-11 2.40322e-11 1.22365e-11 
1.87895e-11 -2.12971e-11 4.07688e-13 1.11187e-11 1.89276e-11 9.01389e-12 -4.53992e-12 -9.96354e-12 3.94747e-12 
9.70759e-13 -6.41957e-12 -1.63464e-12 -2.61256e-12 6.97448e-12 1.57237e-12 -1.25651e-11 -3.0714e-11 -1.29837e-11 
-8.62817e-12 8.7181e-12 2.41207e-12 4.3628e-12 6.6905e-12 3.31599e-12 4.92745e-12 4.98177e-12 2.84895e-12 
-3.81641e-12 -1.33084e-11 -5.13745e-12 -8.17111e-12 -1.74362e-12 1.8993e-12 -1.12911e-11 -2.98085e-11 -1.23299e-11 
-4.60956e-12 -6.22721e-12 1.83703e-12 -2.48782e-11 -5.03932e-11 -2.25814e-11 -6.65008e-12 9.21627e-12 2.52202e-12 
-1.35594e-11 -3.64918e-11 -1.50154e-11 -1.82961e-12 1.47086e-26 2.36634e-12 -2.99185e-11 -6.75374e-11 -2.92368e-11 
-1.27523e-11 -1.40735e-11 1.07419e-12 -3.35538e-11 -8.1494e-11 -3.45143e-11 -1.26326e-11 5.3554e-12 1.57237e-12 
-1.21975e-11 -2.41538e-11 -1.09054e-11 -4.6658e-12 9.46536e-12 1.36999e-12 -1.65358e-12 -1.81957e-11 -5.95477e-12 
-1.85506e-12 4.48359e-12 1.86816e-12 6.26542e-12 1.10929e-11 5.20751e-12 1.59738e-12 3.39383e-12 2.1406e-12 
-9.13006e-12 -9.31806e-12 -5.53443e-12 -2.12597e-12 -1.58794e-12 2.3352e-14 5.12859e-12 9.42752e-12 4.36683e-12 
2.46627e-13 -8.21992e-12 2.11725e-12 4.81893e-12 -1.16044e-12 1.09755e-12 4.23134e-12 -3.73633e-12 2.42861e-12 
-1.79371e-13 -1.7646e-11 -5.34762e-12 3.7851e-12 -1.24544e-12 1.43226e-12 1.77694e-12 3.59403e-12 1.61129e-12 
3.39341e-13 9.42426e-28 9.96354e-13 3.04378e-12 2.48287e-12 1.658e-12 1.10727e-12 1.86816e-12 3.11361e-12 
9.34204e-12 1.30759e-11 6.72539e-12 1.06089e-12 -1.05863e-12 1.30771e-12 1.81884e-11 1.3726e-11 9.57434e-12 
4.20021e-13 -4.43689e-13 9.4965e-13 7.19478e-12 5.57101e-12 3.82974e-12 -5.31718e-13 2.41304e-13 6.38289e-13 
1.68303e-12 2.28682e-12 1.19095e-12 -2.96186e-13 6.22721e-14 2.61543e-12 -1.68856e-12 -1.42505e-12 -9.34082e-13 
9.71397e-13 7.37535e-13 1.25323e-12 -8.85975e-13 1.35302e-12 1.40112e-13 4.00923e-13 1.34469e-12 1.17539e-12 
1.46969e-11 3.23748e-12 5.38031e-12 1.76308e-12 5.76796e-13 -1.48519e-12 2.87743e-11 6.79869e-12 1.06719e-11 
-1.22182e-11 -8.36937e-11 4.98177e-12 -3.28215e-12 -4.81322e-12 -2.42861e-12 -2.92995e-13 1.55291e-12 7.00561e-13 
1.93728e-11 -1.97125e-11 -1.019e-13 -3.62268e-11 -6.95636e-11 6.52159e-12 1.69783e-11 1.49242e-11 9.57075e-12 
-5.74311e-12 3.21899e-12 -1.09216e-12 -1.20094e-11 -1.00689e-11 -6.62349e-12 4.50651e-12 -1.6304e-12 1.35866e-13 
-1.0346e-10 -2.14892e-10 -9.55056e-11 4.01693e-11 -3.26079e-11 -1.12769e-11 -2.28947e-12 -7.90759e-12 -3.05912e-12 
4.15769e-12 -5.72904e-12 1.07809e-12 5.3808e-11 1.0086e-10 4.64005e-11 -3.89617e-11 -1.79344e-11 -8.46901e-12 
5.82933e-12 3.97881e-13 1.86816e-12 4.31419e-12 5.85358e-12 4.74825e-13 6.22441e-11 8.95442e-11 4.55365e-11 
-1.2743e-11 -3.62424e-11 -4.98177e-12 -7.08173e-12 -1.75158e-11 -7.37925e-12 -2.12621e-12 5.70747e-12 -5.52633e-13 
5.25755e-11 9.25185e-11 4.35282e-11 5.76294e-11 -2.51308e-11 -5.66085e-12 4.15456e-12 2.19719e-12 1.90553e-12 
-3.23341e-12 -1.35688e-12 -6.49558e-13 -2.33574e-12 -7.5799e-12 -2.97469e-12 -2.28736e-12 -1.35743e-12 2.69651e-13 
1.01703e-12 2.04465e-13 3.66448e-13 4.75303e-13 1.78904e-12 -1.99557e-13 5.48871e-12 7.08547e-12 3.77225e-12 
7.71833e-13 8.83868e-14 -8.2462e-14 1.70714e-12 2.38845e-12 1.22868e-12 2.87166e-13 6.73014e-13 -5.37519e-13 
2.30681e-12 9.98398e-13 9.91564e-13 -1.06223e-12 4.50086e-13 9.43921e-14 4.81106e-12 2.8053e-12 2.28491e-12 
1.13844e-12 1.02713e-12 -2.63556e-13 7.25712e-12 8.76597e-12 4.80693e-12 1.14398e-12 5.14588e-13 -2.57694e-12 
3.32585e-12 4.64978e-12 2.39269e-12 4.84371e-13 1.49817e-13 -1.05941e-12 -9.05392e-13 -2.83094e-12 -1.1209e-12 
-1.18413e-12 1.29334e-12 -7.83192e-13 -2.47806e-12 9.69156e-13 -4.5267e-13 -2.25953e-13 -4.33989e-12 -8.55044e-13 
1.46128e-12 4.93359e-12 1.91846e-12 -3.4241e-12 -4.64499e-12 -1.18139e-13 -4.81425e-12 -1.42267e-11 -5.71227e-12 
-8.03045e-12 1.8969e-12 -2.8741e-13 -1.16169e-12 1.66466e-12 1.5089e-13 2.20064e-12 -1.53809e-12 -2.42132e-13 
-1.20705e-11 -2.25624e-11 -1.03899e-11 -5.80018e-12 -1.72446e-12 -1.59512e-12 -1.27221e-11 -1.82463e-11 -9.29052e-12 
-1.95653e-12 3.06384e-12 -7.7455e-13 7.29039e-12 4.69678e-13 2.32802e-12 5.99928e-12 2.55853e-13 -4.67111e-14 
2.59277e-12 1.43644e-11 5.08715e-12 -5.76774e-13 1.10709e-11 1.99746e-12 -1.48027e-11 -2.03332e-11 -1.05408e-11 
-3.04397e-12 8.21992e-12 -3.21899e-12 -6.59916e-12 -1.15795e-11 -5.4536e-12 1.19887e-13 1.1739e-13 -1.84626e-12 
-1.34217e-11 -3.39291e-11 -1.42052e-11 -6.68623e-12 1.2646e-12 1.35083e-12 -7.10994e-12 -3.73978e-12 -3.25492e-12 
-9.36325e-12 1.04617e-11 3.76507e-12 -1.41572e-11 -2.84513e-11 -1.27826e-11 -1.1904e-11 2.46804e-12 -2.01249e-13 
-1.76887e-11 -3.58414e-11 -1.6059e-11 -9.17526e-12 1.78561e-11 3.14961e-12 -3.29626e-12 -1.08587e-11 -4.24648e-12 
-1.51207e-11 1.65548e-11 1.40831e-12 -1.44816e-11 -1.94328e-11 -1.01743e-11 -3.05804e-12 4.48602e-12 2.57985e-12 
-2.05151e-13 5.64413e-13 1.07779e-13 -7.63289e-12 7.68789e-12 1.82513e-13 -6.61733e-12 -1.55132e-11 -6.63917e-12 
7.95323e-12 1.14964e-12 5.7482e-13 -1.09394e-12 -2.06757e-12 -9.48452e-13 -5.90516e-12 -3.90877e-12 1.49453e-12 
4.32312e-12 3.95787e-11 1.31706e-11 -5.44508e-12 -8.68836e-12 3.1648e-12 -7.51705e-12 -1.43261e-11 -6.55294e-12 
4.44622e-12 2.90587e-12 -6.40846e-13 -5.14204e-12 -2.46895e-13 -1.61668e-12 -7.88815e-12 -1.42555e-11 -5.7482e-14 
-1.24714e-11 -4.5801e-11 -1.74817e-11 1.90027e-12 7.81209e-12 2.08658e-12 -1.7597e-11 -4.16094e-11 -1.77619e-11 
-1.52002e-11 -1.55541e-11 3.24908e-12 -1.26473e-11 -4.10983e-11 -1.61237e-11 1.93363e-12 -1.21783e-11 -2.28667e-12 
-2.50592e-11 -5.25414e-11 -2.32802e-11 1.97641e-12 -5.04726e-12 -3.83296e-12 -2.58764e-11 -4.56886e-11 -2.14695e-11 
-3.36121e-12 -2.7466e-11 9.13351e-14 1.34943e-11 3.67846e-12 5.15182e-12 -1.46489e-11 -1.51067e-11 -7.14824e-13 
-1.35654e-12 9.90698e-12 2.56513e-12 1.8763e-11 -1.5623e-11 6.20878e-12 -5.0317e-11 -1.06537e-10 -4.70562e-11 
-4.34846e-12 -1.72889e-11 4.19395e-12 -2.45494e-11 -7.57566e-11 -3.00918e-11 -2.64038e-11 -9.01922e-12 4.58821e-12 
5.2078e-12 5.28265e-12 3.14714e-12 1.39583e-11 -9.88041e-12 1.43356e-12 3.5282e-12 3.99425e-11 1.30412e-11 
6.75761e-12 -1.29903e-11 -5.58331e-12 -3.13254e-11 -5.60472e-11 -2.62118e-11 -1.75389e-11 -1.12615e-11 4.91353e-12 
1.4027e-11 -1.35959e-11 1.29334e-13 -1.93849e-12 -1.98541e-11 3.64287e-12 -4.1315e-11 -9.93002e-11 -4.21846e-11 
3.00811e-12 -1.78865e-11 -1.15653e-12 -1.39699e-11 -4.63984e-12 -5.58294e-12 -1.96546e-11 -3.84849e-12 -6.27993e-13 
-4.71641e-11 -9.09364e-11 -4.14301e-11 -2.45953e-11 -3.48811e-12 -6.62938e-13 -5.1894e-12 -2.55635e-11 -9.22585e-12 
1.38517e-11 5.31004e-12 -4.21539e-13 6.87872e-11 1.66386e-10 7.05519e-11 -4.16545e-13 -1.83942e-12 -2.01187e-12 
1.55004e-11 4.11912e-11 1.70075e-11 -7.13023e-12 -1.71223e-11 -1.91741e-12 -1.09079e-11 -3.38562e-11 -1.34292e-11 
3.23209e-11 -1.84245e-11 2.13841e-12 3.88892e-11 6.83865e-11 3.21827e-11 -3.37067e-12 -2.32994e-11 9.44279e-13 
6.33147e-11 1.30903e-10 5.82651e-11 -3.30121e-12 -1.79289e-11 1.57818e-12 3.75487e-11 8.13671e-11 3.56747e-11 
7.35739e-12 -2.07963e-11 -2.21849e-12 2.76388e-12 1.7283e-11 6.01405e-12 -2.10617e-11 -1.51752e-11 2.8741e-13 
5.02903e-11 8.79538e-11 4.14732e-11 3.79786e-11 -9.99403e-12 -4.41005e-12 -1.06969e-11 -2.91812e-11 -1.19634e-11 
1.62207e-12 2.78191e-11 3.01584e-12 4.88352e-12 3.70783e-11 1.25885e-11 -9.00246e-12 -1.42654e-11 -5.07233e-12 
1.49559e-12 1.43119e-11 4.74226e-12 1.60191e-12 3.21899e-12 -2.29928e-13 7.75748e-12 2.28517e-11 9.18274e-12 
-2.46197e-11 6.58952e-12 -2.36055e-12 6.87923e-11 1.61207e-10 6.89999e-11 -1.01068e-11 -1.82769e-11 2.84663e-12 
-2.15825e-12 1.72713e-12 -1.29334e-13 2.22167e-11 -1.05767e-11 -2.29928e-13 -2.18955e-11 -1.60426e-11 -1.13814e-11 
-1.54999e-11 4.8394e-11 -2.00427e-12 -5.78698e-12 -5.92497e-12 -3.51358e-12 -8.53161e-12 3.67885e-11 1.83942e-12 
-5.98225e-11 -1.32958e-10 -5.7834e-11 7.01953e-12 6.70564e-11 4.60959e-12 -1.20795e-11 -2.91638e-11 -1.2373e-11 
-1.69459e-11 5.38814e-11 3.03628e-12 4.55907e-11 9.88327e-11 4.3327e-11 1.99732e-11 6.89784e-12 -5.28834e-12 
2.49811e-12 -6.37814e-12 -1.16401e-12 1.82169e-11 -1.14964e-11 -7.58762e-12 4.57801e-11 5.50289e-11 3.02427e-11 
5.31171e-12 1.6557e-11 -8.21808e-14 1.01288e-11 5.29576e-11 1.89259e-11 -1.06552e-11 4.61887e-11 8.42215e-12 
-6.08188e-11 -1.18166e-10 -5.36953e-11 -1.39789e-11 8.72041e-12 -1.72997e-11 1.42487e-11 4.9197e-11 1.90337e-11 
3.46642e-11 5.91888e-11 -1.64906e-12 6.61572e-12 6.32249e-11 2.09522e-11 3.50054e-11 6.35669e-11 1.52733e-11 
3.44709e-11 5.59195e-11 2.71171e-11 2.58197e-11 8.37319e-12 9.64846e-12 7.5742e-12 -2.09388e-11 -4.00937e-12 
5.65455e-12 -2.57719e-11 5.81831e-13 5.37741e-11 4.93342e-11 3.09325e-11 5.19929e-12 -9.44065e-13 -2.6043e-12 
-5.20104e-11 -1.13466e-10 -4.96429e-11 -3.15575e-11 5.86101e-11 6.82093e-12 7.52845e-12 2.94756e-11 1.11012e-11 
-1.18378e-11 7.82681e-11 6.03171e-12 1.87711e-11 1.60774e-11 1.04545e-11 2.33165e-11 5.64444e-11 -8.14713e-12 
4.14713e-12 -8.31458e-12 -1.25023e-12 1.08663e-11 4.12482e-11 -1.02621e-11 5.85168e-11 1.27868e-10 5.59156e-11 
-1.0816e-11 8.06801e-11 8.14763e-12 2.25712e-11 6.47295e-11 2.61902e-11 -3.40922e-11 2.57977e-11 1.55484e-12 
6.4539e-11 3.15996e-11 2.88416e-11 3.01467e-11 1.65548e-11 7.0128e-12 -7.59358e-11 -1.48603e-10 -6.73617e-11 
-2.5504e-11 -6.52611e-12 2.59992e-12 -5.35915e-11 -7.20785e-11 -3.7701e-11 5.16384e-11 -3.08103e-11 6.55294e-12 
5.14493e-11 5.54671e-11 3.20749e-11 4.2096e-11 -1.74745e-11 1.71296e-11 4.39493e-11 5.34826e-11 2.92296e-11 
1.41627e-11 -9.4278e-12 7.82812e-12 8.51523e-11 1.779e-10 7.89155e-11 -2.42235e-11 -9.18092e-12 -3.26717e-12 
-5.21735e-11 -8.66455e-11 -4.16457e-11 1.73093e-11 -3.31699e-11 3.10851e-12 -4.66802e-11 -8.78943e-11 -4.03724e-11 
7.16961e-12 3.05703e-11 -2.00378e-12 4.21611e-11 6.8154e-11 3.30945e-11 -3.40483e-11 2.12563e-11 1.62822e-11 
1.12521e-12 3.11408e-12 1.27179e-12 -2.68402e-11 1.82113e-11 6.99229e-12 8.79154e-13 4.58249e-11 1.40112e-11 
1.15542e-11 3.28193e-11 3.67514e-12 -2.44495e-11 -4.69e-11 -2.14048e-11 -1.77716e-11 9.30995e-13 -1.28295e-11 
-5.32668e-11 -4.89074e-11 -3.06523e-11 2.04257e-11 -2.90169e-11 -7.8604e-12 -5.96216e-12 6.32286e-11 1.71799e-11 
5.85571e-12 6.51655e-12 -1.15242e-11 3.74023e-11 7.61246e-11 3.40581e-11 8.36663e-12 3.83777e-11 -4.26075e-12 
-3.77702e-11 -6.70626e-11 -3.14498e-11 -2.2899e-11 3.63948e-11 -4.5846e-12 -6.99732e-11 -1.44722e-10 -6.44085e-11 
-3.75731e-11 1.3775e-11 -2.62e-12 -3.37109e-11 -6.11343e-11 -2.84536e-11 -5.09843e-11 -2.63481e-11 4.99552e-13 
1.50844e-11 3.88768e-11 1.61884e-11 -3.79762e-11 7.25491e-12 -1.28824e-12 7.00079e-12 -1.80661e-11 -3.31958e-12 
-3.19226e-11 -7.48644e-11 -1.76868e-12 -1.68915e-11 1.37134e-12 -4.65604e-12 1.68146e-11 -1.97975e-11 -1.54339e-11 
-4.13458e-11 4.55733e-12 -1.10365e-11 -8.03819e-12 -2.78634e-11 -1.25924e-11 8.79418e-12 -4.81693e-11 -1.18125e-11 
1.08616e-11 -5.08097e-11 -1.49654e-11 7.67247e-12 2.24316e-12 2.97469e-12 8.82937e-12 -2.85641e-11 -1.27038e-12 
2.88716e-11 5.18906e-11 2.42286e-11 -1.31995e-11 -2.00891e-12 2.66675e-12 2.83615e-11 7.61119e-11 3.1342e-11 
-6.98798e-12 -2.17558e-11 -6.67646e-12 8.58309e-11 2.02369e-10 8.64601e-11 1.19821e-11 -6.14191e-11 -8.09798e-12 
-8.87151e-12 -3.63082e-12 -3.7507e-12 3.88087e-12 -2.73879e-11 -2.94992e-12 -4.36567e-11 -9.21444e-11 -4.07403e-11 
7.98547e-12 4.38133e-11 -9.28038e-12 1.72094e-11 2.02975e-11 1.12521e-11 4.24541e-12 1.40897e-11 -8.19741e-12 
2.80197e-11 4.57728e-11 2.21377e-11 2.82733e-12 -2.23345e-11 -6.31143e-12 5.21379e-12 3.07124e-11 1.07779e-11 
-2.17669e-11 -1.23326e-11 1.96447e-13 1.32744e-11 2.646e-11 1.19203e-11 2.43596e-11 -5.29326e-11 -7.61691e-12 
1.41289e-11 2.45995e-11 1.16185e-11 -8.85021e-12 -3.21088e-11 -9.54132e-12 -3.9486e-11 -4.66651e-11 -2.58453e-11 
-2.34489e-11 3.07246e-11 -5.70436e-12 5.85134e-12 -4.48614e-12 4.09559e-13 1.22242e-11 1.11161e-11 -4.16445e-12 
3.52592e-11 5.08201e-11 2.58238e-11 2.19717e-11 2.92322e-11 -3.00864e-12 1.67609e-11 3.10928e-11 1.43561e-11 
-9.60274e-12 3.40278e-12 -2.66561e-12 1.24259e-11 2.83144e-11 1.22221e-11 2.99779e-11 3.05187e-12 -1.98094e-12 
6.94026e-11 1.89338e-10 7.76222e-11 -6.55953e-12 1.15635e-11 -5.73071e-12 8.79098e-11 1.83764e-10 8.15022e-11 
-1.43973e-11 2.31853e-11 -6.12143e-12 5.95414e-12 -7.46304e-12 -4.5267e-13 3.38903e-11 9.07677e-12 -2.34974e-12 
1.95397e-11 7.27907e-11 2.76991e-11 2.80362e-12 -2.68666e-12 -1.54295e-12 3.10756e-11 7.24637e-11 3.10618e-11 
-7.83978e-12 1.0443e-11 2.1727e-12 2.3718e-11 3.17521e-11 1.6641e-11 -1.92467e-11 1.3529e-13 1.7098e-12 
2.57649e-11 3.07111e-11 1.69428e-11 2.26123e-11 8.76759e-12 -2.88276e-13 1.87222e-11 3.36583e-11 1.57141e-11 
3.0016e-11 6.93979e-12 -1.66129e-12 3.62458e-11 8.52567e-11 3.64507e-11 5.82764e-13 7.30087e-12 -3.77343e-12 
1.14564e-11 1.98712e-11 9.3983e-12 -3.54393e-11 4.55307e-12 -2.29566e-12 -8.8915e-12 -3.29266e-11 -1.25454e-11 
1.5641e-11 -5.63742e-12 -1.12647e-12 -1.03856e-12 2.37439e-11 6.81161e-12 -1.64028e-12 -8.42772e-12 -1.2113e-12 
6.61409e-12 1.81031e-11 7.41517e-12 -2.34104e-11 2.38013e-13 -1.99847e-12 1.97578e-11 2.96767e-11 1.48303e-11 
-6.98887e-12 1.40023e-11 -1.52988e-12 -1.77799e-11 -4.55221e-11 -1.89906e-11 9.2515e-12 -1.43292e-11 -1.47336e-12 
-1.64197e-11 -5.06904e-11 -2.01331e-11 -3.59289e-12 1.83942e-12 1.8969e-12 -6.51587e-12 -8.57314e-12 -4.5267e-12 
-1.59259e-11 6.50684e-13 -3.3727e-12 -1.71334e-11 -6.8371e-11 -2.56513e-11 1.18989e-11 -3.196e-11 -2.2418e-12 
-1.81003e-11 -4.3621e-11 -1.85164e-11 -8.39929e-13 7.36565e-12 -3.55744e-12 -2.84179e-11 -5.01887e-11 -2.3582e-11 
-2.11664e-11 1.98176e-11 8.88427e-13 -2.71699e-11 -5.35204e-11 -2.42071e-11 1.71472e-12 4.43227e-12 4.92139e-13 
3.61905e-11 8.35157e-11 3.59119e-11 9.18647e-12 2.69543e-11 -1.81838e-12 -2.66167e-12 -3.66135e-12 -1.8969e-12 
-2.43037e-11 2.16132e-11 1.55201e-12 1.23159e-11 2.69155e-11 1.17694e-11 1.82414e-11 2.20731e-11 -7.47265e-13 
-1.18146e-12 -2.12375e-12 -9.91564e-13 -6.60638e-12 1.27225e-11 -1.37218e-12 -2.11188e-11 -4.70692e-11 -2.04564e-11 
-2.34924e-11 1.6486e-11 -2.44972e-12 1.53107e-11 2.428e-11 1.18772e-11 1.38492e-11 1.63445e-11 -5.0202e-13 
1.00631e-11 2.41387e-11 1.02605e-11 5.24047e-12 1.40256e-11 -4.771e-12 -1.98021e-12 -1.0376e-12 -9.05341e-13 
-2.351e-12 -1.98188e-11 -1.60114e-12 -1.6189e-11 -4.58197e-11 -1.86026e-11 1.31825e-11 -3.86925e-12 -6.6682e-13 
5.54415e-13 -3.06925e-12 -7.54451e-13 -1.34821e-12 -1.47154e-11 -1.14964e-12 1.18233e-12 -5.13422e-12 -1.18557e-12 
9.8434e-13 -8.2774e-12 9.77193e-13 -2.89148e-11 -5.63022e-11 -2.55651e-11 -2.99223e-12 -1.87908e-11 5.24268e-14 
-1.36795e-11 -4.12158e-11 -1.64686e-11 -4.1286e-12 -9.16417e-12 1.07297e-12 -2.55149e-12 -8.44193e-12 -3.29803e-12 
-7.23373e-12 -4.1387e-12 -1.17838e-12 1.84304e-12 -7.65256e-13 3.23336e-13 -9.24787e-13 -2.11812e-11 1.13812e-12 
-5.29663e-12 -1.01517e-11 -4.63448e-12 -2.68501e-12 2.86668e-13 -1.82914e-12 4.69213e-12 4.57683e-12 2.78069e-12 
-4.54433e-12 -2.64417e-12 -5.7482e-14 -3.52204e-12 -7.18398e-12 -3.2118e-12 2.54002e-12 -1.65548e-11 -9.48452e-13 
2.96116e-12 6.73892e-12 2.91002e-12 -1.00223e-11 -4.68366e-12 -6.27955e-13 -6.56252e-13 -4.37342e-12 -1.5089e-12 
7.55262e-12 -1.34508e-11 -9.62823e-13 -4.10572e-12 -1.22048e-11 -4.89315e-12 -9.10823e-12 -6.39661e-12 -3.55313e-13 
-4.29471e-12 -1.26625e-11 -5.08715e-12 1.44588e-12 1.19345e-12 3.43488e-13 6.44105e-12 8.57611e-12 4.50515e-12 
1.26031e-12 -5.06344e-12 4.58243e-14 1.25264e-11 2.62739e-11 1.16401e-11 -1.5605e-12 -1.14964e-13 -6.5745e-13 
4.23334e-12 8.5564e-12 3.83692e-12 -1.19472e-12 -3.66844e-12 -8.22149e-13 9.13342e-13 -4.07485e-12 -9.48452e-13 
2.64816e-12 2.35676e-12 -8.19118e-13 3.11694e-12 4.93054e-12 2.41424e-12 9.34463e-13 4.04576e-12 -1.34414e-12 
2.98199e-12 4.70622e-12 2.30646e-12 1.14838e-12 2.09809e-12 -1.24484e-12 7.17382e-12 1.17234e-11 5.66916e-12 
-1.53816e-12 -1.49453e-12 -1.39394e-12 7.33257e-13 -1.59549e-12 -2.58669e-13 -7.55124e-13 -1.43211e-12 -1.31562e-12 
2.62344e-12 1.40029e-12 1.20712e-12 -1.29636e-12 -1.12701e-12 -7.22529e-13 3.33232e-12 3.99663e-12 2.19869e-12 
2.04622e-15 -2.57022e-13 -5.98412e-13 2.07042e-12 1.16294e-12 9.70008e-13 1.2155e-12 8.43687e-13 -1.39133e-12 
5.95986e-12 3.66837e-12 2.88847e-12 5.8608e-13 1.99663e-13 2.5811e-13 5.08932e-12 3.17371e-12 2.47891e-12 
-1.94044e-12 1.80444e-14 1.50296e-13 4.10671e-12 5.23411e-12 2.80225e-12 3.49205e-12 8.9097e-13 2.74836e-13 
6.11324e-12 6.96391e-12 3.92314e-12 1.15155e-13 -4.81682e-13 -6.85641e-13 5.52598e-12 6.40153e-12 3.57825e-12 
-7.18519e-13 -1.33185e-12 1.25593e-12 2.8273e-12 7.36976e-12 3.05912e-12 2.26466e-12 -1.68135e-12 -3.11361e-14 
2.03042e-10 3.49085e-10 1.65638e-10 1.18011e-10 -4.45478e-11 -3.3243e-12 -7.89045e-12 -9.09285e-12 -5.09499e-12 
-1.20519e-11 -1.4457e-12 1.35866e-13 -4.82003e-11 -5.89856e-11 -3.21558e-11 -6.24723e-11 -1.79344e-11 -7.47265e-13 
5.81117e-12 6.02054e-12 3.54951e-12 -4.857e-12 3.36269e-12 -1.49453e-12 -3.29961e-12 -1.18613e-11 -4.54826e-12 
-5.09634e-12 -1.15023e-12 -3.88415e-13 -2.37055e-11 -9.88461e-11 -3.67655e-11 -1.85698e-11 -4.03589e-11 -5.72572e-12 
1.46514e-12 -9.0815e-12 -2.28491e-12 4.60009e-12 -8.40674e-13 1.20892e-12 6.05367e-11 9.55986e-11 4.68406e-11 
2.2591e-11 -5.28834e-11 -4.65604e-12 1.01497e-12 -4.0841e-12 -9.20738e-13 2.91423e-12 3.52282e-12 -9.9413e-13 
-1.15289e-11 -9.41007e-12 -6.2817e-12 5.94597e-11 2.51579e-11 5.41767e-12 2.02412e-12 -1.2299e-11 -3.08247e-12 
-2.6979e-12 3.76746e-12 -5.25421e-13 -2.37184e-11 4.12658e-11 5.26422e-12 -3.09429e-11 -4.27009e-12 1.28636e-11 
2.97573e-12 -2.43662e-11 -6.41714e-12 2.60203e-12 -3.81105e-12 2.78356e-12 4.81226e-11 1.31128e-10 5.37751e-11 
-2.54886e-11 1.05514e-10 -4.22205e-12 -9.12904e-11 -1.42541e-10 -7.01495e-11 -3.41645e-11 -5.08141e-11 -1.81004e-11 
-1.11355e-11 -2.02656e-12 -3.94862e-12 -1.68729e-12 -5.06103e-12 6.35176e-12 3.10783e-12 -3.57487e-12 -1.40112e-13 
-1.47006e-12 4.20337e-12 1.06641e-12 3.29371e-11 4.52455e-11 2.34548e-11 -6.98147e-11 -4.7825e-11 -1.10595e-11 
1.31002e-10 4.08804e-10 1.61942e-10 -5.17293e-11 9.44544e-11 9.8639e-12 5.78799e-12 5.98144e-12 3.53083e-12 
-2.18736e-12 -1.49453e-13 -2.98906e-13 2.80548e-12 1.6951e-12 1.35017e-12 -3.80628e-12 -8.15199e-13 2.68336e-12 
9.28087e-12 2.29874e-11 9.68048e-12 -3.60745e-11 7.9346e-11 -2.58146e-12 -1.08513e-11 9.5001e-13 -2.97038e-12 
4.17464e-12 -3.73633e-13 2.31652e-12 2.12887e-11 -3.16751e-12 5.43636e-12 6.41904e-12 -2.09234e-12 8.96719e-13 
-1.08623e-11 4.88419e-12 -1.79344e-12 -1.9673e-12 2.69016e-12 2.98906e-13 7.78165e-12 5.2955e-12 3.92314e-12 
-4.2688e-12 7.84629e-13 -3.28797e-12 1.46196e-12 3.25699e-14 4.48359e-13 -3.3797e-12 -8.07794e-29 9.49157e-28 
1.47538e-11 7.29048e-12 6.6133e-12 9.09743e-13 4.76382e-13 1.34508e-12 5.29037e-12 3.67682e-12 2.69016e-12 
3.82618e-12 -1.55058e-12 -1.27035e-12 -1.34237e-13 -3.78891e-12 -1.17694e-12 2.53557e-12 -1.94289e-12 7.47265e-14 
1.62285e-11 6.00262e-12 6.66934e-12 1.95278e-12 3.2506e-12 8.4441e-12 7.92336e-12 -5.68156e-12 6.72539e-13 
-1.72845e-13 3.51215e-12 2.5407e-12 -5.26466e-12 -3.14208e-12 -2.52202e-12 -5.32571e-13 4.03523e-12 -4.48359e-13 
3.01045e-11 1.37974e-11 1.31706e-11 6.27117e-12 -4.48359e-12 1.49453e-12 -4.05749e-12 1.09697e-11 2.07366e-12 
-5.25024e-12 5.97812e-13 -5.38031e-12 4.65945e-12 4.68137e-12 2.80225e-12 -6.04248e-12 2.98906e-12 -5.38031e-12 
-1.60339e-11 -6.19727e-12 -6.66934e-12 -1.12309e-12 5.38031e-12 2.09234e-12 -2.85058e-11 1.26264e-11 -4.76382e-12 
-6.94638e-12 5.97812e-13 -5.97812e-13 -2.95189e-11 -2.80037e-12 -9.69577e-12 2.24278e-12 -5.67922e-12 -8.66828e-12 
-1.75751e-11 -4.85579e-11 -1.98399e-11 -2.77056e-11 -1.67387e-11 1.79344e-12 -1.01818e-11 1.58829e-12 -2.57807e-12 
1.92664e-11 -2.27169e-11 2.39125e-12 1.82029e-11 4.1952e-11 1.80465e-11 1.53525e-11 -2.39125e-12 4.18469e-12 
1.83464e-12 -1.22964e-11 -3.13852e-12 -1.29724e-11 -2.39125e-12 -4.7825e-12 -4.79221e-11 -6.82777e-11 -3.48599e-11 
1.35403e-11 -1.61409e-11 2.2418e-13 -3.29812e-11 -4.36135e-11 -2.29784e-11 -3.4859e-11 -1.913e-11 5.97812e-13 
-1.48098e-11 4.89972e-11 1.02562e-11 -1.84799e-11 -2.98906e-13 2.39125e-12 3.63614e-11 3.59365e-11 2.16894e-11 
9.42219e-12 5.38031e-12 4.7825e-12 3.94271e-11 7.52782e-11 3.44116e-11 1.31474e-12 -2.98906e-12 -3.13852e-12 
-7.06548e-12 2.01426e-11 3.92314e-12 1.87886e-11 -4.7825e-12 4.7825e-12 6.43083e-12 4.457e-11 1.53003e-11 
-4.45963e-11 4.7825e-12 1.03398e-26 -6.63515e-11 -6.87167e-11 -4.05205e-11 -1.24407e-11 -3.06962e-27 3.58687e-12 
-5.05506e-12 9.91228e-12 1.45717e-12 5.83971e-12 8.66828e-12 3.58687e-12 -4.65792e-11 -1.69381e-10 -6.47879e-11 
8.59342e-12 5.97812e-12 1.34508e-12 -3.46023e-11 1.44262e-11 -6.05285e-12 -5.44033e-11 1.70377e-11 -5.82867e-12 
-4.81341e-11 -1.22056e-10 -5.10569e-11 -5.08611e-11 1.31519e-11 6.57594e-12 -5.10363e-11 -1.22142e-10 -5.19536e-11 
-1.73582e-11 -2.39125e-11 -5.67922e-12 9.33613e-11 1.82753e-10 8.28344e-11 1.62579e-11 4.66294e-11 1.16573e-11 
3.76659e-12 4.91024e-11 1.58607e-11 2.84247e-11 3.10862e-11 3.28797e-12 -5.77279e-11 -8.94834e-11 -4.41634e-11 
1.40257e-11 -1.07606e-11 5.97812e-12 -3.81119e-12 -6.72403e-13 -1.34508e-12 -5.47033e-12 3.94556e-11 -4.7825e-12 
8.24158e-11 1.39335e-10 6.65253e-11 -1.25448e-12 -1.67387e-11 -8.07047e-12 2.59664e-12 -6.01361e-11 -1.72618e-11 
-5.40812e-12 -1.55431e-11 5.97812e-13 6.19843e-11 1.57712e-10 6.59088e-11 5.61149e-11 2.39125e-11 8.07047e-12 
1.64693e-11 3.39712e-11 1.51321e-11 -2.66866e-11 2.98906e-11 3.58687e-12 -1.16613e-10 -1.99106e-10 -9.47159e-11 
-2.28121e-12 -2.51081e-11 -2.98906e-13 -7.79655e-13 9.93366e-12 2.7462e-12 1.65449e-11 4.06512e-11 9.26609e-12 
1.33511e-11 3.67157e-11 1.502e-11 -2.56695e-11 2.8695e-11 4.18469e-12 4.84089e-11 6.49886e-11 3.40193e-11 
1.24764e-11 2.15212e-11 1.07606e-11 -2.61188e-11 -2.88052e-11 -1.64772e-11 1.09731e-13 4.7825e-11 3.58687e-12 
-4.39791e-11 -1.56848e-10 -6.02483e-11 1.22588e-11 -1.25541e-11 1.04617e-12 -5.83051e-11 -5.90156e-11 -3.51962e-11 
-1.65877e-11 6.6955e-11 -1.19562e-11 -5.44485e-11 -1.08829e-10 -4.89833e-11 -1.25371e-11 2.8695e-11 5.97812e-12 
-2.08043e-11 -1.0455e-10 -3.76061e-11 -4.98051e-11 3.74816e-26 -2.39125e-12 -2.17456e-11 -6.64318e-11 -2.64532e-11 
-6.18644e-11 2.8695e-11 -7.17375e-12 7.90064e-11 9.21174e-11 5.13371e-11 4.19697e-11 4.7825e-11 4.7825e-12 
1.05033e-10 9.43001e-11 5.97999e-11 -3.14283e-11 6.21725e-11 9.565e-12 -8.39977e-11 -2.48162e-10 -9.96479e-11 
-4.7624e-11 3.58687e-11 -4.7825e-12 6.43061e-12 -3.61344e-11 -8.91114e-12 -3.29602e-11 3.826e-11 9.565e-12 
-4.60724e-11 -9.74026e-11 -4.30425e-11 2.5787e-11 -7.17375e-12 -9.565e-12 2.78645e-11 -1.12119e-10 -2.52763e-11 
5.94956e-11 -2.39125e-12 -7.17375e-12 -5.12169e-11 -8.77745e-11 -4.16974e-11 -5.72711e-11 -1.43475e-11 1.55431e-11 
1.14446e-10 3.21957e-10 1.30921e-10 -6.25204e-12 -2.39125e-11 -3.58687e-12 -3.98788e-11 -6.28702e-11 -3.08247e-11 
-2.69293e-11 2.39125e-11 1.55431e-11 -1.2837e-10 -2.43768e-10 -1.11641e-10 -6.62836e-11 1.37244e-25 7.17375e-12 
-1.28779e-10 -1.42665e-10 -8.14333e-11 -7.28807e-11 -9.565e-12 3.58687e-12 1.30441e-10 9.18708e-11 6.66934e-11 
1.02819e-11 -1.05215e-10 -4.7825e-12 5.74866e-12 5.47798e-11 1.81586e-11 -1.53934e-11 -8.6085e-11 -1.79344e-11 
2.79385e-11 -1.06028e-10 -2.34268e-11 2.12293e-11 -3.826e-11 8.96719e-12 -1.51373e-10 -3.63867e-10 -1.54572e-10 
-3.59706e-11 -3.826e-11 -3.58687e-12 1.82629e-11 9.19912e-12 8.2386e-12 -6.50791e-11 2.8695e-11 1.19562e-12 
6.46985e-11 -3.31266e-11 9.47159e-12 4.09854e-11 3.826e-11 -3.58687e-12 1.1386e-10 1.00419e-10 6.42835e-11 
-1.02353e-10 5.85856e-11 1.07606e-11 7.07209e-11 8.26553e-11 4.60129e-11 6.14281e-11 6.99441e-11 1.50948e-11 
8.55473e-11 3.53471e-10 1.31706e-10 -3.09862e-11 1.02824e-10 8.66828e-12 -1.62335e-10 -4.55093e-10 -1.85228e-10 
-7.37235e-11 4.90206e-11 1.67387e-11 -1.09941e-10 -3.15627e-10 -1.2767e-10 -3.1868e-11 3.34775e-11 2.39125e-12 
-1.44756e-12 -1.35676e-10 -4.1137e-11 8.14439e-11 2.8695e-11 3.24733e-25 7.07306e-11 1.90626e-10 7.84068e-11 
4.89271e-11 6.6955e-11 -2.39125e-12 -3.4844e-11 -8.49736e-12 -1.30024e-11 2.72371e-11 -1.43475e-11 4.7825e-12 
2.17107e-10 4.70564e-10 2.06301e-10 -2.08782e-11 7.17375e-11 5.97812e-12 1.42456e-10 1.42252e-10 8.54124e-11 
1.78277e-10 5.739e-11 -2.15212e-11 2.44372e-11 1.89281e-10 6.41154e-11 -1.81305e-10 -9.565e-11 -1.43475e-11 
3.76432e-11 -1.46184e-10 -3.25621e-11 1.015e-10 1.43475e-11 -5.97812e-12 1.80843e-10 3.641e-10 1.63483e-10 
3.47983e-11 -2.8695e-11 1.19562e-12 -4.38105e-11 -1.68413e-10 -6.3667e-11 1.58059e-10 -8.36937e-11 -1.43475e-11 
-2.98411e-10 -6.13813e-10 -2.73667e-10 -8.82159e-11 -9.08675e-11 -8.96719e-12 2.78686e-10 6.06263e-10 2.65485e-10 
1.04147e-11 9.08675e-11 -7.17375e-12 4.86312e-12 -8.46752e-11 -2.39436e-11 1.64924e-11 -1.06278e-11 -8.13689e-12 
-7.69221e-12 -2.5312e-11 -9.90127e-12 1.34266e-11 2.92264e-11 -3.48724e-12 -1.61006e-10 -3.17866e-10 -1.43662e-10 
6.29813e-12 -1.32847e-12 3.6533e-12 3.84744e-11 8.65888e-11 3.7519e-11 -2.91292e-11 6.37667e-11 8.96719e-12 
1.77699e-11 -3.54007e-11 -5.28924e-12 -3.96336e-11 -1.86816e-11 -2.3352e-14 -7.68654e-11 -1.54787e-10 -6.94957e-11 
-2.77807e-11 9.565e-12 -1.19562e-12 -1.84328e-10 -3.70143e-10 -1.66341e-10 1.08452e-10 -6.21725e-11 -9.565e-12 
-1.94867e-11 -3.31955e-11 -1.58047e-11 -1.12179e-10 -1.913e-11 5.52531e-25 1.51443e-10 2.88136e-10 1.31874e-10 
2.24356e-11 -1.05215e-10 -1.61409e-11 -1.61912e-10 -3.73317e-10 -1.60569e-10 -1.41176e-11 8.13025e-11 2.98906e-12 
-1.60251e-10 -3.25285e-10 -1.45661e-10 -7.48125e-11 4.30425e-11 6.57594e-12 -1.00589e-11 9.87204e-12 -5.60449e-14 
2.76821e-11 -6.6955e-11 7.17375e-12 1.45267e-10 3.37654e-10 1.44876e-10 -4.85843e-11 -7.17375e-12 -5.38031e-12 
1.14481e-10 1.55095e-10 8.08728e-11 1.11942e-10 1.913e-11 -2.98906e-12 -1.07253e-10 -2.21543e-10 -9.8639e-11 
-5.33674e-11 6.45637e-11 1.31519e-11 1.54803e-10 3.12611e-10 1.40224e-10 1.98374e-11 2.37814e-25 -1.21057e-11 
-1.6486e-10 -3.33006e-10 -1.4936e-10 -4.2642e-11 -3.34775e-11 -4.48359e-13 1.75665e-10 3.40883e-10 1.54964e-10 
2.84771e-11 -1.00432e-10 -1.25541e-11 6.44392e-11 1.23124e-10 5.62691e-11 1.93559e-11 3.10862e-11 -1.19562e-12 
-3.45667e-11 -3.04454e-11 -1.95036e-11 -9.00064e-11 5.16988e-27 -5.97812e-12 2.22945e-10 4.97232e-10 2.16053e-10 
1.908e-11 -6.21725e-11 -6.27703e-12 8.31598e-11 1.57273e-10 7.21298e-11 1.35032e-10 -1.29127e-10 -1.31519e-11 
-1.65308e-10 -3.9813e-10 -1.69031e-10 -7.76538e-11 -5.02162e-11 -1.49453e-12 1.18083e-10 2.98705e-10 1.25036e-10 
8.98732e-12 -1.36301e-10 -1.80838e-11 -4.80141e-11 -1.38429e-10 -5.59328e-11 -1.89412e-11 -6.6955e-11 -1.913e-11 
1.52044e-11 1.16972e-11 8.07047e-12 -6.08598e-11 2.8695e-11 -7.17375e-12 -2.69252e-11 -7.61975e-11 -3.09368e-11 
7.81961e-11 3.94556e-11 -5.97812e-13 6.64912e-11 2.01404e-10 8.03684e-11 -2.30342e-12 3.28797e-11 1.34508e-12 
2.08595e-11 1.07296e-10 3.84468e-11 -1.36265e-13 -8.96719e-12 -1.34508e-12 1.18286e-10 1.97246e-10 9.46599e-11 
3.32349e-12 -3.10862e-11 -1.64398e-12 2.06392e-11 4.64279e-11 2.01201e-11 -5.91329e-11 -9.565e-12 -2.00333e-26 
-5.08596e-11 -7.89778e-11 -3.89512e-11 -3.16483e-11 1.43475e-11 -2.69016e-12 7.96175e-11 1.2943e-10 6.27143e-11 
2.37894e-11 -1.19562e-11 -2.76488e-12 8.18369e-11 2.08663e-10 8.71498e-11 4.29059e-11 -2.8695e-11 -5.38031e-12 
-2.05893e-10 -4.758e-10 -2.04508e-10 1.1927e-11 3.826e-11 -1.19562e-12 1.17505e-11 3.7569e-11 1.47959e-11 
1.82217e-11 -6.57594e-12 -2.91434e-12 3.44576e-11 7.35222e-11 3.2394e-11 -5.45617e-11 -1.03882e-25 -2.98906e-12 
-3.77509e-11 -7.13498e-11 -3.27302e-11 2.97921e-12 -1.913e-11 -1.19562e-12 4.34346e-12 6.29104e-11 2.01762e-11 
-1.23719e-11 -5.26075e-11 -5.67922e-12 -8.62036e-11 -1.90471e-10 -8.30025e-11 5.5692e-11 -6.21725e-11 4.48359e-12 
-5.3622e-13 -1.72113e-11 -5.32427e-12 -6.98713e-11 9.565e-12 -5.82867e-12 1.28332e-10 2.34652e-10 1.08895e-10 
1.24277e-10 -5.26075e-11 -7.21111e-12 1.20988e-11 8.48589e-11 2.90873e-11 -3.87445e-11 -5.79878e-11 -3.43742e-12 
2.25456e-11 7.94562e-11 3.06005e-11 1.20503e-11 -4.7825e-11 4.18469e-12 1.68029e-11 3.56008e-12 6.1089e-12 
-1.8541e-11 -9.565e-12 -6.57594e-12 4.06494e-12 9.75947e-12 4.14732e-12 7.38564e-12 1.19562e-12 -5.60449e-12 
3.27085e-11 7.80736e-11 3.32346e-11 1.22111e-11 -4.90206e-11 -5.00668e-12 5.47849e-12 4.57092e-11 1.53563e-11 
1.03339e-11 -2.74994e-11 4.18469e-12 3.71257e-11 7.55246e-11 3.37951e-11 5.216e-13 2.39125e-12 -6.35176e-13 
2.02001e-11 9.10146e-13 6.33308e-12 2.92602e-11 -1.43475e-11 1.34508e-12 -3.57988e-11 -1.74438e-11 -1.59728e-11 
-7.17173e-12 -1.43475e-11 2.09234e-12 -2.3749e-11 -9.00222e-11 -3.41314e-11 -3.33242e-11 -1.913e-11 -3.13852e-12 
-7.28193e-11 -1.7191e-10 -7.34188e-11 2.9644e-11 -9.565e-12 -5.38031e-12 -1.65038e-12 -1.33868e-12 -8.96719e-13 
3.23723e-12 9.565e-12 1.79344e-12 -1.27918e-11 2.28799e-11 3.02643e-12 1.56107e-11 -6.21725e-11 -8.96719e-13 
-4.59604e-11 -1.16383e-10 -4.8703e-11 -3.72829e-11 -2.27169e-11 3.73633e-13 -3.18254e-11 -7.12972e-11 -3.09368e-11 
1.84005e-11 -1.43475e-11 -1.34508e-12 1.5157e-10 3.2668e-10 1.43475e-10 -1.96121e-11 -3.34775e-11 1.49453e-13 
-6.8924e-12 -1.16024e-11 -5.54845e-12 -2.77904e-11 -1.19562e-11 -4.40887e-12 -7.34039e-11 -1.78611e-10 -7.56046e-11 
9.42477e-13 2.39125e-11 -3.40006e-12 1.24615e-10 2.86194e-10 1.23243e-10 -9.60473e-12 -4.30425e-11 -4.10996e-13 
4.80204e-11 9.78832e-11 4.37711e-11 3.51614e-13 2.39125e-12 -3.1572e-12 -4.68389e-12 -2.35254e-11 -8.46278e-12 
7.05976e-11 -4.7825e-12 -3.77369e-12 -5.50122e-11 -1.09013e-10 -4.92074e-11 -4.10239e-11 2.09234e-11 -3.16654e-12 
1.85544e-11 2.0677e-11 1.17694e-11 2.57706e-11 -3.94556e-11 -4.08194e-12 1.59273e-11 3.88099e-11 1.64212e-11 
3.20202e-11 -1.01628e-11 -1.70003e-12 -1.04827e-11 -4.55622e-11 -1.68135e-11 1.81909e-11 2.09234e-11 -3.26228e-12 
-2.0616e-11 -3.31872e-11 -1.61409e-11 -5.41688e-12 2.27169e-11 -1.34508e-12 2.87394e-11 7.34491e-11 3.06566e-11 
-1.70596e-11 7.77156e-12 -2.48466e-12 -6.86858e-12 -1.85385e-11 -7.62211e-12 2.07476e-11 -2.39125e-12 -1.38244e-12 
-3.32791e-11 -8.90857e-11 -3.67094e-11 1.51131e-11 2.98906e-12 -2.27916e-12 8.02306e-12 3.13952e-11 1.18255e-11 
2.22628e-11 4.18469e-12 -2.12971e-12 -1.88429e-11 -6.33563e-11 -2.46598e-11 -1.58658e-11 4.7825e-12 2.39125e-12 
-4.10361e-12 -1.2523e-11 -4.988e-12 3.91918e-12 5.97812e-13 -3.92314e-12 2.07855e-11 4.1798e-11 1.8775e-11 
-4.54478e-12 7.17375e-12 -4.18469e-12 2.95335e-11 7.5831e-11 3.16093e-11 9.21613e-12 1.03398e-26 -5.97812e-13 
4.04292e-11 7.25947e-11 3.39072e-11 -1.0435e-11 4.03523e-12 3.73633e-13 -9.46664e-12 -1.53799e-11 -7.45397e-12 
-1.12118e-11 8.51883e-12 1.19562e-12 -1.06416e-11 -1.90622e-11 -8.91114e-12 1.62144e-11 -2.39125e-12 -4.48359e-13 
-1.90655e-11 -3.79135e-11 -1.70937e-11 4.87314e-12 -1.49453e-12 3.73633e-13 -3.55959e-11 -7.96698e-11 -3.45797e-11 
3.31147e-12 5.97812e-12 -1.79344e-12 9.84922e-12 7.9931e-13 3.19456e-12 -9.52574e-12 1.79344e-12 -3.88578e-12 
-3.07889e-11 -4.54321e-11 -2.28663e-11 5.31042e-12 1.19562e-12 -5.38031e-12 -1.75675e-12 -8.70497e-12 -3.13852e-12 
4.49515e-12 -1.19562e-12 1.13091e-27 -8.02898e-12 -1.68547e-12 -2.91434e-12 2.73206e-12 1.19562e-12 -3.58687e-12 
-5.7546e-12 1.659e-11 3.2506e-12 3.32773e-12 1.27035e-12 -6.35176e-12 -6.64876e-12 -4.50261e-13 -2.12971e-12 
-5.57245e-12 1.19562e-12 1.19562e-12 2.37433e-11 1.11913e-11 1.04804e-11 3.04847e-13 -8.96719e-13 -2.98906e-12 
8.21512e-12 5.79611e-12 4.20337e-12 -1.059e-12 4.577e-13 -5.97812e-12 8.31789e-12 1.02293e-12 2.80225e-12 
1.87047e-12 1.91487e-13 -1.94289e-12 -5.75777e-12 -9.58786e-12 -4.60369e-12 1.94309e-13 8.00642e-13 2.88231e-12 
1.66383e-11 6.71379e-12 7.00561e-12 -6.50715e-12 1.70003e-12 -2.9517e-12 -3.38389e-12 6.69564e-12 9.93523e-13 
-5.29134e-12 -1.29073e-12 -4.07599e-13 3.56036e-11 7.86092e-11 3.42638e-11 -1.8272e-11 9.13023e-11 -1.35866e-12 
2.09098e-11 9.49977e-12 9.12287e-12 2.61665e-13 3.32118e-13 -9.96354e-13 3.29416e-12 3.89827e-12 2.15773e-12 
-1.99575e-12 3.13852e-12 -9.154e-13 -1.43522e-11 -8.92375e-11 -3.10769e-11 -6.48941e-13 -4.66294e-11 -3.58687e-12 
-2.76425e-11 -8.22055e-11 -3.29544e-11 -1.13555e-12 1.67387e-11 -3.88578e-12 1.28168e-12 5.86488e-13 5.60449e-13 
9.58071e-13 9.69352e-28 1.49453e-13 7.48701e-13 1.86673e-12 7.84629e-13 -1.09902e-12 5.08141e-12 -9.80786e-14 
1.94647e-12 3.8137e-12 1.72805e-12 -5.04126e-13 1.99271e-12 -9.4965e-13 6.38899e-12 6.68815e-12 3.92314e-12 
-1.83362e-13 1.19562e-12 7.47265e-14 2.6338e-12 1.84979e-12 1.34508e-12 -1.11539e-12 1.53189e-12 -2.61543e-13 
2.39471e-12 3.75466e-12 1.84481e-12 -1.68576e-13 3.11361e-14 1.5568e-13 6.23318e-12 4.50876e-12 3.22258e-12 
-8.64088e-13 -6.53857e-13 -3.26929e-13 -4.79367e-13 -6.88235e-13 -3.50281e-13 4.97447e-13 8.41452e-29 -1.24544e-13 
1.4313e-12 2.0248e-12 1.03683e-12 -2.15998e-13 -5.88472e-13 -2.06374e-13 1.69177e-12 1.88887e-12 1.07419e-12 
-1.1552e-12 1.68329e-13 -7.78402e-13 4.6028e-12 4.83142e-12 2.83027e-12 1.7809e-12 -1.86816e-13 -3.73633e-14 
2.45813e-12 1.97876e-12 1.33107e-12 -6.17438e-13 -3.69741e-14 -1.00706e-12 4.50239e-12 4.68275e-12 2.75554e-12 
1.76121e-12 -4.67041e-14 2.56873e-13 3.24179e-12 5.47631e-12 2.61543e-12 -3.84449e-13 -1.01192e-12 -7.79618e-14 
5.51194e-12 4.85637e-12 3.11049e-12 1.02245e-12 1.91954e-12 -8.64026e-13 3.96301e-12 6.51205e-12 3.14252e-12 
3.16434e-13 -2.96237e-12 -1.0842e-13 4.05122e-12 3.70166e-12 2.32586e-12 4.55872e-12 5.97812e-13 -1.49453e-13 
7.5866e-13 3.04439e-12 1.14091e-12 2.75772e-12 -5.13745e-13 1.97867e-13 2.76211e-12 -3.69619e-12 -2.80225e-13 
-3.03605e-12 -7.47265e-13 -1.44783e-12 8.87442e-12 1.6268e-11 7.54271e-12 3.71888e-12 1.89152e-12 3.08685e-13 
-2.58529e-12 -7.03575e-12 -2.88631e-12 2.34358e-12 -2.39125e-12 -2.82728e-28 -3.5763e-12 -3.16244e-12 -2.02162e-12 
-6.36746e-14 5.60449e-13 -4.14916e-13 6.92202e-12 1.60408e-11 6.88885e-12 1.47925e-12 -1.49453e-12 6.22721e-14 
-1.45204e-12 -1.1892e-11 -4.00321e-12 1.50278e-13 -3.5762e-12 -4.16167e-13 8.0173e-13 1.05629e-11 3.4094e-12 
-2.87967e-12 1.68135e-12 7.00561e-13 8.60616e-12 2.0039e-11 8.59355e-12 -4.34757e-12 2.42861e-12 -2.3352e-14 
1.00932e-11 2.07315e-11 9.24741e-12 3.35067e-12 -4.48359e-12 -1.49453e-13 -3.81619e-12 -4.19023e-12 -2.40192e-12 
3.43799e-12 8.54018e-13 5.88805e-13 -5.1687e-12 -3.42485e-12 -2.57807e-12 -3.31496e-12 -1.79344e-12 -1.49453e-13 
8.70715e-12 1.00679e-11 5.63251e-12 5.5502e-13 5.97812e-13 1.23766e-13 2.1397e-12 -4.24138e-12 -6.30505e-13 
-2.01851e-13 -3.17588e-12 4.20337e-13 7.76467e-12 1.11505e-11 5.67455e-12 -3.38056e-12 1.24544e-13 -8.87378e-13 
1.48449e-12 8.50713e-13 7.00561e-13 3.55075e-12 -1.10595e-11 -1.34508e-12 -4.99477e-12 -1.1196e-11 -4.85723e-12 
-4.27728e-12 -1.83703e-12 3.71687e-13 1.70823e-11 1.09401e-11 8.40674e-12 -9.00273e-12 -2.39125e-12 -2.01762e-12 
-3.26043e-12 -7.01447e-12 -3.08247e-12 4.07419e-12 -7.72174e-12 6.69425e-13 6.41159e-12 2.08325e-11 8.17322e-12 
1.65286e-12 -6.97448e-12 -6.22721e-14 -2.50246e-11 -6.04439e-11 -2.56405e-11 -3.65803e-12 -2.22311e-11 -7.16129e-13 
-1.01526e-11 1.09203e-12 -2.71818e-12 1.23531e-12 -1.07606e-11 2.39125e-12 -1.20119e-11 -3.46143e-11 -1.39879e-11 
1.26839e-12 8.34446e-12 2.0472e-12 -4.95349e-12 -2.1123e-11 -7.82294e-12 -4.05372e-12 -3.98542e-12 -2.36634e-12 
7.16777e-12 8.0889e-12 4.577e-12 -3.42149e-12 1.22053e-11 3.50281e-13 7.19471e-12 4.64757e-13 2.29784e-12 
4.06583e-12 7.47266e-12 5.23086e-13 2.09006e-11 4.94225e-11 2.10969e-11 -7.60216e-12 1.06752e-11 1.46784e-12 
1.42202e-12 5.77041e-12 2.15773e-12 -1.27618e-12 -3.58687e-12 2.69016e-12 -5.93512e-12 -1.22795e-11 -5.46438e-12 
6.79476e-12 -7.34811e-12 -1.04306e-12 1.81039e-11 2.06605e-11 1.16293e-11 2.71837e-12 -1.55431e-11 -2.69016e-12 
2.0847e-11 4.81416e-11 2.06966e-11 -1.05653e-11 9.92796e-12 3.73633e-13 -7.37179e-12 -1.03494e-12 -2.52202e-12 
-3.34217e-12 -2.17952e-11 -1.65021e-12 -9.09714e-12 -1.50333e-11 -7.23913e-12 -5.42487e-12 -5.97812e-12 -1.99271e-12 
1.05811e-11 9.31487e-12 5.96878e-12 -1.1016e-11 -4.7825e-12 -1.49453e-13 -1.25075e-12 6.25476e-12 1.5012e-12 
-3.86144e-12 -7.47266e-12 -2.62877e-12 -1.48156e-11 -2.53499e-11 -1.20497e-11 5.27458e-12 -7.09902e-12 -8.59355e-13 
2.3728e-12 -1.1585e-12 3.64292e-13 6.57149e-13 -4.18469e-12 -2.91434e-12 -1.13086e-11 -3.19705e-11 -1.29837e-11 
-9.45225e-12 6.22721e-12 -1.77476e-12 -9.47782e-12 -1.83111e-11 -8.33668e-12 2.92664e-12 -7.72174e-12 -1.40112e-12 
-2.28815e-11 -4.06361e-11 -1.90553e-11 -4.72239e-12 2.03256e-11 4.63305e-12 -9.63926e-12 -3.81857e-11 -1.43475e-11 
-9.81129e-12 -1.55431e-11 -3.58687e-12 -2.63929e-11 -5.13227e-11 -2.33147e-11 -3.72672e-11 -9.565e-12 -2.69016e-12 
3.2154e-11 5.1135e-11 2.49867e-11 1.71473e-12 4.09282e-26 -2.86452e-12 -1.57942e-11 -2.58503e-11 -1.24933e-11 
1.26258e-12 -1.99271e-11 -1.5568e-12 1.10867e-11 3.26594e-11 1.31239e-11 9.63618e-13 1.56926e-11 1.88373e-12 
1.25082e-11 7.9482e-12 6.13692e-12 8.08512e-12 -3.10862e-11 -7.47265e-14 6.90967e-12 1.63089e-11 6.96558e-12 
1.20137e-11 1.06752e-11 6.93889e-13 -2.26807e-11 -6.38153e-11 -2.59488e-11 -3.3305e-11 -4.23956e-11 -2.61426e-12 
-2.29567e-11 -4.93568e-11 -2.16941e-11 -6.64944e-12 8.96719e-12 -1.27658e-12 -7.10575e-12 -2.2131e-11 -8.77103e-12 
-6.77949e-12 -4.33414e-11 -8.59355e-13 -1.64478e-11 -5.54098e-11 -2.15573e-11 -8.18558e-12 2.23913e-11 -1.50454e-12 
-6.79976e-11 -1.13494e-10 -5.44476e-11 -2.45726e-11 2.45103e-11 -3.34401e-12 -6.10715e-12 -2.24491e-11 -8.56687e-12 
-3.78969e-12 3.08514e-11 -2.93569e-13 -1.97132e-12 4.39993e-12 7.28584e-13 -1.21802e-11 1.31519e-11 6.57594e-12 
4.45707e-13 -6.91756e-12 -1.94156e-12 1.95646e-11 -6.19163e-12 -2.6221e-12 4.03912e-11 1.09436e-10 4.4948e-11 
-2.32269e-11 -9.63972e-12 6.42648e-12 1.6504e-11 2.0192e-11 1.10088e-11 1.68653e-11 -2.51935e-11 -2.13504e-12 
2.07171e-11 1.07615e-11 9.44357e-12 9.50074e-12 -1.5842e-11 2.69016e-12 3.00584e-11 5.57993e-11 2.57573e-11 
-8.75802e-12 9.96354e-13 -4.29678e-12 -3.00096e-11 -7.61955e-11 -3.18615e-11 4.81277e-12 1.04617e-12 5.58581e-12 
2.39552e-11 5.06935e-11 2.23946e-11 3.19113e-12 3.98542e-12 -3.73633e-12 1.60023e-12 -1.21272e-13 4.43689e-13 
1.1473e-11 -6.97448e-12 -4.73268e-12 -6.88638e-12 -2.9932e-11 -1.10455e-11 -2.08719e-11 1.29526e-11 4.35905e-13 
6.48273e-11 1.22736e-10 5.62691e-11 1.04926e-11 -3.10115e-12 3.72699e-12 4.24483e-12 1.81731e-11 6.72539e-12 
5.55052e-12 5.97812e-12 3.73633e-13 2.6644e-11 -9.17664e-12 5.2402e-12 2.55313e-11 3.22819e-11 7.17375e-12 
2.15375e-11 5.53686e-11 2.30718e-11 1.50247e-11 1.29526e-11 -1.61908e-12 -3.96764e-11 -6.09242e-11 -3.01802e-11 
8.61971e-12 3.55512e-11 5.9501e-12 -2.93685e-11 -7.53265e-11 -3.14085e-11 -1.27885e-11 6.97448e-12 -1.1209e-12 
4.22016e-12 2.11869e-11 7.62211e-12 -4.69066e-13 -2.76488e-12 -2.98906e-13 -2.91295e-12 -1.80261e-11 -6.2817e-12 
1.34746e-11 2.59052e-11 7.47265e-13 -2.52242e-11 -8.4437e-11 -3.28984e-11 -2.71896e-11 -2.67521e-11 -1.13958e-12 
2.2437e-11 2.15427e-11 1.31939e-11 1.04241e-11 3.68651e-11 2.86452e-12 -1.46968e-11 -5.48923e-11 -2.08767e-11 
2.17699e-11 -7.17375e-12 -2.69016e-12 4.16515e-11 9.85942e-11 4.20737e-11 3.50997e-11 -7.04565e-12 2.4553e-12 
-3.45411e-11 -7.75488e-11 -3.36269e-11 6.65758e-12 -1.29526e-11 4.54586e-12 -2.59723e-11 -3.12069e-11 -1.71537e-11 
-1.59807e-11 3.41607e-12 8.54018e-13 4.64576e-12 -9.12935e-12 -1.34508e-12 -3.52971e-11 1.67387e-11 -4.48359e-13 
-5.93122e-11 -1.71473e-10 -6.92355e-11 3.02987e-12 -1.67601e-11 4.19002e-12 5.70135e-11 1.20649e-10 5.32987e-11 
1.43713e-11 -1.55431e-11 -3.58687e-12 -1.91951e-11 -4.7514e-11 -2.00127e-11 -2.43387e-11 -8.96719e-12 4.98177e-12 
-1.04107e-11 -1.96592e-12 -3.71298e-12 7.75398e-12 -3.88578e-11 1.49453e-12 5.32329e-11 1.23976e-10 5.31626e-11 
2.48681e-11 -1.04617e-11 4.80385e-12 6.02789e-11 1.34321e-10 5.83801e-11 2.08683e-11 -1.54435e-11 -6.60085e-12 
3.02715e-11 5.32621e-11 2.50601e-11 2.75799e-11 -2.04964e-11 -1.17427e-12 5.48249e-11 6.57651e-11 3.6177e-11 
1.22978e-11 4.7825e-12 -9.26609e-12 5.72303e-11 1.36725e-10 5.81866e-11 -2.64107e-11 -2.96771e-11 1.65466e-12 
4.1113e-11 7.13504e-11 3.3739e-11 -5.41111e-12 -4.7825e-12 -9.26609e-12 8.78658e-11 1.68929e-10 7.70384e-11 
1.76242e-11 -1.19562e-11 2.73997e-12 3.34437e-11 8.36279e-11 3.51215e-11 8.69586e-12 -1.66889e-11 4.79495e-12 
7.94362e-11 1.96663e-10 8.28297e-11 3.12194e-11 9.71445e-12 4.9195e-12 -2.18858e-11 -4.77033e-11 -2.08767e-11 
1.01793e-11 -3.34775e-11 2.98906e-12 6.38173e-11 1.51644e-10 6.46385e-11 -1.44748e-11 2.19198e-11 -3.23815e-12 
-2.91895e-11 -9.52302e-11 -3.73259e-11 -5.28543e-11 -1.43475e-11 1.19562e-12 9.3236e-12 1.39506e-11 6.98226e-12 
-5.22495e-12 -9.96354e-12 -1.49453e-12 -2.21465e-11 -1.11218e-12 -6.97759e-12 -2.92358e-11 2.8695e-11 -5.97812e-13 
9.92496e-12 2.82946e-11 1.14659e-11 -1.08404e-11 7.97083e-12 2.49089e-13 3.18304e-11 6.14999e-11 2.79991e-11 
-3.42182e-11 -6.17739e-11 2.98906e-12 2.10014e-11 7.46642e-11 2.86997e-11 2.1858e-11 -1.3949e-11 3.42497e-12 
6.43974e-11 1.61557e-10 6.77863e-11 -4.24985e-11 1.70377e-11 5.34295e-12 2.01019e-11 6.20974e-11 2.46598e-11 
5.14949e-11 -2.4037e-11 -3.93871e-12 5.01498e-11 1.02666e-10 4.58447e-11 -2.24946e-11 5.64933e-11 6.05285e-12 
1.0233e-10 2.02381e-10 9.14133e-11 -1.10603e-11 4.16334e-11 -4.00321e-12 4.32526e-11 1.11104e-10 4.63071e-11 
-3.41747e-11 1.56926e-11 6.84993e-13 6.32848e-11 1.42992e-10 6.18829e-11 5.22705e-11 3.78615e-11 5.72904e-12 
-6.4761e-11 -1.05896e-10 -5.1197e-11 -3.97181e-11 5.14492e-11 -8.0331e-13 -2.11117e-11 -5.62836e-11 -2.32186e-11 
-6.94102e-12 1.32373e-11 2.26848e-12 -2.52852e-11 -6.36394e-11 -2.66774e-11 -7.76024e-12 2.55565e-11 4.49293e-12 
-5.82712e-11 -6.2381e-11 -3.61957e-11 5.17759e-11 -3.48724e-11 1.80589e-12 -4.2137e-11 -2.63312e-11 -2.05405e-11 
-4.16113e-12 -3.4972e-11 7.09902e-13 2.88557e-11 7.58949e-11 3.14252e-11 -2.65092e-11 1.92154e-11 1.02482e-11 
-4.18486e-12 -1.00526e-10 -3.14132e-11 4.42428e-11 -7.17375e-12 -1.19562e-11 -8.82327e-12 -4.57427e-11 -1.63698e-11 
5.58525e-11 -4.58323e-11 5.47995e-12 -4.02237e-11 -2.79643e-11 -2.04564e-11 -1.65774e-11 3.43742e-11 2.80225e-12 
1.72621e-11 2.6484e-11 1.31239e-11 9.07553e-12 3.18833e-11 6.41403e-12 -8.81447e-13 -1.63057e-11 -5.15613e-12 
2.78956e-11 2.2418e-13 9.83588e-12 -7.33072e-11 -1.80229e-10 -7.60609e-11 9.63534e-12 6.83214e-12 -4.27009e-12 
3.71631e-11 1.40406e-10 5.32707e-11 -1.57272e-11 1.80091e-11 2.29784e-12 9.25172e-11 1.47542e-10 7.20177e-11 
4.3509e-11 2.19198e-11 5.47995e-12 -6.95522e-12 3.96481e-11 9.80786e-12 1.76585e-11 2.96664e-11 2.42861e-13 
6.18433e-11 7.73349e-11 4.17535e-11 1.99605e-11 -7.97083e-12 -2.98906e-12 1.09132e-10 1.60257e-10 8.08168e-11 
7.02607e-12 2.15212e-11 3.58687e-12 -6.64425e-12 -1.1726e-11 -5.51108e-12 3.08464e-11 2.04641e-26 6.22721e-12 
1.22882e-10 2.05821e-10 9.8611e-11 4.52452e-11 -1.19562e-12 3.99787e-12 1.38266e-11 4.44868e-11 1.7494e-11 
3.54225e-12 1.66533e-11 -3.96318e-12 -3.09249e-11 3.57821e-11 1.45717e-12 -3.28475e-11 4.90206e-11 8.81773e-12 
3.63313e-11 5.16058e-11 2.63811e-11 6.62966e-11 3.04244e-11 5.53777e-12 -7.4346e-11 -1.0492e-10 -5.37798e-11 
-6.87656e-11 8.46901e-12 2.11725e-12 4.43533e-11 1.16509e-10 4.82587e-11 1.22015e-11 1.02482e-11 1.28103e-12 
-8.63881e-11 -1.43396e-10 -6.89352e-11 1.87458e-11 -6.18362e-11 1.31799e-11 1.46975e-11 -4.81177e-12 2.96571e-12 
-1.04789e-11 -9.96354e-13 4.60814e-12 -1.85823e-11 -1.39277e-10 -4.7358e-11 -5.76044e-12 -7.83134e-11 1.04057e-11 
-7.66902e-12 -2.60914e-11 -1.01281e-11 -3.8064e-11 -3.71498e-11 -1.06752e-13 3.15643e-11 4.27886e-11 2.23059e-11 
8.21376e-11 -6.6955e-11 1.85322e-11 6.54315e-11 1.3206e-10 5.92475e-11 2.42232e-11 -7.83294e-12 1.81445e-11 
-8.89488e-11 -1.52511e-10 -7.2438e-11 -3.31829e-11 8.13025e-11 -1.79344e-12 3.86395e-11 7.37172e-11 3.3707e-11 
2.23669e-11 1.85749e-11 3.81639e-12 1.55714e-12 2.25422e-11 7.22979e-12 6.84709e-11 9.08675e-11 2.39125e-12 
3.79735e-11 5.97937e-11 2.93302e-11 2.92824e-11 3.98542e-11 -4.98177e-12 4.5941e-11 1.62204e-10 6.24434e-11 
-1.48607e-11 2.19198e-11 1.99271e-12 3.23281e-11 5.74994e-11 2.69483e-11 1.46707e-12 -1.99271e-11 -2.2418e-12 
4.58355e-11 2.94515e-11 2.25861e-11 4.63937e-11 5.87351e-11 1.12837e-11 8.75067e-11 1.77105e-10 7.93836e-11 
7.64724e-11 3.37337e-11 7.17909e-12 2.36074e-11 -8.7592e-11 -1.91954e-11 5.77831e-11 -1.79344e-11 -4.10996e-13 
3.94774e-11 4.8482e-11 2.63878e-11 1.23119e-11 -2.59052e-11 -2.5407e-11 3.60789e-11 4.54664e-11 2.44636e-11 
-1.27582e-11 3.10862e-11 1.79344e-12 6.89138e-11 1.38375e-10 6.21865e-11 -1.7646e-12 2.44107e-11 -1.86816e-13 
2.72274e-12 5.83968e-12 2.56873e-12 7.01032e-11 -1.99271e-12 -3.98542e-12 7.57104e-11 2.07939e-10 8.50949e-11 
1.38722e-11 1.24544e-11 -1.18317e-12 2.46865e-11 7.91298e-12 9.77984e-12 -6.07378e-11 4.75728e-11 -1.1676e-13 
4.07116e-11 3.39482e-11 2.23979e-11 3.57473e-11 -1.08887e-11 8.43342e-12 -7.26399e-11 -2.61201e-10 -1.00152e-10 
3.76685e-11 2.39125e-12 -1.19562e-12 -1.06311e-10 -2.68178e-10 -1.12347e-10 1.25437e-11 -6.82502e-11 -8.65583e-12 
1.92854e-10 4.26816e-10 1.85901e-10 2.47042e-11 -4.06512e-11 5.08141e-12 1.26545e-11 3.05802e-11 1.29704e-11 
2.60823e-11 4.2474e-11 -3.7897e-12 5.87086e-12 1.20635e-11 5.38031e-12 2.77682e-11 -2.39125e-11 6.57594e-12 
3.29352e-11 6.74786e-11 3.01241e-11 -1.23272e-11 -8.32667e-12 -4.13665e-12 -2.53581e-11 -3.14341e-11 -1.70377e-11 
-2.4707e-11 -2.63037e-11 -2.98906e-12 1.20649e-11 4.23788e-11 1.63331e-11 -8.18682e-11 1.13157e-11 8.00642e-13 
5.40386e-11 1.38616e-10 5.77963e-11 3.58135e-11 1.59417e-11 1.07108e-11 4.46386e-12 1.25572e-11 5.10631e-12 
1.27863e-12 3.32118e-13 -9.13325e-13 2.43973e-11 7.46153e-11 2.97038e-11 6.62236e-11 -3.58687e-11 -1.22884e-11 
-6.16601e-12 -1.53179e-11 -6.44516e-12 8.47874e-13 -4.31753e-12 1.66059e-13 8.03374e-11 2.61848e-10 1.02656e-10 
1.31055e-11 -1.00964e-10 -1.52774e-11 -2.24308e-12 -6.16365e-12 -2.52202e-12 1.1804e-14 -5.94416e-12 -8.91624e-14 
2.7128e-12 7.3797e-11 2.29529e-11 -1.29671e-11 -2.82602e-11 -3.19286e-12 -7.00849e-11 -1.75034e-10 -7.35356e-11 
5.21836e-11 -8.96719e-12 -5.72904e-12 9.71652e-12 6.31855e-12 4.81052e-12 7.03496e-13 -5.97812e-12 -4.48359e-12 
3.21124e-12 6.23336e-12 2.83338e-12 -3.74614e-13 5.39692e-13 -1.24544e-13 -2.13705e-11 -9.01249e-11 -3.34486e-11 
5.32373e-11 -4.34773e-11 8.96719e-12 -2.53323e-12 -5.78859e-12 -2.49655e-12 -1.76616e-12 2.3437e-12 -5.3922e-13 
5.35359e-13 -3.57112e-12 -9.1073e-13 1.90124e-12 8.09538e-13 -4.28121e-13 4.71177e-12 4.62905e-12 2.80225e-12 
-1.78166e-12 -1.09521e-12 -6.42181e-14 1.6583e-12 3.01211e-12 1.40112e-12 -1.83462e-12 -8.78037e-13 -9.45758e-14 
1.0535e-12 -2.52858e-13 2.40192e-13 -1.2815e-13 1.3344e-13 2.38107e-13 7.79058e-14 1.79026e-12 5.60449e-13 
7.8282e-13 1.56926e-12 3.43275e-13 1.22828e-12 1.29374e-12 7.56606e-13 -1.90204e-12 2.09234e-12 3.17588e-13 
-2.00393e-12 -8.53785e-12 -3.16253e-12 1.21824e-12 3.20257e-13 -5.20417e-13 -7.49374e-12 -1.8754e-11 -7.87431e-12 
1.92841e-13 -2.39125e-12 -3.36269e-13 3.55325e-12 2.7649e-13 1.14892e-12 3.22012e-12 1.19562e-12 1.86816e-13 
-6.62846e-12 -1.37212e-11 -6.10489e-12 4.07285e-12 4.27009e-13 1.1209e-12 -4.43115e-12 -9.11304e-12 -4.06326e-12 
-4.48935e-12 3.96051e-12 -1.68135e-13 2.02414e-12 6.28919e-12 2.494e-12 1.25745e-12 2.46598e-12 9.34082e-14 
9.94279e-12 2.00813e-11 9.00722e-12 7.94457e-13 -2.34855e-12 -8.00642e-13 1.07714e-11 1.66906e-11 8.2386e-12 
2.34198e-12 -3.51215e-12 -5.23086e-13 3.36875e-12 -9.40139e-13 7.28584e-13 -2.32409e-12 -1.48706e-11 1.68135e-12 
7.77795e-13 -5.38148e-12 -1.38111e-12 -9.46089e-12 -1.28103e-12 3.20257e-13 1.76079e-11 3.71293e-11 1.64212e-11 
2.0436e-12 2.98906e-12 2.98906e-13 -4.58895e-13 1.03446e-11 2.96571e-12 3.48162e-13 5.97812e-12 3.05133e-12 
1.15538e-12 1.17982e-12 7.00561e-13 2.08336e-12 -1.32266e-11 2.01762e-12 -3.26698e-11 -6.03648e-11 -2.79104e-11 
3.67552e-12 3.13852e-12 -1.84948e-12 -7.10631e-12 -7.30524e-12 -4.32346e-12 -9.33575e-13 8.54018e-13 2.56205e-12 
-2.42499e-12 -1.54782e-11 -5.37097e-12 7.02548e-14 9.96354e-13 2.2418e-12 -4.55711e-11 -7.3898e-11 -3.58407e-11 
-1.61227e-11 -2.31652e-11 8.0331e-13 -2.78375e-11 -5.77244e-11 -2.56686e-11 -1.7856e-11 -2.83961e-12 -3.38138e-12 
-3.35162e-11 -6.72312e-11 -3.02242e-11 -1.12116e-11 1.15292e-11 -1.92154e-12 -3.92323e-11 -8.86436e-11 -3.83627e-11 
-7.81006e-12 -2.5407e-12 1.1209e-13 -1.02742e-11 -2.04571e-11 -9.21939e-12 -1.223e-11 7.62211e-12 1.53189e-12 
9.95824e-12 3.40771e-11 1.32106e-11 -1.49518e-11 -2.98906e-12 3.41607e-12 3.48451e-11 8.80801e-11 3.68776e-11 
2.83608e-12 1.79344e-12 1.94289e-12 9.13414e-12 2.40258e-11 9.94797e-12 -1.61909e-11 1.67387e-11 2.98906e-12 
2.56527e-11 5.97491e-11 2.56205e-11 -1.49032e-11 -6.40513e-12 -4.90446e-27 6.08883e-11 1.27796e-10 5.66054e-11 
6.37581e-12 -2.49088e-11 -2.11725e-12 -1.97224e-11 -2.66704e-11 -1.39178e-11 2.23903e-12 9.96354e-12 -1.86816e-12 
-4.85066e-12 3.76089e-12 -3.26929e-13 -8.3814e-12 1.29526e-11 1.99271e-12 2.83423e-11 3.35406e-11 1.85649e-11 
1.42754e-11 2.47723e-26 3.73633e-12 6.4006e-11 1.23277e-10 5.6185e-11 -6.66775e-13 8.96719e-12 5.72904e-12 
4.32632e-11 6.71141e-11 3.31132e-11 8.48274e-12 9.96354e-13 3.48724e-12 3.25816e-11 7.36235e-11 3.18615e-11 
5.43305e-12 7.0243e-12 -4.29678e-13 4.61528e-11 1.29455e-10 5.26822e-11 2.48509e-13 1.88311e-11 -3.84842e-12 
-3.38108e-11 -8.15483e-11 -3.46077e-11 -1.61907e-11 1.79344e-11 -6.40513e-13 -2.28796e-11 -2.53813e-11 -1.44783e-11 
4.19322e-12 -2.98906e-12 2.49089e-13 -3.22743e-11 -6.6894e-11 -2.97505e-11 6.93465e-12 -4.98177e-12 -4.10996e-12 
-1.24659e-11 -3.18252e-11 -1.32873e-11 -1.7319e-11 1.3949e-11 -2.61543e-12 -3.42733e-12 -2.31162e-11 -7.96305e-12 
1.37178e-11 7.97083e-12 -1.49453e-12 -9.552e-12 8.65041e-13 -2.60609e-12 7.29875e-12 -1.31519e-11 9.71445e-13 
1.26901e-11 -1.38772e-12 3.39072e-12 7.18046e-12 1.19562e-11 3.51215e-12 1.9414e-11 5.0909e-11 2.10969e-11 
1.26568e-11 3.15987e-11 -3.41607e-12 4.17381e-12 2.19026e-11 7.82294e-12 5.41303e-12 -1.24544e-11 -5.97812e-12 
2.16242e-11 5.46422e-12 8.12651e-12 -1.44402e-12 -4.42381e-11 -3.81105e-12 1.36992e-12 -4.303e-11 -1.2498e-11 
-3.46356e-12 -3.28797e-11 -2.31652e-12 -7.45971e-11 -1.61726e-10 -7.08968e-11 1.03383e-11 3.41607e-12 -1.06752e-12 
-3.38503e-11 -6.1426e-11 -2.85829e-11 2.12757e-11 -2.09234e-12 -1.64398e-12 1.54641e-11 1.90987e-12 5.21218e-12 
-2.30198e-11 -3.67655e-11 1.64398e-12 5.04758e-12 1.22329e-11 5.18415e-12 -9.36494e-12 -1.87884e-11 -1.49453e-12 
-2.78681e-11 -7.08332e-11 -2.96104e-11 -1.69296e-12 4.03523e-11 2.49088e-12 -2.16106e-11 -6.10556e-11 -2.47999e-11 
-2.2743e-12 -4.96184e-11 2.39125e-12 -1.52148e-11 -3.82147e-11 -1.60288e-11 -5.70693e-11 7.05419e-11 3.28797e-12 
3.67648e-11 6.15807e-11 2.95036e-11 1.38236e-12 4.29144e-11 3.73633e-12 4.38029e-11 1.14711e-10 4.75541e-11 
-6.96131e-13 5.52976e-11 7.0243e-12 -7.94146e-12 3.75519e-11 8.88312e-12 -5.2158e-12 -7.17375e-12 2.09234e-12 
1.19799e-11 2.02459e-11 9.66775e-12 -1.35738e-11 -2.64745e-11 5.12411e-12 2.65569e-11 6.91087e-11 2.86997e-11 
2.70976e-12 5.97812e-12 3.73633e-12 3.91461e-11 8.55538e-11 3.741e-11 -2.17454e-11 -2.59052e-11 4.98177e-13 
-8.98364e-11 -1.83009e-10 -8.18536e-11 -1.72212e-11 -1.01628e-11 -8.4441e-12 -6.90151e-11 -2.13918e-10 -8.488e-11 
3.32229e-11 -5.67922e-11 -3.06379e-12 -1.34872e-10 -3.06148e-10 -1.32306e-10 -4.11449e-11 -2.39125e-11 -6.40513e-13 
-1.0161e-10 -1.99165e-10 -9.02323e-11 -5.72902e-11 9.96354e-12 1.74362e-12 1.45224e-11 -3.1577e-12 3.4094e-12 
-1.99491e-11 2.59052e-11 1.24544e-12 1.82108e-11 2.35894e-11 1.254e-11 1.29827e-11 -2.59052e-11 -3.23815e-12 
3.76694e-12 1.44477e-11 5.46438e-12 2.96015e-12 3.88578e-11 8.09538e-12 -9.12499e-12 5.19993e-11 1.28623e-11 
-4.70104e-11 1.15976e-10 1.86816e-11 4.46042e-11 1.04475e-10 4.47238e-11 -9.15179e-12 -6.21725e-11 6.57594e-12 
1.11052e-10 1.58898e-10 8.09849e-11 3.95777e-11 -6.66134e-11 2.13504e-13 9.87313e-11 1.5207e-10 7.52403e-11 
2.17859e-11 -1.19562e-11 1.02126e-11 -5.35119e-11 -5.09495e-11 -3.13384e-11 -1.76758e-12 4.38396e-11 7.08166e-26 
-1.61217e-12 -3.6763e-11 -1.15126e-11 3.60509e-11 3.3876e-11 -3.98542e-12 -3.77455e-11 -2.33434e-11 -1.83267e-11 
-5.62913e-11 2.15212e-11 7.77156e-12 1.16404e-11 7.9059e-11 2.72098e-11 -6.12714e-11 1.43475e-11 2.09234e-11 
-1.02992e-11 -3.93406e-11 -1.48919e-11 4.24744e-12 -3.24527e-11 -2.13504e-12 -2.83599e-11 -6.97966e-11 -2.94469e-11 
2.44862e-11 -2.09234e-11 9.40309e-12 -1.06639e-11 1.81365e-11 2.2418e-12 2.8925e-11 -1.04617e-11 1.19562e-12 
-9.59246e-11 -1.91679e-10 -8.62811e-11 -3.0534e-11 5.55966e-11 -6.12758e-12 1.20714e-10 1.87132e-10 9.2354e-11 
5.31889e-11 3.92848e-11 -6.61864e-12 1.55691e-10 3.69076e-10 1.5743e-10 5.95996e-11 -4.06512e-11 -3.88578e-12 
1.0972e-10 2.8194e-10 1.17498e-10 -2.01161e-11 8.6085e-11 5.97812e-12 6.24622e-12 1.32465e-10 4.16133e-11 
-8.52532e-11 2.39125e-12 -5.38031e-12 -1.86162e-11 -1.09727e-10 -3.85029e-11 2.48708e-11 -4.7825e-11 1.67387e-11 
-1.02303e-11 -2.12482e-11 -9.44357e-12 2.17221e-12 -3.51215e-12 -1.04617e-12 4.78034e-12 -9.35734e-12 -1.3731e-12 
-3.25037e-11 -1.19562e-12 2.98906e-13 -1.05029e-12 1.15408e-12 3.11361e-14 -3.33128e-13 -4.02174e-13 -1.03268e-12 
-1.41796e-11 -9.85177e-12 -7.20941e-12 3.29654e-13 3.43063e-12 1.019e-12 5.22346e-12 1.96897e-12 2.15773e-12 
-4.06385e-12 -3.17588e-12 -1.44432e-12 4.20996e-12 1.30961e-12 1.65587e-12 -7.61663e-14 -1.19732e-12 -1.90744e-12 
9.55968e-13 2.70252e-12 1.09755e-12 -2.08027e-12 -2.51034e-13 -1.5568e-14 9.58193e-13 3.45747e-12 1.3247e-12 
-1.42439e-12 3.16314e-13 -6.45366e-13 -4.36675e-12 -3.52105e-12 -2.36634e-12 5.32464e-13 8.7181e-13 7.8878e-13 
4.91063e-12 -5.34033e-14 1.45717e-12 2.05364e-13 1.25167e-12 5.88472e-13 -5.87115e-13 -9.41383e-13 -4.58549e-13 
2.17139e-13 7.98215e-13 1.41811e-12 7.81381e-12 5.59694e-12 4.02322e-12 -1.99775e-12 -3.40273e-12 1.34107e-12 
5.80014e-12 1.08435e-11 4.99309e-12 1.47628e-12 -3.66839e-12 1.69833e-12 1.0871e-11 1.9331e-11 9.06059e-12 
5.77696e-13 -5.23086e-12 1.43226e-12 7.66489e-12 8.89384e-12 4.96762e-12 -3.52059e-12 -3.80426e-12 -1.3247e-12 
-2.06173e-12 2.99581e-12 2.80225e-13 -2.55805e-12 1.02749e-11 2.17952e-13 8.02023e-13 7.0103e-12 2.3437e-12 
-6.34832e-13 -7.47265e-13 4.33074e-13 1.0642e-12 -1.4534e-12 -1.1676e-13 3.24246e-12 5.26199e-12 4.35905e-13 
1.42273e-11 2.26171e-11 1.10533e-11 7.82869e-12 5.31389e-12 3.6533e-12 5.84995e-12 1.94552e-11 7.59154e-12 
-7.9628e-12 6.21589e-12 1.04023e-12 1.04532e-11 1.24318e-11 6.8655e-12 -1.24226e-12 9.8639e-12 1.25167e-12 
1.4454e-11 3.11462e-11 1.36801e-11 1.24139e-12 -2.98906e-12 1.63889e-12 -2.37893e-11 -4.8135e-11 -2.15773e-11 
-2.24804e-11 2.32483e-12 1.4115e-12 1.53952e-11 3.06861e-11 1.38244e-11 8.5574e-12 -7.47266e-12 1.22209e-12 
1.19367e-11 3.28143e-11 1.34253e-11 1.52395e-12 -5.43466e-13 1.91487e-12 8.49075e-12 1.61067e-11 7.37925e-12 
1.16853e-11 5.23086e-12 1.56264e-12 8.28159e-12 2.27129e-11 9.29836e-12 -2.04784e-12 5.70639e-12 1.31196e-12 
2.79215e-11 6.77441e-11 2.86997e-11 1.118e-11 3.11361e-12 1.64875e-12 1.49787e-11 2.71399e-11 1.26356e-11 
1.65656e-11 -5.97812e-12 1.95308e-12 4.80916e-12 4.92086e-12 2.91901e-12 -1.17177e-11 -8.68696e-12 1.15982e-12 
7.92194e-12 1.36657e-11 6.4763e-12 -1.21897e-11 -1.46132e-11 2.32483e-12 -1.23462e-11 -3.26596e-11 -1.35017e-11 
4.76641e-12 6.52159e-12 -9.63803e-13 8.94359e-12 1.56761e-11 7.38592e-12 -1.01007e-11 5.71124e-12 1.74306e-12 
-8.74464e-12 -2.09761e-11 -8.91624e-12 4.91769e-12 -4.55153e-12 3.24806e-12 8.96015e-12 1.81282e-11 8.12651e-12 
-2.8376e-11 1.74362e-12 1.45561e-12 7.26627e-12 2.16054e-11 8.66149e-12 -1.86222e-11 -1.8342e-11 -1.39263e-12 
-5.758e-13 -4.56165e-12 -1.54124e-12 1.95045e-12 -3.23815e-12 1.802e-12 -3.42443e-12 -2.09466e-11 -7.31131e-12 
1.33459e-11 1.1141e-11 1.35866e-12 5.44404e-11 8.89931e-11 4.303e-11 3.71307e-12 -1.99271e-11 -4.31753e-12 
3.06574e-11 6.4074e-11 2.84194e-11 -1.65166e-11 2.61543e-12 -2.1406e-12 2.32975e-11 6.23832e-11 2.57042e-11 
4.22746e-12 -3.80426e-12 1.76626e-12 3.3214e-11 5.34221e-11 2.59908e-11 -1.59571e-11 -2.59052e-11 2.80225e-12 
1.63231e-11 5.34217e-11 2.09234e-11 -2.43805e-11 -2.84687e-11 5.04664e-12 -3.11432e-11 -6.77846e-11 -2.96783e-11 
1.9476e-11 7.60852e-12 2.17386e-12 -2.48893e-11 -7.07762e-11 -2.86997e-11 1.81506e-11 2.46598e-11 -2.15617e-12 
-1.97614e-11 -4.60489e-11 -1.97431e-11 7.86385e-12 1.05976e-11 9.34082e-14 4.19878e-12 3.46991e-11 1.16694e-11 
-9.62809e-14 1.57326e-11 -6.57193e-13 7.68467e-11 1.661e-10 7.28839e-11 1.73803e-11 -1.17185e-12 4.20761e-12 
2.50598e-11 6.50791e-11 2.70417e-11 -4.48112e-12 2.46598e-11 -2.77111e-12 -5.29342e-13 1.04759e-13 -1.27375e-13 
-1.127e-11 6.52159e-12 -2.71733e-12 -5.59667e-11 -1.63627e-10 -6.58782e-11 2.18176e-11 -2.71733e-11 -9.91825e-12 
-3.857e-11 -6.43346e-11 -3.08714e-11 1.07675e-11 -1.14581e-11 8.09538e-13 -5.46066e-11 -1.11235e-10 -4.97526e-11 
3.94108e-11 -3.26079e-12 4.21186e-12 7.12412e-12 6.42006e-12 4.06326e-12 -8.97655e-12 -2.2418e-12 1.93044e-12 
-3.90942e-11 -8.896e-11 -3.84162e-11 5.26073e-13 1.1141e-11 -1.5285e-12 5.11731e-11 5.35479e-11 3.14163e-11 
9.08542e-12 -1.74362e-11 -2.07574e-12 1.99734e-11 2.5096e-11 1.35208e-11 -3.52799e-11 1.3949e-11 -3.73633e-12 
1.2064e-11 2.75921e-11 1.18968e-11 2.05471e-11 8.69545e-12 5.43466e-13 -2.25859e-11 -5.04282e-11 -2.19042e-11 
1.15976e-11 2.01762e-11 6.84993e-13 -4.52766e-11 -5.78875e-11 -3.09492e-11 -1.59795e-11 2.6343e-26 -1.66059e-13 
-3.34447e-11 -8.27212e-11 -3.48497e-11 -3.11295e-12 -2.93472e-11 1.35866e-13 4.1453e-11 8.64384e-11 3.83674e-11 
-3.97144e-11 -1.49453e-11 -2.36634e-12 1.01567e-11 2.84803e-11 1.15911e-11 -3.36653e-11 4.67381e-11 3.12493e-12 
-9.01427e-11 -2.01836e-10 -8.75935e-11 5.13916e-11 2.98906e-12 6.84993e-13 -9.91991e-11 -1.55635e-10 -7.64504e-11 
4.4344e-11 5.21727e-11 5.43466e-13 -8.5887e-12 -2.54274e-11 -1.02048e-11 -3.8813e-11 -5.97812e-12 -3.36269e-12 
-1.98889e-11 -7.60668e-11 -2.87867e-11 3.26647e-12 1.08693e-11 -5.70639e-12 -2.54365e-11 -5.8086e-11 -2.50567e-11 
-7.50208e-13 4.28432e-11 -4.73268e-12 1.80803e-11 1.19141e-11 8.99832e-12 -1.76638e-11 -9.31176e-11 2.88528e-12 
-7.50661e-11 -1.54124e-10 -6.87569e-11 -4.55338e-12 4.68739e-11 -4.54728e-12 -7.36687e-11 -2.15274e-10 -8.66828e-11 
1.06417e-11 -7.14884e-11 -8.90491e-12 -1.47294e-12 -3.23238e-11 -1.0139e-11 6.10373e-11 3.20645e-11 -6.18192e-12 
-4.1169e-11 -9.28718e-11 -4.02122e-11 -2.85022e-11 -6.77521e-11 9.21627e-12 -1.24816e-10 -2.23681e-10 -1.04549e-10 
3.73831e-11 -3.93616e-26 6.52159e-12 1.02469e-11 4.58829e-11 1.68389e-11 3.43377e-11 -1.08693e-11 -3.87219e-12 
1.61905e-11 -3.5526e-11 -5.80065e-12 -1.36083e-11 2.8695e-11 -9.8639e-12 3.71825e-11 2.25138e-11 1.79089e-11 
4.3408e-11 3.16569e-11 -3.83823e-12 -2.65608e-11 -7.81498e-11 -3.14132e-11 -1.7233e-11 1.49453e-12 -6.76275e-12 
1.63144e-11 6.54696e-11 2.45352e-11 -5.17143e-12 -3.60348e-11 -4.10996e-12 4.24348e-11 9.34317e-11 4.07599e-11 
-2.08863e-11 2.82602e-11 -7.60852e-12 8.84473e-13 -6.39556e-12 -1.65332e-12 -8.39397e-12 -4.18469e-12 1.79344e-12 
-2.10849e-11 -7.11345e-11 -2.76658e-11 6.0768e-11 3.5597e-11 -9.95222e-12 -6.88066e-11 -1.2159e-10 -5.71191e-11 
-2.12885e-11 4.08505e-11 -7.97083e-12 -4.71773e-11 4.08463e-11 -1.8993e-12 -1.11779e-10 7.82138e-11 1.88892e-11 
2.46815e-11 7.70485e-11 3.0519e-11 5.73242e-12 8.15878e-11 7.89724e-12 -1.68263e-11 1.79161e-11 3.26929e-13 
-3.07025e-11 -1.54435e-11 -6.22721e-13 -8.90696e-12 -5.99603e-11 -2.06602e-11 9.66346e-12 -5.21727e-11 1.08693e-12 
-1.35384e-11 5.65052e-13 -3.89201e-12 -2.18123e-11 6.64236e-12 -1.99271e-12 -4.05161e-11 -6.97056e-11 -3.30665e-11 
-1.97414e-11 7.97083e-11 1.49453e-12 1.78455e-11 -1.28354e-11 1.50302e-12 3.6833e-11 -8.69545e-12 1.08693e-12 
-3.43805e-11 -8.47928e-11 -3.5752e-11 -2.96133e-11 2.14216e-11 1.18317e-12 2.65486e-11 1.06448e-11 1.1158e-11 
7.44983e-11 2.17386e-11 5.43466e-12 -5.5007e-11 -1.39827e-10 -5.84502e-11 -4.24622e-11 1.29526e-11 -4.98177e-13 
-5.67665e-11 -1.69876e-10 -6.79927e-11 -1.52222e-12 7.49983e-11 3.26079e-12 -7.23741e-11 -2.84289e-11 -3.02409e-11 
-1.00125e-12 -4.48359e-12 4.17223e-12 4.92492e-12 -4.70435e-11 -1.26356e-11 -5.49312e-12 5.65204e-11 1.08693e-11 
-5.48602e-11 -6.85164e-11 -3.7013e-11 2.78513e-11 6.42648e-11 2.42861e-12 -5.4764e-11 -1.78926e-10 -7.01071e-11 
-6.38121e-12 -4.34773e-12 2.4456e-12 8.3213e-11 1.85699e-10 8.06735e-11 -1.2419e-10 8.10368e-11 -3.32118e-13 
-2.52383e-11 -1.16579e-11 -1.10689e-11 7.98029e-12 -9.96354e-13 -8.15765e-12 5.81064e-13 -4.85589e-11 -1.43934e-11 
3.44984e-11 -3.04341e-11 5.43466e-12 -6.68886e-12 -3.11415e-11 -1.13491e-11 2.05043e-11 2.39125e-11 1.49453e-12 
1.37629e-11 9.69288e-12 7.03675e-12 -5.37896e-11 -6.64236e-12 -7.3066e-12 1.56494e-11 -7.21189e-11 -1.69408e-11 
4.04957e-11 1.04345e-10 2.49994e-11 -9.71484e-12 1.27506e-11 9.1073e-13 -4.96533e-11 2.78979e-11 1.09599e-11 
8.91298e-12 2.00436e-11 8.68696e-12 2.52605e-11 -1.7403e-10 -3.71972e-11 -6.50212e-11 -1.54148e-10 -6.57509e-11 
-3.95424e-11 -5.65204e-11 1.6304e-12 -6.8885e-11 -1.25497e-10 -5.83147e-11 1.05532e-11 -8.13025e-11 -1.07606e-11 
1.19952e-11 1.01114e-11 6.63198e-12 -9.33716e-12 -7.47265e-13 3.14474e-12 -7.74447e-12 1.24867e-11 1.42268e-12 
-4.77742e-11 -1.13929e-10 -6.68228e-12 5.55566e-12 8.36216e-12 4.17535e-12 3.68825e-12 3.73633e-12 1.68135e-12 
7.96477e-11 -3.02581e-11 1.48169e-11 1.23258e-10 2.5407e-11 5.97812e-12 3.39225e-12 -2.38632e-12 3.0178e-13 
3.13587e-13 -1.81787e-12 2.43849e-12 -9.50512e-12 -4.4127e-12 -4.17535e-12 1.00149e-13 -1.89619e-12 -1.40112e-12 
4.62098e-13 -6.69672e-13 -6.22721e-14 1.54747e-12 -5.81207e-13 -1.03787e-12 -3.273e-12 -2.66509e-12 -1.78143e-12 
1.12622e-12 -9.2741e-13 -5.37097e-13 1.84267e-12 3.9175e-12 1.72805e-12 -6.8063e-13 -9.45758e-13 -1.22987e-12 
1.24442e-12 7.79426e-13 6.07153e-13 2.45231e-12 -3.89201e-14 -6.22721e-14 2.8694e-12 3.12429e-12 1.79811e-12 
-8.70451e-13 2.95793e-13 1.04306e-12 -5.19002e-12 8.9324e-13 -1.28903e-12 4.6813e-13 1.49453e-13 -9.71445e-13 
-5.24406e-12 2.81545e-12 -7.28584e-13 -1.57068e-12 -1.27035e-12 6.35176e-13 5.23467e-12 1.17345e-11 5.09075e-12 
3.50734e-13 -3.23815e-12 1.18317e-12 -2.32805e-12 -1.88445e-11 -6.35176e-12 1.06487e-11 -1.28696e-12 -4.48359e-12 
2.21768e-12 7.30996e-12 2.85829e-12 -4.48066e-12 -1.49453e-12 -8.21992e-13 1.44221e-12 -1.33851e-11 -3.58287e-12 
-8.12653e-13 -3.2426e-12 -4.12998e-12 -8.67261e-12 -2.76787e-11 -1.09054e-11 -1.67473e-12 -6.36732e-12 -4.39797e-13 
7.59985e-12 2.34117e-11 9.30346e-12 3.78529e-12 -8.21992e-13 -1.27035e-12 4.85403e-12 1.51509e-11 6.00148e-12 
9.04974e-13 -1.06485e-11 3.33156e-12 -2.7683e-12 -2.18233e-12 -1.48519e-12 2.62582e-12 7.47266e-12 2.61543e-13 
-5.28611e-12 -4.38051e-11 -1.47274e-11 1.96891e-12 -3.32118e-12 4.98177e-13 -4.79879e-12 -4.42405e-11 -1.47118e-11 
2.53682e-12 7.3659e-12 3.41607e-12 1.53564e-11 4.3335e-11 1.76074e-11 3.68698e-12 -4.86359e-27 -5.44881e-13 
-3.16891e-13 3.8664e-12 1.06485e-12 -1.92326e-11 4.18469e-12 6.93556e-13 -6.85302e-12 -2.39439e-12 -2.77422e-12 
-9.5007e-12 1.94289e-12 2.78473e-13 -2.3949e-11 -3.75966e-11 -1.84637e-11 6.75587e-12 6.64236e-13 -4.15148e-12 
-1.53152e-11 -3.38175e-11 -1.47398e-11 9.38995e-12 5.45504e-12 1.97033e-12 3.74652e-12 2.12485e-12 1.76141e-12 
1.54282e-12 9.6077e-12 -3.7897e-12 -2.72679e-13 2.14084e-12 5.60449e-13 8.68733e-12 1.49453e-12 1.04851e-12 
-4.94478e-12 -7.63494e-13 -1.71248e-12 -1.96714e-11 -1.59417e-11 -1.16241e-12 2.06039e-11 5.57906e-11 2.29184e-11 
-6.04328e-13 -8.24661e-12 2.60209e-12 -1.68969e-12 -1.03472e-12 -8.17322e-13 1.2824e-11 3.11361e-12 2.22234e-12 
1.18094e-11 3.73856e-11 1.47585e-11 1.49124e-11 -2.05498e-12 3.30042e-12 4.05355e-11 9.73195e-11 4.13565e-11 
-9.70775e-12 8.09538e-13 3.11361e-13 2.49661e-11 7.08707e-11 2.8751e-11 1.06362e-12 4.03523e-12 -7.47265e-14 
-2.28942e-12 -2.60666e-11 -8.50682e-12 3.24251e-13 -1.12624e-11 8.13986e-13 -2.53303e-11 -1.32785e-11 -1.15826e-11 
1.41877e-11 -5.4924e-11 -1.40112e-12 4.7298e-11 1.15326e-10 4.87871e-11 1.32456e-11 -2.16707e-11 -1.80278e-12 
-4.17183e-11 -6.39368e-11 -3.16965e-11 -2.42112e-11 -2.78979e-11 -6.64236e-13 -5.07689e-12 -6.03868e-12 -3.33467e-12 
-9.84312e-12 -1.19562e-12 -1.56926e-12 2.19488e-11 6.8457e-11 2.71217e-11 1.50865e-11 1.25968e-11 3.20257e-13 
1.2193e-11 1.84449e-11 9.19137e-12 -2.97805e-11 -7.77156e-12 -2.44729e-12 2.8926e-12 2.55035e-11 8.51883e-12 
-2.04197e-11 1.55431e-11 -2.69016e-12 3.07178e-11 8.89381e-11 3.58968e-11 1.03905e-11 2.03256e-11 2.39125e-12 
3.42112e-11 8.32755e-11 3.5246e-11 1.38646e-11 -3.6533e-11 -4.81571e-12 -4.07814e-13 -2.34891e-11 -7.16908e-12 
-1.39048e-11 9.46536e-12 1.36999e-12 -3.02559e-11 -7.43613e-11 -3.13852e-11 -1.16154e-12 1.49453e-12 1.94289e-12 
-4.61566e-11 -7.82839e-11 -3.73321e-11 -1.69884e-11 1.32847e-12 9.96354e-13 5.90459e-12 1.33375e-11 5.77263e-12 
-5.3642e-13 -3.34775e-11 2.2418e-13 -1.29108e-11 2.01318e-12 -3.26929e-12 2.06532e-11 -3.58687e-11 -4.2345e-12 
3.22899e-11 3.44192e-11 2.00127e-11 4.87666e-12 -3.23815e-11 -4.2345e-12 -4.41543e-11 -7.49412e-11 -3.57286e-11 
-2.54318e-11 7.17375e-12 -6.27703e-12 -3.84066e-11 -7.69007e-11 -3.45922e-11 -1.56475e-11 -3.71972e-11 2.49089e-13 
6.9973e-11 1.75223e-10 7.3559e-11 -1.05752e-12 5.97812e-12 4.03523e-12 9.63203e-12 -1.46916e-11 -1.51788e-12 
-9.44905e-12 -3.18833e-11 -3.11361e-13 -3.76533e-11 -4.08096e-11 -2.35389e-11 -8.29115e-12 -2.51081e-11 -1.04617e-12 
-2.60457e-12 -1.49562e-11 -5.26822e-12 -2.48799e-11 3.76622e-11 -1.64398e-12 -1.11097e-11 9.2822e-13 -3.05445e-12 
-3.11694e-11 2.57059e-11 3.73633e-13 -3.80736e-12 -9.66834e-13 -1.43226e-12 -4.28542e-11 1.44264e-11 6.61641e-12 
8.21868e-11 1.5904e-10 7.2368e-11 -1.35364e-11 1.23143e-11 -1.88762e-12 -3.80702e-11 -1.17174e-10 -4.65733e-11 
5.45376e-12 -1.13584e-11 -6.05285e-12 5.29557e-11 8.92583e-11 4.26642e-11 6.16093e-11 -9.46536e-12 2.49088e-12 
-1.1133e-10 -2.47825e-10 -1.07746e-10 5.31312e-11 -4.42381e-11 -1.64398e-12 -2.51803e-11 -4.5156e-11 -2.11009e-11 
1.53467e-11 -3.58687e-11 1.4198e-12 -9.38869e-11 -1.71807e-10 -7.97083e-11 2.84505e-11 -1.46132e-11 -4.98177e-12 
-7.99526e-11 -1.44694e-10 -6.7394e-11 1.05706e-11 1.79344e-11 -2.98906e-12 -9.51081e-11 -1.79419e-10 -8.2358e-11 
-3.21104e-11 5.14119e-11 2.76488e-12 -1.01702e-10 -1.49774e-10 -7.54427e-11 -5.73922e-11 1.72329e-25 -5.42119e-26 
-9.18328e-11 -1.45891e-10 -7.13172e-11 8.81042e-12 1.79344e-11 -2.83961e-12 -4.01008e-11 -6.35823e-11 -3.11049e-11 
-3.14166e-11 -4.38396e-11 -1.59417e-11 -3.40075e-11 1.50147e-12 -9.75181e-12 2.4754e-11 8.36937e-12 6.27703e-12 
5.63705e-12 3.54625e-11 1.23299e-11 2.65103e-11 -3.18833e-11 -1.72701e-11 1.4306e-11 -4.12609e-11 -8.08648e-12 
-2.20103e-11 1.36643e-11 -8.54018e-13 3.09044e-12 1.17615e-11 4.45557e-12 2.66334e-11 9.20631e-11 7.47265e-14 
2.51901e-11 2.70406e-11 1.56692e-11 2.20412e-11 -4.7825e-11 -4.98177e-13 -6.93629e-12 5.03711e-11 1.30304e-11 
-6.60518e-12 6.21725e-11 1.5842e-11 -1.4994e-11 -7.21637e-12 -6.66312e-12 -3.85902e-11 1.06278e-11 5.31389e-12 
-4.57696e-14 8.83165e-11 2.64812e-11 -3.27675e-12 1.99271e-12 -4.98177e-13 7.86681e-11 7.85379e-11 4.71618e-11 
2.85405e-11 -1.55431e-11 -5.97812e-13 -4.0847e-11 -4.34072e-11 -2.52763e-11 1.73511e-11 7.17375e-11 1.79344e-12 
-2.66332e-11 -2.12852e-11 -1.43755e-11 3.74773e-11 -2.63037e-11 2.98906e-13 -7.68621e-11 -1.40779e-10 -6.52923e-11 
-3.38819e-11 5.07294e-26 2.69016e-12 -7.05467e-11 -1.08693e-10 -5.3772e-11 -4.13428e-11 0 -2.65694e-12 
1.07943e-10 2.12073e-10 9.60049e-11 -4.17168e-11 8.9074e-11 5.45504e-12 -6.1796e-11 -9.11599e-11 -4.58868e-11 
1.37351e-12 2.98906e-11 -1.02126e-11 2.51298e-11 -1.80463e-11 2.12504e-12 3.35812e-11 -6.27703e-11 -1.6938e-11 
-7.97547e-11 -2.29987e-10 -9.29225e-11 -6.70391e-11 7.17375e-12 8.96719e-13 -1.81127e-10 -4.42009e-10 -1.86941e-10 
-2.17591e-11 1.85986e-11 1.32847e-11 -8.97839e-11 -2.26403e-10 -9.4856e-11 5.80237e-12 -2.15212e-11 -1.49453e-12 
-8.08723e-11 -2.0916e-10 -8.70097e-11 -3.16699e-11 5.12411e-11 -4.27009e-13 1.2591e-10 1.95882e-10 9.65374e-11 
4.95877e-11 2.39125e-11 2.98906e-12 -9.32266e-11 -2.37438e-10 -9.91995e-11 1.84816e-11 3.69557e-11 -4.34773e-12 
-2.9317e-11 -5.06404e-11 -2.39872e-11 -5.8688e-11 -3.58687e-11 -1.64398e-11 -7.69975e-13 2.97265e-11 8.68696e-12 
4.95782e-11 1.00541e-11 -3.46459e-12 1.38178e-11 1.257e-11 7.91634e-12 -8.76639e-12 -1.1209e-12 1.72805e-12 
-4.76498e-12 -1.44771e-11 -5.77263e-12 -1.7313e-12 1.07606e-11 -4.15666e-13 -8.23903e-11 -1.11619e-10 -5.82026e-11 
-1.08961e-10 -7.241e-11 -8.57487e-12 -3.93771e-11 -1.39863e-10 -5.3772e-11 3.02297e-11 -7.17375e-11 -1.32847e-11 
-3.09908e-12 1.95743e-12 -3.42497e-13 5.14309e-12 1.24544e-12 1.61559e-27 3.8394e-12 9.08207e-12 3.87644e-12 
-1.04604e-12 -8.7181e-13 3.7986e-12 1.30622e-10 2.61225e-10 1.17554e-10 2.26018e-11 -3.98542e-11 8.96719e-12 
1.83161e-11 7.60262e-11 2.83027e-11 8.29792e-11 4.56511e-11 -8.69545e-12 6.83223e-12 6.40424e-13 2.2418e-12 
5.76537e-12 -6.64236e-13 -2.65694e-12 1.36281e-11 8.41622e-12 6.6133e-12 -8.21342e-12 -4.48359e-12 2.65279e-12 
4.65123e-11 1.23584e-10 5.10289e-11 1.94057e-11 1.29127e-10 -1.19562e-12 5.23976e-12 -1.50343e-12 1.1209e-12 
5.31521e-12 2.038e-12 2.37766e-13 -9.26643e-11 -2.09129e-10 -9.0538e-11 -5.05943e-11 -8.04329e-11 -1.6304e-11 
5.52462e-12 4.5946e-12 3.03577e-12 3.37768e-12 -3.36269e-12 -1.33885e-12 7.83162e-11 1.57072e-10 7.06166e-11 
1.02603e-10 -4.18469e-11 -8.21992e-12 -2.15488e-12 -6.59153e-12 -2.62392e-12 -2.41236e-12 3.08824e-13 -9.00436e-14 
5.09705e-11 2.2822e-11 2.21377e-11 3.03373e-11 -3.46129e-11 1.19607e-12 -9.07172e-12 -2.37146e-11 -9.83588e-12 
4.9851e-12 3.58687e-12 1.04617e-12 8.04516e-11 2.75714e-10 1.0685e-10 -6.072e-11 4.30425e-11 -5.97812e-12 
-6.8632e-12 -7.01458e-12 -4.16334e-12 -2.9893e-12 -4.48359e-12 2.88898e-12 -6.39244e-11 -1.58854e-10 -6.68336e-11 
3.48823e-12 -3.41607e-12 7.47266e-12 6.95575e-11 1.20277e-10 5.69503e-11 -2.33119e-11 2.75913e-11 8.04748e-12 
8.26358e-11 1.96942e-10 8.38734e-11 -6.77192e-11 -1.19562e-11 5.4033e-12 -6.51098e-11 -7.85232e-11 -4.30899e-11 
2.193e-11 7.9785e-11 1.86529e-11 8.01422e-11 1.41091e-10 6.63701e-11 -3.03778e-11 -7.35769e-12 -8.73726e-12 
1.76821e-11 2.11182e-11 1.16401e-11 -2.67043e-11 1.10365e-11 3.40293e-11 -1.39172e-10 -2.45311e-10 -1.15345e-10 
-8.36936e-11 5.51827e-11 1.83942e-12 -3.48855e-11 -2.69332e-12 -1.12736e-11 -1.75716e-11 -1.50833e-10 -4.82848e-12 
5.3169e-11 1.4442e-10 5.92768e-11 -5.44917e-11 7.652e-11 5.97812e-13 -7.25181e-11 -2.32927e-10 -9.16334e-11 
1.79634e-11 -5.11462e-11 -2.07574e-12 -1.76512e-10 -3.35053e-10 -1.5347e-10 -4.46005e-12 3.71972e-11 -6.64236e-12 
-6.53203e-11 -1.62426e-10 -6.83238e-11 -5.26266e-11 -3.69557e-11 4.34773e-12 4.38923e-11 1.30781e-10 5.2402e-11 
6.80146e-11 2.65694e-11 2.65694e-12 2.05857e-11 4.6772e-11 2.02073e-11 -2.77733e-11 -1.32847e-11 -6.97448e-12 
-2.41905e-11 -1.23731e-12 -7.62834e-12 6.35276e-11 3.71972e-11 8.46901e-12 5.13467e-11 1.14495e-10 4.97526e-11 
4.76199e-11 5.50259e-12 1.37565e-12 -1.55991e-11 2.2106e-12 -4.01655e-12 -4.61511e-11 -1.06278e-11 3.32118e-12 
-7.54572e-11 -1.91794e-10 -8.01754e-11 -4.29379e-11 -3.18833e-11 -2.90603e-12 5.41279e-11 1.11827e-10 4.97866e-11 
-2.51527e-11 1.32847e-12 -2.07574e-12 2.58568e-11 6.49189e-11 2.72327e-11 -1.95626e-11 -1.5217e-11 -4.34773e-12 
-2.03532e-11 -5.43734e-11 -2.2418e-11 3.98314e-12 3.67885e-12 -2.18431e-12 1.91953e-11 3.51252e-11 1.62961e-11 
3.10367e-12 1.83942e-12 2.18431e-12 2.55485e-11 4.37173e-11 2.07797e-11 9.45125e-14 -3.21899e-12 -1.72446e-12 
1.14542e-11 1.62809e-11 8.32051e-12 -3.18306e-11 -8.73726e-12 -1.32209e-12 4.86232e-12 6.57253e-13 1.65587e-12 
-1.73314e-11 2.60864e-11 -6.24986e-12 1.607e-11 2.40955e-11 1.20497e-11 -2.98156e-12 2.65694e-12 2.32483e-12 
3.81623e-12 1.89414e-11 6.82729e-12 -3.1463e-11 -3.80426e-12 -1.08693e-12 -7.34977e-12 8.212e-12 2.58669e-13 
1.11043e-11 2.16132e-11 1.62387e-12 -7.3518e-12 -2.08144e-11 -8.44985e-12 -1.38459e-11 3.19025e-12 8.281e-13 
-3.86739e-12 7.53186e-12 1.09934e-12 1.11776e-11 -1.56351e-11 2.52921e-12 -2.04687e-11 -7.30433e-11 -2.80536e-11 
1.00585e-11 -9.2993e-12 7.47265e-13 2.54518e-11 7.18626e-11 2.91943e-11 2.48588e-11 1.41301e-11 1.18883e-12 
1.55902e-11 2.59245e-11 1.24544e-11 -6.07143e-12 3.98542e-12 -7.05751e-13 8.46861e-12 2.30028e-11 9.44141e-12 
3.32257e-12 -3.73633e-13 -8.766e-13 -5.44183e-12 -1.72635e-11 -6.81161e-12 1.78963e-12 1.28185e-11 -1.15682e-12 
9.29884e-12 2.84422e-12 3.64292e-12 -7.30724e-12 5.31389e-12 3.32118e-13 5.25713e-12 2.80994e-12 2.42012e-12 
6.20173e-12 3.80426e-12 -2.038e-13 -9.42829e-12 1.95563e-12 -2.2418e-12 4.84421e-12 6.64236e-12 2.15877e-12 
7.00253e-14 1.30071e-11 3.92314e-12 -2.47833e-12 -6.64236e-12 -2.32483e-12 -4.55755e-12 4.72738e-12 5.09499e-14 
4.88573e-13 8.15199e-13 -3.80426e-12 1.6885e-11 4.18371e-12 6.32062e-12 -1.08999e-11 1.61908e-12 -4.98177e-13 
1.29663e-13 -2.3345e-13 -3.11361e-14 1.70027e-12 4.15147e-13 4.64965e-12 1.42011e-11 6.51854e-12 6.21589e-12 
-5.03477e-13 -8.21567e-13 -3.80426e-12 -5.87156e-12 -2.42426e-13 -1.8342e-12 -4.20251e-12 2.17386e-12 -1.90213e-12 
2.78899e-11 -1.98334e-11 2.41694e-12 -1.62258e-11 -3.13852e-11 6.72539e-12 2.07791e-10 3.82652e-10 1.77133e-10 
4.48964e-11 -1.85986e-11 1.06278e-11 7.22195e-12 1.62339e-11 7.03675e-12 4.78751e-12 2.54162e-12 -1.95863e-12 
2.26427e-12 4.66122e-13 8.19118e-13 -3.62654e-12 -2.29928e-13 1.79631e-12 2.40986e-12 1.32647e-12 1.1209e-12 
-4.38704e-12 -5.85924e-13 -1.68135e-12 -3.56256e-13 1.40699e-13 -6.46672e-14 -8.72944e-13 -6.28709e-13 -1.30771e-12 
2.49736e-12 4.04121e-12 1.96157e-12 -5.89888e-15 3.057e-13 -7.30282e-13 2.35778e-12 6.15274e-12 2.55316e-12 
-1.80061e-12 1.16241e-12 6.22721e-13 5.57053e-12 9.71445e-12 4.58549e-12 -8.74117e-13 6.79332e-13 -6.79332e-13 
5.33655e-12 8.98604e-12 4.29678e-12 2.42614e-12 4.64965e-12 -8.7181e-13 -9.60698e-12 -2.402e-11 -1.00881e-11 
1.41538e-11 2.2418e-12 3.39666e-14 3.06623e-12 1.0945e-11 4.20337e-12 -3.94245e-12 9.78238e-12 1.99554e-13 
1.01642e-11 1.90798e-11 8.77318e-12 -4.98717e-12 -1.95439e-11 -9.26897e-13 6.93874e-12 1.18866e-11 5.6476e-12 
8.77592e-13 -1.37957e-12 1.98133e-12 1.73932e-11 4.44638e-11 1.85571e-11 1.66578e-12 1.07938e-11 9.73651e-13 
8.13644e-12 2.3311e-11 9.43423e-12 -4.67401e-13 -4.89874e-12 8.60782e-13 -1.58769e-12 -6.98888e-12 -2.57297e-12 
6.99134e-12 1.6304e-12 -2.038e-12 -7.17251e-12 -1.90856e-11 -7.87742e-12 7.59732e-12 8.30295e-13 1.69173e-12 
-2.31302e-11 -5.09496e-11 -2.2224e-11 3.88815e-12 -1.06916e-11 -6.53857e-13 -2.77628e-11 -6.6795e-11 -2.83673e-11 
5.0545e-12 1.50603e-11 -2.59387e-12 6.16864e-11 1.31461e-10 5.79442e-11 -1.91559e-11 1.52774e-11 3.32118e-13 
-2.90914e-11 -7.71863e-11 -3.18833e-11 3.18428e-11 2.39125e-11 -1.82665e-12 -4.07853e-11 -6.82947e-11 -3.2724e-11 
-2.65835e-11 6.64236e-12 -3.98542e-12 5.2179e-11 1.33807e-10 5.57958e-11 -1.20709e-11 2.12556e-11 -7.47265e-13 
-2.13498e-11 -5.59715e-11 -2.31964e-11 -1.74299e-11 -2.02592e-11 -1.74362e-12 -2.6427e-11 -4.36292e-11 -2.10168e-11 
2.13409e-12 2.93472e-11 5.02706e-12 -2.85431e-11 -5.6602e-11 -2.55435e-11 -1.83808e-11 3.90877e-11 -1.2646e-12 
-2.6532e-11 -6.32836e-11 -2.69447e-11 2.33897e-11 3.12702e-11 7.58762e-12 -1.06788e-11 -3.50912e-11 -1.3731e-11 
-8.1121e-12 -2.20731e-11 -2.8741e-12 4.72603e-11 1.0975e-10 4.71032e-11 5.94913e-12 1.41301e-11 2.58146e-12 
-6.64111e-12 3.48711e-11 8.46901e-12 -6.06461e-11 2.65694e-11 -2.65694e-12 1.00039e-11 1.17913e-11 6.53857e-12 
1.30248e-11 -1.42172e-25 -2.65694e-12 -8.20518e-11 -1.70773e-10 -7.58474e-11 -7.69726e-11 -1.23548e-10 -7.97083e-12 
4.91034e-11 1.16125e-10 4.95686e-11 -3.97e-11 5.57958e-11 -2.32483e-12 -7.49321e-11 -6.46197e-11 -4.18655e-11 
1.88004e-11 1.35504e-11 -7.3232e-12 -1.90453e-11 -4.74443e-11 -1.99469e-11 -2.88325e-11 -5.40748e-11 5.53656e-12 
1.84025e-11 5.24441e-11 2.1254e-11 -5.31016e-11 4.00074e-11 2.98906e-12 5.66314e-11 1.37761e-10 5.83178e-11 
-3.52448e-11 5.57958e-11 -1.02957e-11 3.17348e-11 1.27738e-10 4.7842e-11 -1.4189e-11 8.36937e-11 1.79344e-11 
-3.06288e-11 -5.94582e-11 -2.70261e-11 2.18734e-11 7.17375e-11 1.6938e-11 -6.70995e-12 2.31083e-11 4.9195e-12 
9.89873e-12 -3.98542e-11 9.96354e-12 -1.01067e-11 2.64956e-11 4.91667e-12 -2.96617e-11 2.17386e-11 8.96719e-12 
-2.56487e-11 -1.30732e-11 -1.16166e-11 -1.40485e-11 1.41301e-11 5.97812e-12 -6.07365e-12 6.4888e-12 1.24544e-13 
-3.24596e-11 1.92628e-11 -7.47265e-13 2.58964e-11 1.14719e-10 4.21846e-11 -1.84989e-11 1.83942e-11 -7.81755e-12 
-3.39597e-11 -5.291e-11 -2.60609e-11 -6.21596e-12 -5.31389e-11 -2.65694e-12 -5.03122e-11 -1.00905e-10 -4.53652e-11 
-2.78688e-11 3.98542e-11 -1.66059e-12 -3.50016e-11 -8.96624e-11 -3.73992e-11 3.0161e-11 7.17375e-11 5.7482e-12 
-7.81647e-12 -1.75594e-11 -7.61277e-12 -2.15573e-12 -6.73618e-12 -8.39367e-13 -7.87331e-11 -1.03491e-10 -5.46671e-11 
-2.23839e-11 -3.204e-11 -4.57803e-12 -2.23466e-11 -3.23906e-11 -1.64212e-11 -5.13348e-12 -2.5407e-12 2.69016e-12 
1.8296e-11 9.81987e-12 8.43476e-12 -8.27284e-11 -7.17375e-12 6.57594e-12 5.05351e-13 3.95748e-12 1.33885e-12 
-1.16359e-12 -2.32483e-12 1.45302e-13 9.26535e-11 1.61832e-10 7.63456e-11 8.65209e-11 -8.50222e-11 -1.44471e-11 
-1.08999e-11 -2.94524e-11 -1.21057e-11 1.61838e-12 -2.98906e-12 -2.35389e-12 7.24697e-11 1.74315e-10 7.40353e-11 
-8.5298e-11 1.43475e-11 -7.17375e-12 -4.66556e-12 -1.54172e-11 -6.02483e-12 1.06329e-12 6.10062e-12 -8.68293e-13 
9.79164e-11 2.15935e-10 9.41555e-11 6.62584e-13 -1.99271e-12 -1.09599e-11 1.08605e-12 1.27917e-11 4.16334e-12 
-2.69933e-12 -3.41607e-12 4.27009e-12 6.44877e-11 7.01536e-11 4.03924e-11 6.17575e-11 -2.13504e-12 8.70031e-12 
7.93189e-11 1.34866e-10 6.42555e-11 3.73272e-11 1.99894e-12 1.10689e-11 7.15902e-12 1.43454e-12 2.57807e-12 
-2.75682e-12 8.17322e-14 -1.5786e-12 3.31361e-12 2.21304e-12 1.658e-12 8.46966e-13 -4.98177e-13 1.86816e-12 
-1.47309e-10 -3.04009e-10 -1.35395e-10 -5.76367e-11 1.07108e-11 1.68135e-11 8.77557e-12 9.90607e-12 5.60449e-12 
1.91771e-12 1.61908e-12 1.00974e-28 -4.83293e-11 -3.51154e-11 -2.50334e-11 -1.1547e-11 1.14581e-11 1.01815e-11 
9.16297e-12 5.67049e-13 2.91901e-12 1.70536e-13 -7.97083e-12 -1.24544e-12 -1.19562e-12 -1.14145e-11 -3.78303e-12 
-4.22837e-12 -2.14839e-12 -3.0202e-12 -1.27194e-11 -5.57303e-12 -5.48773e-12 -2.18824e-12 -6.84993e-13 -2.86452e-12 
4.13159e-12 1.14364e-11 4.67041e-12 -4.41806e-14 1.61908e-12 -1.44783e-12 -5.47021e-12 2.12308e-12 -1.00414e-12 
6.5026e-12 -2.6777e-12 -1.24544e-13 -1.67224e-11 -2.21977e-11 -1.1676e-11 4.99074e-13 -2.00516e-11 -7.47265e-13 
9.97743e-12 2.3883e-11 1.01581e-11 3.67821e-13 1.24544e-12 3.30042e-12 5.20425e-12 -1.35331e-11 -2.49867e-12 
-6.07555e-12 2.49088e-12 -2.17952e-13 3.74083e-12 1.24094e-12 1.49453e-12 1.03967e-12 -2.86452e-12 -3.20701e-12 
2.01658e-11 3.57234e-11 1.67668e-11 1.20239e-12 3.61178e-12 -2.77111e-12 2.50667e-12 1.68755e-11 5.81466e-12 
-7.60019e-12 2.98906e-12 -5.23086e-12 -1.79047e-12 -3.18365e-11 -1.00881e-11 1.24065e-11 -7.9397e-13 -3.15253e-12 
-3.48654e-11 -7.13864e-11 -3.18755e-11 -8.86898e-12 2.81781e-12 -4.92728e-12 -1.84407e-11 -2.63952e-11 -1.34508e-11 
-1.43347e-11 8.7181e-13 -1.8993e-12 -1.34855e-11 -2.06085e-11 -1.02282e-11 9.88261e-12 1.86816e-12 4.67041e-13 
-3.68282e-11 -8.28121e-11 -3.58921e-11 -7.35435e-12 -2.73997e-12 3.36269e-12 -2.35001e-11 -3.26226e-11 -1.68368e-11 
-6.89528e-12 2.49089e-13 6.84993e-12 -2.65739e-11 -6.09963e-11 -2.62711e-11 9.59679e-12 -1.3949e-11 3.98542e-12 
-3.70899e-11 -1.29488e-10 -4.99734e-11 -1.05044e-11 -1.23299e-11 -3.39383e-12 -3.65807e-11 -8.86641e-11 -3.75734e-11 
-3.88838e-11 -1.05863e-11 1.24544e-12 -6.69983e-11 -9.93461e-11 -4.99033e-11 -8.91472e-12 2.42861e-12 3.86087e-12 
-8.30123e-12 -2.05775e-11 -8.66361e-12 -3.18902e-12 1.56303e-11 -2.52202e-12 -4.0952e-12 -2.49392e-11 -8.71031e-12 
-1.59657e-11 1.60662e-11 1.02749e-12 6.06957e-13 -2.76953e-11 -8.12651e-12 1.12392e-11 -9.21627e-12 4.79495e-12 
-5.27014e-11 -9.65182e-11 -4.47659e-11 -2.15387e-11 -9.21627e-12 -1.43226e-12 -4.4458e-11 -6.4596e-11 -3.27162e-11 
-3.76774e-11 7.84629e-12 -6.38289e-12 -6.56528e-12 1.17027e-11 1.54124e-12 -1.63307e-13 3.23815e-12 -3.36269e-12 
-2.19797e-11 -3.98254e-11 -1.85415e-11 1.48072e-12 7.09902e-12 -3.58065e-12 -9.12696e-12 -2.02966e-11 -8.82707e-12 
-5.36959e-12 -4.73268e-12 -6.84993e-13 -2.87918e-11 -6.56283e-11 -2.8326e-11 -5.07988e-12 -1.4198e-11 -3.33156e-12 
-2.44903e-11 -1.31065e-11 -1.1279e-11 -2.95617e-11 -2.04253e-11 -1.99271e-12 -7.26008e-11 -1.35466e-10 -6.242e-11 
-3.24725e-11 -1.64398e-11 2.49088e-12 1.22565e-11 3.07805e-12 4.60035e-12 -9.57011e-12 6.72539e-12 2.00049e-12 
1.26217e-11 1.55564e-11 8.45344e-12 -1.46548e-11 -1.18628e-11 -3.4561e-12 3.83579e-12 2.80008e-11 9.55099e-12 
-8.23549e-12 -9.96354e-12 9.96354e-13 3.75599e-11 9.14991e-11 3.87177e-11 -2.44898e-11 3.7986e-12 -6.41403e-12 
-2.10643e-11 6.43037e-12 -4.39018e-12 -2.19256e-11 1.6938e-11 3.37826e-12 -4.21253e-11 -5.91448e-11 -3.0381e-11 
-1.80871e-12 2.06743e-11 1.5568e-13 -9.38369e-12 -2.7279e-11 -1.09988e-11 -3.18605e-11 1.3949e-11 -1.99271e-12 
1.26486e-11 8.23164e-11 2.84895e-11 2.12839e-11 4.09751e-11 4.25007e-12 -1.49491e-11 -5.09037e-11 -1.97558e-11 
-1.48561e-11 -2.92679e-12 1.86816e-13 -4.87148e-11 -1.34677e-10 -5.50174e-11 -2.1099e-11 1.44471e-11 2.3352e-13 
-3.63762e-11 -2.683e-11 -1.89619e-11 6.85718e-12 5.97812e-12 -6.97448e-12 9.55474e-13 5.61792e-11 1.71404e-11 
-2.04499e-11 -6.72539e-12 2.73997e-12 3.18005e-11 3.70881e-11 2.06666e-11 1.52058e-11 1.99271e-11 1.49453e-12 
-1.75865e-11 2.25197e-12 -4.60035e-12 2.12614e-11 4.36528e-11 -2.22623e-12 -2.89839e-11 -5.45386e-11 -2.50567e-11 
-2.90376e-11 -5.97812e-12 2.49088e-12 1.9375e-11 2.09462e-11 1.20964e-11 5.83441e-12 4.58323e-11 -9.96354e-13 
4.76156e-11 1.1904e-10 4.99967e-11 1.10207e-11 1.99271e-11 9.96354e-13 6.17362e-11 1.53648e-10 6.46151e-11 
6.19721e-12 2.3352e-11 1.18473e-11 5.90865e-11 1.50304e-10 6.2817e-11 -1.67989e-11 2.26048e-11 8.46901e-12 
7.08039e-11 1.34694e-10 6.16494e-11 1.46781e-11 -3.7301e-11 -2.03941e-12 3.24191e-11 9.14246e-11 3.71531e-11 
3.34096e-11 -4.2345e-11 5.54222e-12 1.61779e-11 2.88916e-11 1.35208e-11 -8.01414e-12 7.57229e-11 4.48359e-12 
1.93827e-11 4.12498e-12 7.05232e-12 3.76253e-11 -8.90491e-12 5.15302e-12 2.3339e-11 8.96849e-11 3.39072e-11 
-8.00756e-12 -1.03372e-11 3.64292e-12 9.79873e-11 1.81303e-10 8.37871e-11 6.24219e-11 2.70261e-11 3.28485e-12 
8.81213e-11 9.98627e-11 5.63952e-11 7.14914e-11 -2.6777e-11 2.80225e-13 7.12673e-11 1.68247e-10 7.18542e-11 
-3.31131e-11 5.34295e-11 2.73997e-12 4.65877e-11 8.02139e-11 3.80405e-11 4.18229e-11 4.7825e-11 1.49453e-11 
3.16989e-11 3.77345e-11 2.083e-11 -2.37469e-11 -4.26564e-11 -5.76017e-13 4.09202e-11 9.8258e-11 4.17535e-11 
6.38001e-12 -2.39125e-11 1.09599e-11 6.98045e-11 1.36238e-10 6.18129e-11 1.51632e-11 9.16646e-11 2.49088e-11 
1.04174e-10 2.22989e-10 9.81487e-11 2.29067e-11 1.89307e-11 1.01971e-11 4.22205e-11 1.44051e-10 5.58814e-11 
-3.42891e-12 1.71871e-11 6.66312e-12 1.59079e-11 4.83881e-11 1.92888e-11 -3.65074e-11 2.68393e-11 5.29313e-12 
-6.75727e-11 -1.9794e-10 -7.96538e-11 -1.07523e-11 -4.30923e-11 -7.39481e-12 -9.75564e-11 -1.72938e-10 -8.11484e-11 
5.73849e-12 -1.25167e-11 -1.1785e-11 -2.31607e-11 1.3275e-11 -2.96571e-12 -6.21073e-11 -7.49134e-11 -9.46536e-12 
6.61808e-11 9.40142e-11 4.80585e-11 2.2001e-11 -5.57958e-11 -1.09599e-11 1.22193e-10 2.36884e-10 1.07723e-10 
2.238e-11 1.99271e-11 1.99271e-12 -2.57851e-11 -9.40109e-11 -3.59388e-11 -7.65495e-13 3.18833e-11 1.3949e-11 
-4.74788e-11 -4.45282e-11 -2.76021e-11 -5.52523e-11 4.35905e-11 1.1209e-11 -4.83992e-11 -8.26058e-11 -3.93015e-11 
-4.40286e-11 -1.14581e-11 -4.76382e-12 6.56182e-11 1.26725e-10 5.77029e-11 8.3349e-11 -1.99271e-11 -2.11725e-12 
8.23824e-11 1.51138e-10 7.00561e-11 4.4107e-11 3.18833e-11 -4.98177e-13 -2.92082e-11 -8.42828e-11 -3.40473e-11 
-3.42674e-11 2.64034e-11 2.84895e-12 -7.32159e-12 -5.09807e-11 -1.74907e-11 -3.80432e-12 2.16084e-11 -1.60351e-12 
5.95654e-11 1.51926e-10 6.34475e-11 -1.32885e-11 -1.72494e-11 -5.43324e-12 -3.24441e-11 -3.77677e-11 -2.10635e-11 
-1.96908e-11 -3.98542e-12 8.96719e-12 -2.09744e-11 -1.0473e-11 -9.43423e-12 1.28722e-11 -7.16129e-12 1.92265e-12 
-1.2333e-13 -3.28809e-11 -9.90127e-12 -1.5732e-11 2.49088e-12 -3.68962e-12 1.99058e-11 2.51636e-11 1.35208e-11 
-3.77763e-11 2.85829e-11 1.89152e-12 3.40578e-11 4.54948e-11 2.38658e-11 2.6534e-11 2.4037e-11 8.25106e-13 
3.70465e-11 5.2781e-11 2.69483e-11 6.48325e-11 6.62575e-11 7.70618e-12 2.93668e-11 8.80161e-11 3.52149e-11 
-1.24026e-11 7.65947e-12 9.52763e-12 5.33683e-11 1.38586e-10 5.75861e-11 -2.44999e-11 -2.3103e-11 2.2418e-12 
6.09849e-11 1.28245e-10 5.67688e-11 -2.60784e-11 -3.23815e-11 3.97763e-12 3.69859e-11 8.88038e-11 3.77369e-11 
-1.67862e-11 1.22676e-11 3.37048e-12 2.89289e-11 7.14849e-11 3.01241e-11 -1.35723e-11 -1.18317e-12 5.12188e-12 
2.77651e-11 6.98465e-11 2.92835e-11 4.59748e-11 -1.59417e-11 9.96354e-13 3.93556e-11 9.63198e-11 4.07026e-11 
-1.10004e-11 3.78615e-11 -3.48724e-12 1.59937e-11 4.18416e-11 1.73506e-11 -1.64092e-11 8.02688e-11 2.29628e-12 
6.10939e-12 -1.36114e-12 1.42447e-12 -3.02704e-11 3.39383e-11 1.08198e-12 1.33361e-11 3.25118e-11 1.37544e-11 
1.21611e-11 1.94289e-11 5.29313e-13 1.73979e-11 4.03595e-11 1.73272e-11 -9.64051e-12 5.47995e-12 2.27293e-12 
1.07914e-11 6.25555e-12 5.1141e-12 -1.58636e-11 4.2345e-12 1.14036e-12 4.96875e-12 -4.81307e-12 4.67041e-14 
-1.74508e-11 1.4198e-11 1.88762e-12 -1.04244e-11 -1.48512e-12 -3.57286e-12 -3.38568e-12 -1.66267e-11 1.18317e-12 
2.35289e-13 4.04592e-12 1.28436e-12 9.01811e-12 -1.46339e-11 -1.30771e-12 -6.31437e-11 -1.36127e-10 -5.97812e-11 
-1.82665e-11 2.49089e-13 -2.93847e-12 8.85606e-13 -9.91506e-12 -2.70884e-12 8.93505e-12 -7.72174e-12 -8.91659e-12 
-1.07489e-12 -5.54152e-12 -1.98492e-12 -1.38865e-11 1.1894e-11 -4.80663e-12 -8.79067e-13 1.28665e-11 3.59622e-12 
7.48506e-12 3.18833e-11 -2.2418e-12 5.00744e-13 1.26542e-11 3.9465e-12 -1.38279e-11 6.97448e-12 -7.47265e-13 
-2.93707e-11 -8.5677e-11 -3.45143e-11 -1.2529e-11 -1.1209e-12 1.93044e-12 -2.49738e-11 -1.47247e-11 -1.19095e-11 
-2.53936e-11 -1.79344e-11 4.85723e-12 -7.97129e-12 -2.63562e-11 -1.02983e-11 7.05707e-12 1.04617e-11 -1.5568e-14 
-2.52422e-11 -8.72368e-11 -3.37437e-11 -1.62933e-12 7.34811e-12 2.37412e-12 -2.44154e-12 1.85545e-11 4.83387e-12 
-2.71781e-11 -5.97812e-12 2.10168e-12 1.94587e-11 4.18793e-11 1.84014e-11 3.04414e-11 2.19198e-11 -2.00828e-12 
-4.72246e-12 -1.82404e-11 -6.88885e-12 -7.94473e-12 1.65644e-11 1.75919e-12 3.14263e-12 1.36708e-11 5.04404e-12 
-1.14772e-11 4.35905e-12 2.95793e-13 2.04114e-11 3.25199e-11 1.58794e-11 3.26243e-11 1.53189e-11 8.79594e-13 
-8.37608e-12 -2.73525e-11 -1.07186e-11 -7.30821e-12 1.15826e-11 1.55291e-12 -1.46264e-11 -1.88449e-11 -1.00414e-11 
-1.89889e-11 -1.86816e-12 2.02384e-12 -7.57371e-12 -1.7413e-11 -7.49601e-12 2.50685e-11 7.72174e-12 -1.99271e-12 
-2.99789e-11 -6.84889e-11 -2.95403e-11 -2.08508e-11 -2.2418e-12 -1.12479e-12 -1.20449e-11 -2.13485e-11 -1.0018e-11 
-1.4222e-11 -7.47266e-12 -2.32742e-12 1.83538e-11 3.41883e-11 1.57626e-11 2.56858e-11 -1.19874e-11 -1.58113e-12 
9.54482e-12 9.6817e-12 5.76796e-12 1.2452e-11 -1.27035e-11 2.45196e-13 -2.33957e-11 -3.47509e-11 -1.7444e-11 
-1.27183e-11 -1.59417e-11 3.11361e-14 -4.00213e-12 -1.17994e-11 -4.74047e-12 -1.26332e-11 -4.98177e-12 -2.54635e-12 
-4.82572e-12 -1.71286e-12 -1.96157e-12 8.63305e-12 1.99271e-12 -4.82609e-13 -9.94188e-12 -1.96374e-11 -8.87378e-12 
-7.7016e-12 1.86816e-12 -9.73002e-15 9.59386e-12 1.50815e-11 7.4026e-12 -4.96433e-12 9.96354e-13 -1.72221e-12 
-9.10122e-12 -2.47593e-11 -1.01581e-11 -3.3328e-12 1.13091e-26 1.50718e-12 -2.70338e-11 -5.05729e-11 -2.3282e-11 
-3.67431e-12 2.45975e-12 -4.76771e-14 8.95841e-13 -3.5096e-13 1.63464e-13 -5.76235e-12 -5.37097e-12 -1.47799e-12 
-2.04182e-11 -5.46197e-11 -2.25114e-11 -2.23713e-12 1.5101e-12 7.6478e-13 -2.69566e-11 -4.79256e-11 -2.24647e-11 
-2.02327e-12 8.46901e-12 -1.13841e-12 -6.49021e-12 -3.00168e-11 -1.09521e-11 -1.26836e-12 1.99271e-12 -2.07249e-12 
-5.77807e-12 -2.65256e-11 -9.6911e-12 -7.25708e-12 2.64657e-12 -2.1659e-12 -9.98999e-12 -4.48828e-12 -4.34348e-12 
-8.60015e-13 3.50281e-13 -1.47896e-13 1.75432e-11 3.29751e-11 1.51555e-11 -2.14386e-12 -8.88935e-12 3.65849e-13 
1.00141e-11 2.07328e-11 9.22406e-12 2.03088e-13 -7.43374e-12 -1.75335e-12 5.05961e-12 6.30506e-12 3.4094e-12 
3.02942e-12 -1.92265e-12 -1.07419e-12 4.57074e-12 9.75184e-12 4.29678e-12 -3.67964e-13 -2.66992e-12 -1.57237e-12 
3.62432e-12 1.66881e-12 1.58794e-12 -4.76161e-13 -2.90344e-12 -1.25712e-12 3.52318e-12 3.48244e-12 2.10168e-12 
-3.47227e-12 5.83801e-13 1.10922e-12 3.24456e-12 6.47449e-13 1.1676e-12 -1.51136e-12 1.40112e-13 1.03917e-12 
2.71687e-12 2.6541e-12 1.61129e-12 -7.67024e-12 2.4325e-13 2.78279e-13 1.05238e-11 1.27504e-11 6.98226e-12 
2.85371e-13 7.35589e-13 -2.68938e-12 5.15067e-11 1.20053e-10 5.14679e-11 3.87678e-11 7.57073e-11 -1.07225e-12 
-3.99939e-11 -4.27501e-11 -2.48232e-11 -1.33094e-11 2.39125e-11 4.98177e-13 -5.29919e-13 2.96398e-13 -7.00561e-14 
-2.35555e-13 -1.5568e-13 1.24544e-12 9.87119e-12 1.02894e-11 6.04818e-12 4.84175e-12 -2.56483e-12 -1.36609e-12 
2.53165e-11 7.12831e-11 2.89799e-11 -1.82487e-11 9.71445e-11 8.21992e-12 -7.68364e-12 -4.38158e-12 -3.61957e-12 
-2.04853e-12 -2.56873e-12 1.54124e-12 6.69742e-11 8.28681e-11 4.49527e-11 3.78651e-11 2.1733e-11 1.00414e-12 
1.11333e-11 7.15913e-12 5.48773e-12 -4.45671e-13 1.1676e-12 -1.41669e-12 1.73629e-11 4.39752e-11 1.84014e-11 
-2.81822e-11 1.99271e-11 3.48724e-12 6.50476e-12 3.26488e-11 1.17461e-11 -6.44381e-12 7.54738e-11 -1.13335e-11 
-6.99701e-12 -2.03245e-12 -2.70884e-12 -1.76221e-12 -2.2598e-13 -9.3992e-13 5.01901e-12 7.9803e-12 3.89979e-12 
3.5786e-12 -4.98177e-13 -2.98906e-12 -3.12783e-11 -2.98263e-11 -1.83314e-11 -1.11108e-11 5.97812e-11 3.48724e-12 
-6.64319e-12 -3.39819e-12 -3.01241e-12 9.41852e-13 -2.08612e-12 -1.10533e-12 4.05898e-11 5.8812e-11 2.98206e-11 
1.72771e-11 5.57958e-11 1.17383e-11 -7.46404e-12 -4.28982e-12 -3.52616e-12 1.08375e-12 -1.49453e-12 -1.49453e-12 
-1.37278e-11 -5.46937e-11 -2.05264e-11 -8.85371e-12 2.83961e-11 7.16129e-13 1.2521e-11 8.57373e-12 6.3284e-12 
-1.34882e-12 -5.29313e-13 -1.24544e-12 -1.09728e-10 -2.09416e-10 -9.57434e-11 -7.14002e-11 4.7825e-11 4.42132e-12 
3.07377e-12 3.23129e-12 1.89152e-12 2.1939e-12 -3.42497e-13 2.49089e-13 -3.52318e-11 -6.44036e-11 -2.98906e-11 
1.39887e-11 2.78979e-11 1.09599e-11 -4.641e-14 2.5373e-12 7.47265e-13 -8.44755e-13 -2.4325e-13 -7.78402e-14 
4.97545e-12 8.62562e-13 1.7514e-12 -1.05076e-11 2.49088e-12 1.04617e-11 -3.06573e-12 -9.81958e-13 -1.21431e-12 
8.90116e-13 1.44783e-12 2.08612e-12 5.44661e-11 1.39356e-10 5.81466e-11 8.21876e-13 4.45868e-11 7.06789e-12 
-1.61209e-11 -2.70337e-11 -1.29464e-11 3.97893e-11 7.17375e-11 8.96719e-12 1.3078e-11 9.25432e-14 3.95117e-12 
1.30939e-12 -4.48359e-13 -3.28797e-12 -3.07788e-12 -1.70049e-11 -6.02483e-12 6.61514e-12 3.17588e-12 3.4561e-12 
-3.06752e-11 -2.13531e-11 -1.56085e-11 2.29548e-12 -3.58687e-12 -3.6616e-12 2.25309e-13 -6.14501e-11 -1.83674e-11 
-1.47236e-11 -3.47818e-11 -9.78238e-12 3.23644e-12 -1.79444e-13 9.17099e-13 3.86692e-12 -1.1209e-12 2.30973e-12 
8.52522e-11 2.21033e-10 9.18856e-11 1.66994e-11 -3.22819e-11 -3.88578e-12 -3.91609e-12 2.04793e-12 -5.60449e-13 
6.00318e-13 1.02457e-13 -2.77189e-12 -9.24781e-11 -2.34584e-10 -9.81186e-11 5.06595e-12 7.51536e-11 1.20477e-25 
-6.66516e-12 -2.42633e-11 -9.27855e-12 7.37888e-13 -9.96354e-13 7.47265e-13 1.7818e-11 2.1838e-11 1.18968e-11 
-5.63869e-11 9.99977e-11 4.89119e-12 7.08694e-11 1.36412e-10 6.21844e-11 8.56478e-11 1.13041e-10 1.6304e-12 
1.0263e-11 6.21079e-12 4.94214e-12 -1.70762e-12 -2.06517e-11 1.40961e-12 -3.33547e-12 1.22611e-11 2.6777e-12 
1.53973e-12 -1.1126e-11 -1.36999e-12 5.6458e-11 1.09044e-10 4.96507e-11 -2.70404e-12 1.08693e-11 -1.6304e-12 
4.74351e-11 9.30168e-11 4.21356e-11 -8.43229e-12 2.17386e-12 -1.08693e-12 3.35048e-11 8.80956e-11 3.64801e-11 
2.09735e-11 -2.28256e-11 -8.32182e-13 6.82969e-13 2.37403e-12 9.17099e-13 8.97968e-13 -1.23129e-13 2.71733e-13 
1.23025e-11 -4.7077e-13 3.54951e-12 4.08547e-12 1.06278e-11 1.24544e-13 -1.80311e-11 -9.78379e-12 -8.34446e-12 
-2.03386e-12 2.12556e-11 1.99271e-12 -4.10586e-11 -1.2801e-10 -5.07206e-11 7.59856e-11 -2.65694e-12 -6.31024e-12 
1.11513e-11 3.96005e-11 1.52255e-11 3.15228e-12 -1.32847e-12 3.90239e-12 -2.11887e-12 -1.51367e-12 -1.08976e-12 
-1.64287e-11 4.25111e-11 1.49453e-12 3.75295e-12 4.07433e-11 1.33489e-11 3.36957e-11 3.26079e-11 2.71733e-12 
1.55122e-12 7.2801e-12 2.6494e-12 -1.5548e-11 1.08693e-11 -6.11399e-13 -7.78378e-11 -2.37627e-10 -9.46395e-11 
5.83627e-11 7.47266e-11 6.01209e-12 -4.33929e-12 8.75495e-12 1.3247e-12 -2.8672e-12 -5.43466e-13 -2.4456e-12 
-3.13466e-11 -1.12417e-10 -4.31291e-11 -1.47113e-11 5.65204e-11 1.30432e-11 1.79798e-11 3.16963e-11 1.49029e-11 
6.50429e-12 -8.69545e-12 -1.35866e-12 -4.62511e-13 9.71841e-12 2.77677e-12 -7.82529e-12 -1.29073e-12 1.83207e-12 
-9.55481e-13 8.22056e-12 2.17952e-12 9.43394e-13 -2.39125e-11 6.64236e-13 2.21077e-11 3.38523e-11 1.6788e-11 
9.75476e-12 -1.30432e-11 2.4456e-12 5.36202e-11 1.03985e-10 4.72815e-11 1.44826e-11 -8.69545e-12 -9.04361e-13 
2.16573e-11 -5.88518e-13 6.32062e-12 -3.40798e-12 2.15877e-12 4.98177e-13 -1.04006e-10 -3.06056e-10 -1.23019e-10 
3.56894e-11 -2.60864e-11 -8.69545e-12 6.42777e-12 1.21689e-11 5.57902e-12 1.88146e-12 -3.87219e-12 -1.57096e-12 
-9.19642e-11 -1.77051e-10 -8.07047e-11 -5.19327e-11 -8.69545e-11 -8.96719e-12 -1.413e-11 -1.29584e-11 -8.12651e-12 
-1.93307e-12 3.32118e-13 1.32847e-12 1.02683e-11 1.37631e-11 7.20941e-12 -1.49578e-11 8.15199e-12 1.35866e-13 
-3.86822e-11 -1.22659e-10 -4.84024e-11 3.33627e-11 -4.34773e-12 -1.08693e-11 -7.54857e-11 -1.64781e-10 -7.208e-11 
4.79336e-11 -2.5241e-11 4.15147e-13 -2.72509e-11 -5.02779e-11 -2.32586e-11 -5.09647e-12 2.58494e-26 -2.17386e-12 
2.16747e-11 3.0115e-11 1.55369e-11 -9.37178e-13 1.06278e-11 8.30295e-13 -4.35816e-12 1.30116e-12 -9.17099e-13 
-2.44776e-12 5.09499e-13 1.76626e-12 4.50309e-11 8.44951e-11 3.88578e-11 -8.73498e-13 6.64236e-12 -4.15148e-12 
-9.64062e-12 -4.99333e-12 -4.39018e-12 -6.03371e-12 1.06278e-11 6.64236e-13 4.51837e-12 6.48304e-12 3.30042e-12 
-4.42231e-12 -1.49147e-12 -5.77238e-13 -6.67604e-11 -1.26906e-10 -5.80999e-11 -1.3509e-11 2.62393e-11 -2.50618e-12 
1.24756e-11 1.82557e-11 9.21939e-12 1.9839e-12 -3.28797e-12 -1.49453e-12 1.2321e-12 3.55835e-13 4.76382e-13 
-1.6161e-11 -2.98906e-13 -5.23086e-13 3.87948e-12 3.47642e-12 2.20677e-12 -2.28422e-11 -8.21992e-12 -2.98906e-12 
2.73823e-11 3.85872e-11 1.97909e-11 -1.72486e-11 -2.98906e-12 9.34082e-13 1.27853e-11 -2.74971e-11 -4.41354e-12 
3.68811e-11 -2.39125e-11 1.49453e-12 5.5659e-11 -4.87702e-11 2.06666e-12 4.80107e-11 4.18469e-11 -4.60442e-26 
-1.1473e-12 -4.34084e-11 -1.33667e-11 -3.51266e-11 2.39125e-11 5.38031e-12 1.73147e-10 4.07291e-10 1.74132e-10 
-3.25653e-11 -4.54337e-11 1.01628e-11 -4.33737e-11 -6.43793e-11 -3.23259e-11 5.21186e-11 -7.42995e-11 -1.47318e-11 
-1.48005e-12 -8.14976e-11 -2.48933e-11 -1.9669e-11 -4.7825e-11 6.22721e-13 -4.09549e-11 -3.71967e-11 -2.34455e-11 
-6.64853e-11 -2.34143e-11 6.41403e-12 -3.99699e-11 -1.35637e-10 -5.26822e-11 4.63084e-11 -1.70804e-11 5.55112e-12 
-1.24231e-11 4.87264e-12 -2.26515e-12 -8.0472e-11 -4.03897e-26 -4.35905e-12 1.11408e-10 2.33735e-10 1.03543e-10 
3.08485e-11 3.22258e-11 -5.71124e-12 3.61781e-11 1.86213e-11 1.64398e-11 -3.71168e-11 7.42284e-11 1.5568e-12 
5.60144e-11 1.57459e-10 6.40421e-11 6.0563e-11 -1.19562e-11 -6.09309e-12 1.30915e-10 2.08936e-10 1.01955e-10 
1.21771e-10 -2.04253e-11 -7.16129e-12 -7.78093e-11 -1.5649e-10 -7.02897e-11 -1.17702e-11 -3.98542e-11 -3.48724e-12 
-2.72289e-11 -9.20028e-12 -1.09288e-11 1.46082e-11 -2.52712e-11 8.01612e-12 1.19021e-10 2.28831e-10 1.04356e-10 
-2.56336e-11 -3.10862e-11 -1.31519e-11 3.82338e-11 6.97604e-11 3.23983e-11 -1.93916e-11 1.83942e-12 8.04748e-12 
5.90633e-11 1.30244e-10 5.67922e-11 6.33086e-11 5.18104e-11 9.34348e-26 -2.55769e-11 -5.11028e-11 -2.30039e-11 
-3.81701e-11 8.69545e-12 -6.52159e-12 2.70236e-11 7.40574e-11 3.03243e-11 2.39386e-12 4.6117e-11 4.6971e-12 
5.90155e-11 1.20662e-10 5.39032e-11 1.68698e-11 -1.68001e-11 1.50487e-11 1.62849e-10 2.25559e-10 1.16522e-10 
4.6948e-11 -1.06519e-10 -1.6304e-12 3.62453e-11 6.66594e-11 3.08714e-11 2.23404e-11 -8.12028e-11 -5.60449e-12 
2.21594e-12 -1.07561e-11 -2.56205e-12 -6.95289e-12 1.92154e-11 8.16654e-12 5.86876e-11 1.6736e-10 6.78143e-11 
-4.18032e-12 6.89784e-11 7.93251e-12 5.2933e-12 2.04607e-11 7.72619e-12 -5.61187e-11 2.25247e-11 -3.68295e-12 
-4.83119e-11 -7.51426e-11 -3.70363e-11 -5.62089e-11 1.99271e-12 -1.24544e-12 -3.81037e-11 -1.16565e-10 -4.64005e-11 
2.49151e-11 3.98542e-12 7.47266e-12 -8.89006e-11 -2.11586e-10 -9.01461e-11 -9.51e-12 -3.86279e-11 -8.73726e-12 
-1.13904e-10 -2.17695e-10 -9.94797e-11 -8.3682e-11 -2.15212e-11 -5.97812e-12 2.48025e-11 4.79002e-11 2.18108e-11 
8.20561e-12 -1.3949e-11 3.98542e-12 -5.97134e-12 4.6976e-12 -3.82124e-13 -5.59887e-12 -1.5217e-11 -9.51065e-12 
2.73272e-11 6.70151e-11 2.83027e-11 -6.0442e-12 2.56205e-11 5.55112e-12 2.77836e-11 6.56245e-11 2.80225e-11 
2.66053e-11 -3.78615e-11 5.23086e-12 2.93175e-11 6.08573e-11 2.70524e-11 3.63896e-11 3.67885e-12 -1.14964e-13 
1.0195e-10 1.91273e-10 8.79672e-11 2.05412e-11 2.96415e-11 -8.09538e-13 -1.96568e-11 -3.32462e-11 -1.58709e-11 
3.07635e-11 -5.16293e-12 2.98906e-12 1.47317e-11 -6.03756e-12 2.60824e-12 3.62141e-11 8.04747e-11 1.72446e-13 
-2.44855e-11 -7.01681e-11 -2.83961e-11 2.40101e-11 2.59052e-11 2.98906e-12 -1.77276e-11 -8.01812e-11 -2.93726e-11 
9.93402e-12 -4.29338e-11 1.08693e-12 3.56535e-11 1.08008e-10 4.30985e-11 -1.07743e-11 2.15212e-11 -2.09234e-12 
4.70791e-12 -1.93136e-11 -4.38169e-12 -1.07476e-12 -2.60864e-11 -2.4456e-12 -9.04819e-11 -2.30655e-10 -9.63412e-11 
-1.06676e-11 -1.43475e-11 1.79344e-12 -1.00446e-10 -2.04914e-10 -9.1608e-11 2.35145e-11 -6.52159e-12 1.35866e-12 
-2.97059e-11 -2.16686e-11 -1.54124e-11 -3.51852e-11 -2.85111e-11 -1.83942e-12 -1.0728e-11 -2.13643e-11 -9.62772e-12 
1.2409e-11 -2.13504e-13 -2.13504e-12 3.7825e-11 4.14283e-11 2.3776e-11 2.64135e-11 -4.18469e-11 -2.52921e-12 
2.21829e-11 7.58957e-11 2.94236e-11 -3.76012e-11 2.39125e-11 -9.96354e-13 6.78393e-11 1.03601e-10 5.1432e-11 
2.00481e-11 1.19562e-11 2.70165e-12 -1.90567e-12 -3.00533e-11 -9.58768e-12 2.1411e-11 1.04083e-11 -1.61463e-12 
-4.80549e-11 -7.54594e-11 -3.70543e-11 1.27274e-11 -1.24736e-11 -1.27897e-12 3.60904e-12 1.51504e-11 5.62784e-12 
-3.68005e-11 3.88578e-11 -2.73997e-12 1.06836e-12 -2.54732e-12 -4.43689e-13 2.68407e-12 -1.29526e-11 -6.72539e-12 
2.976e-11 7.15101e-11 3.0381e-11 9.55527e-12 1.09599e-11 4.98177e-13 -4.16422e-11 -1.04355e-10 -4.37991e-11 
-4.32701e-12 3.34775e-11 -5.97812e-13 -3.41676e-11 -2.45097e-11 -1.76032e-11 -2.37864e-11 1.19562e-11 -5.70639e-12 
3.27641e-11 6.91175e-11 3.05645e-11 7.71568e-12 -3.41607e-12 3.09581e-12 2.89902e-11 4.17452e-11 2.12206e-11 
-9.83287e-12 -1.18204e-11 1.74928e-12 2.11797e-11 1.50938e-11 1.08821e-11 3.80669e-13 -7.97083e-12 2.49088e-12 
6.97108e-12 1.81824e-11 7.54605e-12 1.68772e-11 2.98906e-12 -2.06165e-12 1.75995e-11 2.18321e-11 1.18295e-11 
1.03885e-11 -1.23833e-11 3.20257e-13 5.24722e-11 1.01251e-10 4.6117e-11 2.90757e-12 -8.80706e-13 -1.8248e-12 
2.55727e-11 7.31064e-11 2.96037e-11 -1.20141e-11 2.23112e-11 -1.52122e-12 -4.07069e-12 -3.84164e-13 -1.33646e-12 
6.28842e-12 2.16132e-11 2.98906e-12 2.43627e-12 9.05294e-12 3.44676e-12 1.62482e-11 2.98906e-12 2.69016e-12 
4.58133e-11 1.02706e-10 4.45557e-11 4.43639e-12 -4.18469e-12 4.33414e-12 4.12642e-11 9.01866e-11 3.94352e-11 
2.89078e-11 -8.69545e-12 3.12493e-12 3.09429e-11 6.72206e-11 2.94491e-11 -1.96024e-11 -7.06506e-12 3.60046e-12 
-2.19094e-11 -4.18884e-11 -1.91393e-11 -5.28007e-12 1.913e-11 -4.48359e-13 -3.17903e-11 -5.30413e-11 -2.54495e-11 
-4.19677e-12 2.17386e-12 1.6304e-12 -1.2657e-11 -2.873e-11 -1.24161e-11 -1.72474e-11 8.2774e-12 -2.50047e-12 
8.71097e-12 4.03257e-12 3.82306e-12 -5.80877e-12 1.14225e-11 3.54951e-12 -3.03977e-11 -6.05479e-11 -2.72837e-11 
-4.33072e-12 -8.15199e-12 3.53253e-12 -1.10462e-11 -1.79882e-11 -8.71031e-12 8.81121e-12 -5.60449e-12 1.82146e-12 
-1.34786e-11 -1.70587e-11 -9.16119e-12 -5.51248e-12 7.35769e-12 7.47265e-13 7.24672e-12 2.58198e-11 9.91995e-12 
-2.69491e-12 6.57594e-12 2.35389e-12 8.78795e-12 7.43111e-12 4.86572e-12 2.13683e-13 7.13299e-12 3.51554e-12 
1.92983e-11 4.15727e-11 1.82613e-11 6.4936e-12 -1.74362e-12 -9.96354e-13 -8.0007e-13 -7.35192e-12 -2.4456e-12 
-1.19435e-11 -1.03259e-11 1.29073e-12 8.57059e-12 1.99189e-11 8.54685e-12 -9.70417e-12 -2.52435e-27 -3.73633e-13 
5.13263e-12 5.88954e-12 3.30665e-12 -5.23037e-13 -7.77156e-12 -6.72539e-13 1.41776e-11 2.62427e-11 1.21261e-11 
1.57874e-12 -4.89119e-12 -8.15199e-13 5.50444e-12 8.86605e-12 4.31115e-12 8.26082e-12 -9.19711e-13 4.45485e-13 
-1.18666e-11 -2.69757e-11 -1.16527e-11 -2.53632e-12 -7.47265e-13 4.04769e-13 -1.08447e-11 -2.60091e-11 -1.10561e-11 
-4.30036e-12 1.90213e-12 2.20783e-13 2.42253e-12 5.95276e-13 9.05341e-13 3.07508e-12 3.44892e-13 2.46993e-14 
-1.91232e-12 -4.15921e-12 -1.82146e-12 1.03237e-12 -1.36999e-12 -1.40112e-13 -8.44463e-12 -2.16158e-11 -9.01814e-12 
2.27625e-13 -2.4456e-12 -3.56649e-13 3.76514e-12 6.65346e-12 3.12558e-12 -2.92975e-12 5.7482e-14 2.8741e-14 
3.4067e-12 2.85165e-12 1.8775e-12 -5.75978e-13 -3.73633e-14 2.77306e-13 3.23885e-13 -4.93718e-13 -5.09499e-14 
1.14595e-12 4.41566e-13 3.42851e-13 2.37951e-12 3.47973e-12 1.75777e-12 -1.10135e-13 1.10391e-13 -1.94247e-13 
2.37253e-13 -2.57246e-12 -7.00561e-13 1.47585e-12 4.67041e-13 -4.90393e-13 2.55378e-12 1.01271e-12 1.06995e-12 
1.38535e-13 -5.28605e-13 7.53634e-14 5.10786e-12 1.05046e-11 4.68375e-12 -1.91454e-12 6.40513e-13 -6.67201e-15 
1.96472e-12 -2.49848e-12 -1.60128e-13 2.35561e-12 1.56125e-12 -5.80465e-13 1.0347e-11 1.33447e-11 7.10751e-12 
1.0912e-12 3.17588e-12 7.64249e-14 4.6952e-12 1.57212e-11 6.12491e-12 -3.33821e-12 1.1209e-12 5.33761e-14 
1.79242e-11 -3.42981e-11 -4.91217e-12 3.44769e-11 -2.67257e-11 -4.92316e-12 -2.47173e-11 -1.35801e-11 -1.14892e-11 
-4.13553e-11 1.79344e-11 1.74362e-12 -1.50773e-11 -3.42135e-11 -1.47872e-11 1.67305e-11 -1.21862e-11 1.24736e-11 
4.74982e-12 6.20441e-12 3.28627e-12 3.00423e-12 -2.07196e-12 8.53411e-13 9.12568e-12 1.78849e-11 8.10316e-12 
2.48779e-12 -4.01655e-12 5.44881e-13 1.47876e-11 2.33449e-11 1.14398e-11 7.02874e-12 -9.67049e-13 -6.8133e-13 
3.68406e-11 2.84117e-11 1.95757e-11 7.91057e-12 2.56205e-11 6.40513e-12 2.63454e-12 -1.90062e-12 2.20176e-13 
-1.11319e-11 7.04565e-12 3.09581e-12 -9.67952e-14 -7.70946e-12 -2.34188e-12 -3.63031e-12 3.20257e-13 1.70804e-12 
2.87324e-11 7.54844e-11 3.12651e-11 -1.93247e-11 1.87884e-11 1.08887e-11 7.96119e-11 1.95709e-10 8.25962e-11 
-3.10983e-12 6.72539e-12 1.15826e-11 1.74787e-11 2.34652e-11 1.22832e-11 2.78336e-12 3.86087e-12 -1.68135e-12 
1.07878e-11 -1.06127e-11 5.25421e-14 -5.59467e-12 4.85723e-12 -4.39018e-12 5.47967e-11 7.94244e-12 1.88217e-11 
4.87766e-12 1.99271e-11 8.34446e-12 -1.67317e-11 -2.24279e-11 -1.17479e-11 -4.80011e-11 5.50692e-11 -3.06223e-12 
3.3707e-12 2.91313e-12 1.88515e-12 -3.26604e-12 -3.78728e-12 -1.08348e-12 7.2786e-12 6.05329e-12 3.99957e-12 
-2.23126e-12 -4.62609e-14 -1.28755e-12 -4.33905e-11 -8.5343e-11 -3.862e-11 -7.17211e-12 -1.15656e-11 -6.03757e-12 
5.01655e-11 1.23107e-10 5.19817e-11 -3.40678e-11 2.93924e-11 1.77164e-11 1.50232e-10 3.42847e-10 1.47924e-10 
-2.38171e-11 4.12251e-11 1.70069e-11 -4.80813e-11 -8.08938e-11 -3.86925e-11 -6.94376e-11 -2.39125e-11 -6.43798e-12 
4.89882e-12 -1.01985e-10 -2.91258e-11 -2.84524e-11 -1.49453e-11 1.1209e-11 -5.17746e-11 -8.6912e-11 -4.1606e-11 
1.79745e-11 8.41657e-12 1.32541e-11 -5.83371e-11 -1.27699e-11 -2.13321e-11 7.75348e-13 3.54017e-11 1.65829e-11 
-7.60065e-11 -1.4636e-10 -6.67099e-11 -8.87673e-12 6.11879e-11 7.38474e-12 -5.16672e-11 -1.60136e-10 -6.35409e-11 
-7.51348e-12 3.49347e-11 -6.58528e-12 8.66555e-12 -6.58643e-11 -1.71596e-11 -5.51725e-12 -1.05496e-11 2.28575e-12 
-2.4408e-11 -2.45145e-11 -1.46768e-11 -3.30354e-11 -4.03523e-11 6.35176e-12 1.66687e-11 9.402e-11 3.32066e-11 
3.68145e-12 -1.13394e-25 1.30771e-11 7.65359e-11 1.75082e-10 7.54855e-11 4.16344e-11 6.80012e-11 -1.1209e-11 
-3.9435e-11 -1.07307e-11 -1.50497e-11 -2.28959e-11 -2.53191e-11 -8.08805e-12 2.76439e-11 4.77249e-11 2.26106e-11 
-2.61801e-11 -6.57594e-11 -2.98906e-12 -6.56301e-11 -9.97219e-12 -2.26807e-11 -3.01426e-11 -3.73633e-11 -4.85723e-12 
9.84806e-11 1.52496e-10 7.52928e-11 7.58556e-11 -2.31652e-11 1.05084e-11 5.54022e-12 -2.65403e-13 1.58244e-12 
1.21117e-11 -7.7364e-12 7.38474e-12 -7.14543e-11 -9.46955e-11 -4.98449e-11 -1.36837e-11 -1.10222e-11 3.9932e-12 
6.73071e-12 -2.73904e-11 -6.19791e-12 -1.02604e-12 -4.21985e-12 1.23079e-11 -4.60678e-11 -1.58963e-10 -6.15093e-11 
-3.7288e-12 7.56606e-12 1.00414e-12 -3.35236e-11 -1.59828e-11 -1.48519e-11 -5.11295e-11 2.52202e-11 2.89565e-12 
5.13986e-12 5.19576e-13 1.69783e-12 1.74525e-11 2.9539e-11 5.27482e-13 3.29275e-11 5.94428e-11 2.77111e-11 
3.38261e-11 1.06278e-11 -2.49089e-13 4.43822e-11 1.45921e-10 5.70911e-11 -2.66524e-11 5.42017e-11 5.97812e-12 
-3.78884e-11 -1.11876e-10 -4.49293e-11 -1.38911e-11 1.72701e-11 -1.57756e-12 -2.66214e-11 -3.5713e-11 -1.87003e-11 
-1.87605e-11 2.39125e-11 -2.78979e-12 8.86566e-11 1.64538e-10 7.59584e-11 4.3834e-11 -3.73633e-13 1.15826e-11 
6.10357e-11 2.40242e-11 2.55179e-11 1.54998e-11 -2.2418e-12 6.91221e-12 2.012e-11 1.01077e-10 3.63591e-11 
-1.4414e-11 -4.55832e-11 -5.88472e-12 -3.08377e-11 -3.14539e-11 -1.86875e-11 -2.40969e-11 -3.28797e-11 -9.90127e-12 
3.3993e-11 5.61734e-11 2.70499e-11 -2.38692e-11 -5.62647e-12 -2.10993e-12 -8.21007e-11 -1.47333e-10 -6.88302e-11 
8.39642e-12 6.53857e-11 -1.86816e-12 3.1904e-11 6.60578e-11 2.93886e-11 1.74868e-11 -1.27035e-11 -7.00561e-12 
7.22941e-11 1.34413e-10 6.2012e-11 4.01926e-11 8.4397e-12 -8.4397e-12 1.01152e-10 1.78138e-10 8.37871e-11 
1.02368e-12 1.90553e-11 -8.96719e-12 5.02509e-11 9.77427e-11 4.43981e-11 -1.7712e-11 8.21992e-12 1.77476e-12 
-4.34786e-12 -6.13298e-11 -1.97033e-11 3.64586e-11 -1.49453e-12 5.32427e-12 -7.90499e-12 -2.9788e-11 -1.13079e-11 
1.62566e-12 2.35608e-11 -5.89021e-12 -2.54867e-11 -4.22342e-11 -2.03163e-11 -3.07145e-12 -5.60449e-12 -8.96719e-12 
-5.66963e-13 -2.10921e-11 -6.49771e-12 -8.27388e-12 1.00881e-11 -7.47265e-13 9.55215e-12 -2.48821e-11 -4.59898e-12 
-1.86188e-11 7.7364e-12 -5.1869e-12 2.00148e-11 2.94332e-11 1.48344e-11 -1.82409e-11 4.48359e-12 -8.78037e-12 
3.8992e-11 7.8352e-11 3.52032e-11 -7.64816e-12 -1.86816e-12 2.98906e-12 1.95255e-11 7.04966e-11 2.70066e-11 
-2.36311e-11 -1.79344e-11 3.73633e-12 2.1848e-11 6.63953e-11 2.6473e-11 2.38073e-11 1.33629e-11 2.37367e-12 
2.78401e-11 3.76624e-11 1.96507e-11 2.0701e-12 -1.00881e-11 -1.77476e-12 1.18352e-11 2.52946e-11 1.11389e-11 
3.47148e-11 -1.30771e-11 -2.05498e-12 -4.31452e-11 -2.76115e-11 -2.1227e-11 -1.32152e-11 1.96157e-12 6.95891e-12 
-1.32412e-11 -1.8576e-11 -9.54515e-12 2.32743e-11 -1.19562e-11 4.29678e-12 -3.44402e-13 -6.62089e-11 -1.9966e-11 
4.05513e-12 -1.00881e-11 -3.36269e-12 -6.228e-11 -1.38139e-10 -6.01257e-11 5.84015e-12 1.08353e-11 -2.14839e-12 
-1.79182e-11 -4.81269e-11 -1.98135e-11 -2.06806e-12 2.444e-11 -4.39568e-13 1.80093e-11 4.29187e-12 6.69036e-12 
-1.66025e-11 1.19562e-11 -4.39018e-12 1.15993e-13 -3.23418e-11 -9.66775e-12 -7.73904e-12 4.85723e-12 2.2418e-12 
-9.17443e-12 -9.0127e-12 -5.45614e-12 -1.82023e-12 3.34072e-12 -3.51654e-13 1.25814e-12 9.54218e-12 3.2401e-12 
-1.5366e-11 -3.33526e-11 -5.54027e-12 3.95836e-11 6.43742e-11 3.11873e-11 1.07782e-11 1.68794e-11 4.39568e-13 
3.94796e-11 3.47216e-11 2.22603e-11 3.01246e-11 2.18575e-11 5.7446e-12 3.77699e-11 5.94296e-11 2.91598e-11 
1.62309e-12 -1.9341e-12 3.51654e-13 -9.39594e-12 -2.27131e-11 -9.63272e-12 8.6796e-12 -7.65947e-12 -2.70884e-12 
-3.51957e-11 -5.47509e-11 -2.6984e-11 -1.0458e-11 -1.37145e-11 1.75827e-13 3.80714e-11 4.06833e-11 2.36264e-11 
1.85144e-11 -4.99734e-12 -3.59622e-12 -2.39666e-11 -4.63231e-11 -2.10869e-11 7.2378e-12 -2.42861e-12 2.14839e-12 
1.63801e-11 1.55436e-11 9.57709e-12 -7.43215e-12 -1.35387e-11 -2.54949e-12 2.48719e-11 1.96721e-11 1.33632e-11 
1.00769e-11 -7.00561e-12 -5.18415e-12 -1.88768e-11 -9.55432e-12 -8.52934e-12 -2.88784e-12 -7.08735e-12 -1.30188e-12 
-2.17564e-11 -2.28598e-11 -1.33848e-11 -8.01611e-12 -4.04403e-12 5.27482e-13 1.62731e-11 1.02899e-11 7.96889e-12 
-3.14867e-12 -5.53443e-12 1.51788e-12 -7.70809e-12 -8.28806e-12 -4.79885e-12 8.22428e-12 -9.80786e-13 -7.00561e-13 
1.85283e-11 3.7108e-11 1.66909e-11 -2.49656e-13 -1.31239e-11 1.86816e-12 2.00749e-11 3.91019e-11 1.77531e-11 
-1.11579e-11 4.92316e-12 5.45064e-12 -6.81969e-12 -8.4759e-12 -4.58868e-12 5.37437e-12 1.29837e-11 3.4561e-12 
9.85684e-12 3.27606e-11 1.27852e-11 7.2777e-12 5.60449e-12 8.59355e-12 5.98434e-12 2.1159e-11 8.143e-12 
-8.51853e-13 -8.00014e-12 4.79129e-12 -1.52395e-11 -2.51855e-11 -1.21275e-11 4.24079e-12 -4.21848e-27 1.32847e-12 
-7.09221e-13 1.26967e-12 1.68135e-13 9.4463e-12 -5.28068e-12 -1.44471e-12 -4.10907e-12 -2.02085e-12 -1.83897e-12 
6.20099e-12 -1.50621e-12 -7.65655e-12 1.6748e-11 7.88842e-12 7.39092e-12 5.57799e-12 -3.15253e-12 -9.6911e-13 
7.93154e-12 2.23347e-12 3.0495e-12 4.13571e-12 -1.53849e-12 2.94511e-12 3.35761e-12 1.42732e-11 5.28924e-12 
-1.70313e-12 -2.27682e-12 1.7047e-12 1.25545e-11 1.28408e-11 7.61861e-12 3.53727e-12 -1.93822e-12 -4.67041e-14 
1.01537e-12 5.23114e-13 4.61546e-13 1.6925e-12 3.51654e-13 -3.51654e-13 2.60634e-12 3.81547e-12 1.92654e-12 
-3.73347e-12 1.1209e-12 4.18585e-12 1.44464e-11 9.08074e-12 7.05816e-12 2.71615e-12 -8.28998e-13 7.23913e-13 
2.60666e-12 4.42643e-12 2.10993e-12 -3.85212e-13 -2.41762e-13 -3.78028e-12 7.28582e-13 2.42394e-12 9.45758e-13 
-2.07352e-12 -4.20337e-13 -2.61543e-12 5.0323e-12 3.14091e-12 2.45196e-12 -6.50918e-13 -3.26929e-13 -2.12504e-12 
-4.48417e-12 3.63218e-13 -1.23628e-12 8.70973e-13 8.57157e-13 1.49453e-12 1.71936e-11 1.01283e-11 8.19657e-12 
2.29808e-13 -1.1676e-12 2.63878e-12 4.12217e-12 -7.945e-13 9.983e-13 2.88423e-12 -2.19509e-12 1.30771e-12 
-8.1189e-13 3.08871e-12 6.83047e-13 2.87581e-13 -1.82146e-12 -1.09755e-12 4.17238e-12 9.26802e-12 4.03212e-12 
-2.51573e-12 -1.36999e-12 -5.81207e-13 -9.00684e-12 -2.55542e-11 -1.03683e-11 -3.07271e-12 -3.73633e-13 3.56286e-12 
4.72016e-12 2.85082e-12 2.27129e-12 2.35904e-12 1.10123e-12 8.65255e-13 1.49533e-12 1.77396e-12 9.80786e-13 
-2.87991e-12 -4.73268e-12 4.98177e-13 1.47966e-12 -8.95231e-12 -2.2418e-12 -1.88118e-12 5.17338e-13 1.98313e-12 
-4.82439e-12 -1.17889e-11 -4.98399e-12 5.21867e-12 2.13504e-13 -5.89806e-12 3.14494e-12 -1.88118e-12 3.79127e-13 
2.02014e-12 2.21982e-12 -8.79136e-13 2.25646e-11 1.49738e-11 1.12615e-11 -2.23726e-12 1.91487e-12 1.42447e-12 
9.09715e-12 7.65795e-12 5.02653e-12 1.45473e-12 7.18075e-13 6.77209e-13 -2.54198e-12 4.06937e-13 -6.40513e-13 
2.44271e-12 4.78439e-13 7.11681e-14 8.53199e-12 4.60354e-12 3.94066e-12 2.50288e-14 1.05084e-13 1.1676e-13 
-2.68652e-12 -2.62607e-12 -1.59378e-12 -6.83551e-13 -6.65533e-13 1.37777e-12 -1.03142e-12 -4.86805e-12 -1.76984e-12 
1.48048e-12 -2.42861e-12 7.6693e-13 5.30556e-12 4.99089e-13 1.7414e-12 -3.02817e-12 -2.91567e-12 6.67201e-13 
2.95306e-12 1.11749e-11 4.2384e-12 -8.27894e-13 5.60449e-13 -1.36609e-12 4.73765e-12 9.18461e-12 4.17668e-12 
-2.23307e-12 1.74362e-12 -1.06752e-13 -1.16757e-11 -1.2085e-11 -7.12821e-12 -2.05803e-12 4.02823e-12 9.80786e-13 
-6.38546e-12 -6.51655e-12 -3.8706e-12 3.23895e-12 3.64292e-12 -1.22598e-12 1.40459e-11 2.63394e-11 1.21156e-11 
-3.31047e-12 -1.40662e-12 1.45057e-12 3.89988e-12 -2.03172e-12 5.60449e-13 3.89421e-12 1.49453e-12 -1.9966e-12 
-2.31738e-12 -1.58235e-11 -5.44226e-12 -1.11809e-11 -1.7895e-12 2.99889e-13 -2.56111e-12 -9.34843e-12 -3.57286e-12 
-4.78004e-12 5.60449e-13 1.57626e-12 6.51041e-12 2.58322e-11 9.70278e-12 -7.2298e-13 3.4561e-12 -7.82294e-13 
1.45843e-11 1.30824e-11 8.29998e-12 2.69381e-12 -3.91425e-12 4.67041e-13 -1.58488e-11 -4.42957e-11 -1.80433e-11 
4.71097e-12 -9.88051e-12 9.44461e-13 -9.54866e-12 -2.39308e-11 -1.00438e-11 -9.99962e-13 1.12483e-11 2.94973e-13 
2.04899e-12 9.51028e-12 3.46778e-12 1.87746e-11 7.33254e-12 1.38361e-12 -1.00023e-11 -2.14006e-11 -9.42088e-12 
-7.00269e-12 2.27738e-12 1.12979e-12 -1.14969e-11 -3.72505e-11 -1.46242e-11 -7.10023e-13 5.79131e-12 -1.63464e-12 
-1.10937e-11 -3.47347e-11 -1.37485e-11 -3.9997e-12 5.41767e-12 -2.62711e-12 1.85416e-11 3.4062e-11 1.57811e-11 
-2.48205e-12 -2.04515e-12 -1.00783e-13 -2.47388e-12 -3.88956e-12 -1.90903e-12 1.55155e-11 5.23086e-12 -1.40112e-13 
-1.80769e-11 -4.85348e-11 -1.99835e-11 -1.10521e-11 1.99424e-26 -1.29166e-12 4.54858e-12 -9.31732e-12 -1.43062e-12 
4.78111e-12 4.71957e-12 -1.30956e-12 3.54202e-11 8.89878e-11 3.73224e-11 1.48049e-11 1.49453e-12 1.41718e-12 
2.22557e-12 3.4234e-12 1.69469e-12 1.4472e-12 1.16716e-11 -1.70581e-12 -1.38067e-11 -2.7468e-11 -1.23824e-11 
-6.22259e-13 1.56926e-11 -1.63464e-13 1.85593e-11 2.96571e-11 1.44649e-11 1.60531e-11 1.57282e-11 9.42978e-13 
-1.95e-12 -1.36375e-11 -4.67625e-12 -1.57594e-11 1.00881e-11 -8.84618e-13 -3.36716e-11 -7.59273e-11 -3.28797e-11 
9.40538e-12 1.42336e-12 -2.34354e-12 -3.55992e-11 -9.61064e-11 -3.95117e-11 -1.60005e-11 -6.72539e-12 1.10922e-13 
-3.93255e-11 -7.29979e-11 -3.3697e-11 4.30988e-12 -1.29837e-11 -1.57918e-12 3.07511e-14 -8.14251e-12 -2.43353e-12 
-1.60672e-11 -7.70863e-12 -2.99889e-13 -1.47247e-11 -4.20542e-11 -1.70337e-11 -7.9269e-12 -1.87884e-11 8.50682e-14 
-6.13429e-12 -1.56415e-11 -6.53274e-12 -3.87029e-12 -2.37257e-11 1.11798e-12 -3.97716e-11 -8.1837e-11 -3.64826e-11 
2.04068e-11 -2.83249e-11 2.41972e-12 -3.33743e-11 -9.94405e-11 -3.98444e-11 -1.19468e-11 -3.32533e-11 -1.93822e-12 
3.64947e-12 4.87183e-13 1.24099e-12 -9.75678e-12 -1.63687e-12 -1.29882e-12 2.2232e-11 4.38543e-11 1.98259e-11 
-1.08146e-11 2.61271e-27 5.83801e-13 2.62302e-11 4.72509e-11 2.20443e-11 9.21117e-12 1.6084e-11 -2.0016e-12 
6.38768e-13 -6.38768e-13 1.26824e-25 1.72595e-11 2.01762e-11 -2.66797e-12 3.97567e-11 8.11401e-11 3.62691e-11 
-1.81592e-11 3.22392e-11 -8.58466e-13 1.90306e-11 4.75227e-11 1.9966e-11 3.40921e-12 -4.48359e-12 -1.23766e-12 
2.10822e-11 5.06197e-11 2.15106e-11 -2.28569e-12 -1.72583e-11 3.93649e-13 2.91445e-11 6.58984e-11 2.85128e-11 
4.88042e-13 -1.49453e-11 4.67041e-12 9.92951e-12 4.06277e-11 1.51672e-11 -2.19927e-11 -7.47266e-12 1.21431e-12 
6.78424e-11 1.23448e-10 5.7387e-11 6.52193e-13 8.18059e-12 5.89946e-14 4.38434e-11 9.18653e-11 4.07126e-11 
1.54887e-11 3.97118e-11 6.40513e-13 -5.48914e-11 -1.40725e-10 -5.86849e-11 7.11141e-12 3.56328e-11 9.24249e-13 
4.4916e-11 1.03953e-10 4.46608e-11 -1.55343e-11 2.46598e-11 -2.00828e-12 5.37008e-11 1.09826e-10 4.9058e-11 
6.73918e-12 -2.71506e-11 9.40309e-13 1.16051e-12 3.3634e-11 1.04384e-11 -1.60248e-11 -3.2506e-11 -1.86816e-12 
3.88209e-11 1.00182e-10 4.17009e-11 1.73057e-11 -4.40887e-11 -1.44783e-12 2.06476e-11 2.68571e-11 1.42514e-11 
6.0791e-11 -1.82546e-11 1.28547e-12 1.55491e-10 3.59721e-10 1.54564e-10 1.27564e-11 1.70804e-11 4.64372e-12 
6.78997e-12 1.08992e-11 5.30675e-12 -1.33244e-11 3.02643e-11 -1.86816e-12 9.08404e-11 1.72669e-10 7.90528e-11 
2.46019e-11 -2.08054e-11 3.697e-12 3.74854e-11 1.06096e-10 4.30745e-11 3.82919e-11 4.14199e-11 3.20257e-13 
-2.84469e-11 -6.23065e-11 -2.7226e-11 9.42934e-12 -2.5171e-11 -4.95555e-12 2.83952e-11 3.96593e-11 2.04164e-11 
-2.93652e-11 2.69016e-11 5.87137e-13 1.42388e-11 4.57883e-11 1.80081e-11 3.96932e-11 -9.75378e-12 1.25855e-12 
8.37452e-11 1.73728e-10 7.72419e-11 -2.29594e-11 -1.23833e-11 6.40513e-13 -1.23925e-11 -3.00258e-11 -1.27255e-11 
-8.45451e-12 -3.44621e-11 3.5605e-12 2.73754e-11 1.00477e-10 3.83557e-11 -1.44387e-11 2.16707e-11 2.70884e-12 
7.33848e-11 1.74497e-10 7.43646e-11 -5.30393e-12 3.40006e-11 5.6979e-12 1.06027e-10 2.83633e-10 1.16898e-10 
1.99351e-11 -2.85534e-11 2.75308e-13 1.12731e-10 2.84312e-10 1.19113e-10 9.52318e-12 -5.11877e-11 -4.30261e-12 
9.9028e-11 2.11221e-10 9.30746e-11 8.12995e-11 -4.32702e-11 -9.32303e-12 -4.4374e-12 -2.54532e-11 -8.96719e-12 
5.78691e-11 -3.17173e-11 -7.38963e-12 -1.22739e-10 -2.04682e-10 -9.82261e-11 -6.14279e-11 -6.84338e-12 1.72068e-12 
-4.87682e-12 -2.85426e-11 -1.00258e-11 4.17936e-11 2.12556e-11 1.10429e-11 -7.97545e-12 -4.64963e-11 -1.63415e-11 
-3.6338e-11 7.23668e-12 -2.87107e-12 1.05756e-10 2.5646e-10 1.08665e-10 2.13811e-11 2.65694e-12 -9.2993e-12 
1.01175e-10 1.7079e-10 8.15896e-11 3.40478e-11 6.81978e-11 7.95444e-12 1.51308e-11 2.99127e-11 1.35131e-11 
5.85204e-11 3.80275e-11 1.206e-11 -2.677e-11 -2.91274e-11 -1.67692e-11 -2.01918e-11 -3.06772e-12 -4.37052e-12 
-1.10904e-10 -1.93198e-10 -9.12306e-11 -7.5923e-11 -3.43742e-11 -1.19562e-11 8.31425e-11 1.16306e-10 5.98346e-11 
5.14608e-12 1.4803e-11 5.33761e-14 -4.29517e-11 -1.21966e-10 -4.94752e-11 -4.91651e-11 1.66059e-11 -1.07938e-12 
1.45896e-10 3.49905e-10 1.4874e-10 2.13141e-11 -2.89467e-11 -6.29276e-13 1.38706e-11 1.83552e-11 9.66775e-12 
-1.22881e-11 -2.5241e-11 -4.56662e-13 1.01306e-10 2.25733e-10 9.81116e-11 3.88018e-12 4.92316e-12 -6.59352e-12 
6.51534e-11 1.67958e-10 6.99335e-11 -3.83891e-11 2.2418e-12 9.34082e-14 5.2832e-11 1.09314e-10 4.86437e-11 
4.75939e-11 -2.67257e-11 9.67049e-13 7.31535e-11 1.9055e-10 7.91109e-11 -2.96413e-12 1.8308e-11 6.2817e-12 
6.32715e-11 1.36622e-10 5.99681e-11 -1.48129e-11 -6.36243e-11 -2.61543e-12 1.82022e-10 4.01112e-10 1.7494e-10 
-6.61417e-11 4.6971e-11 -2.77556e-12 -1.5293e-11 -3.93263e-11 -1.63858e-11 6.82858e-11 -9.73805e-11 6.76472e-12 
-3.92107e-11 3.414e-11 -1.52122e-12 -4.58449e-11 4.00321e-11 4.37684e-12 -3.45369e-11 -1.19664e-10 -4.62604e-11 
2.10708e-11 -9.96354e-13 1.99271e-12 -1.62886e-11 -1.39912e-11 -9.08395e-12 1.4347e-13 -8.7181e-13 3.41718e-12 
-4.30452e-12 6.77317e-12 7.40593e-13 -2.33552e-12 3.66627e-12 3.47612e-12 -1.60137e-11 -6.44731e-11 -2.4146e-11 
6.55609e-11 -1.16573e-10 1.15826e-11 5.89549e-12 1.41232e-12 2.19235e-12 -1.31245e-11 -1.84619e-12 8.13201e-13 
6.68488e-12 -6.61069e-11 -1.78266e-11 -3.92138e-12 -1.10365e-11 7.35769e-12 6.17317e-12 1.61114e-11 6.68536e-12 
-9.68005e-12 -5.97812e-12 6.93889e-13 2.3864e-11 9.70798e-12 1.00716e-11 5.21698e-12 -6.24186e-12 -8.79136e-13 
7.47868e-11 1.40119e-10 6.44717e-11 5.78864e-11 9.39419e-12 -8.21992e-12 1.05223e-10 6.2967e-11 5.04569e-11 
8.43993e-11 -3.65721e-11 -5.62647e-12 8.14971e-12 4.61607e-12 3.82974e-12 -6.79892e-12 -5.39692e-13 -4.56662e-13 
1.74558e-11 1.08214e-11 8.48316e-12 -2.89233e-12 -1.16123e-12 1.6771e-13 3.2108e-11 -5.30729e-11 -6.28948e-12 
-5.72725e-11 -3.71972e-11 -1.01296e-11 1.62808e-10 3.10177e-10 1.41896e-10 1.45647e-11 -6.52159e-11 -1.16845e-11 
9.57101e-12 2.37757e-11 1.0004e-11 -6.48981e-12 7.2459e-13 -7.7813e-13 1.34959e-10 2.30617e-10 1.09673e-10 
-6.46525e-11 -8.00807e-12 7.42619e-12 8.1979e-11 1.69689e-10 7.55005e-11 8.54405e-11 1.19562e-11 -9.07394e-13 
2.90378e-11 7.91289e-11 3.245e-11 -6.29948e-11 -6.77521e-12 -5.33049e-12 6.29861e-12 9.89214e-12 4.85723e-12 
-3.50492e-13 2.71506e-12 -3.05133e-13 2.89167e-11 3.99385e-11 2.06566e-11 2.99738e-12 4.66374e-12 -1.5846e-13 
-1.83376e-11 -1.24966e-10 -4.29911e-11 1.68616e-11 -5.28068e-11 -2.49089e-13 -3.21886e-11 -1.52845e-10 -5.55099e-11 
-1.86056e-11 -4.48359e-12 -2.1399e-12 2.73565e-12 -6.12735e-13 6.36874e-13 2.83145e-12 -1.49453e-12 5.94416e-13 
-4.37936e-12 8.34921e-12 1.19095e-12 2.4192e-12 -7.47266e-12 1.24544e-12 -3.45973e-11 -7.1888e-11 -3.19456e-11 
-8.99952e-11 -1.10365e-11 1.62553e-25 2.33313e-11 4.03938e-11 1.91175e-11 -6.64881e-12 2.49088e-12 -7.47265e-13 
-8.33138e-12 -1.39531e-11 -6.68536e-12 3.6568e-12 -1.22765e-12 -1.26768e-12 1.09119e-11 -9.3773e-12 4.60369e-13 
1.84943e-11 2.22045e-11 1.60128e-11 -1.04401e-10 -2.83632e-10 -1.1641e-10 5.61403e-11 1.99271e-12 -3.98542e-12 
-1.96772e-12 -1.25106e-11 -4.34348e-12 5.87085e-12 -6.16494e-12 7.00561e-14 8.44175e-12 2.47182e-11 9.94797e-12 
2.78138e-12 -2.80225e-12 2.2418e-12 2.65709e-11 9.24662e-11 3.57111e-11 -1.80938e-11 -7.47266e-11 3.73633e-13 
-5.1754e-11 -1.53822e-10 -6.16728e-11 3.52467e-11 -2.88943e-11 6.91221e-12 7.49836e-12 9.93783e-12 5.23086e-12 
-4.49988e-12 3.70519e-12 -3.03577e-13 3.30509e-12 1.1142e-11 4.33414e-12 -5.08234e-13 4.7825e-12 1.34508e-12 
1.89686e-12 8.25349e-12 3.04511e-12 -1.69197e-11 4.7825e-11 -9.96354e-12 -6.32123e-12 -2.02067e-11 -7.95838e-12 
-2.25803e-11 -3.18833e-12 5.08141e-12 -5.95718e-12 -2.69865e-12 -2.59675e-12 -1.34703e-12 -3.3876e-12 1.34508e-12 
3.34272e-11 1.07386e-10 4.22439e-11 2.97369e-11 -7.47266e-12 -6.72539e-12 -1.33114e-10 -2.72667e-10 -1.21734e-10 
-2.93565e-11 1.6938e-11 1.75607e-11 -2.13484e-11 -1.48588e-10 -5.09809e-11 2.39248e-11 1.79344e-11 8.86043e-12 
3.97884e-11 7.61045e-11 3.47679e-11 7.48521e-12 5.09608e-11 1.4525e-11 7.38957e-11 1.25331e-10 5.97679e-11 
3.49713e-11 -1.93755e-11 -2.69549e-12 2.30434e-11 3.88395e-11 1.85649e-11 1.0883e-11 1.49453e-11 -4.73268e-12 
2.52604e-11 3.95026e-11 1.94289e-11 -6.31579e-12 9.46381e-11 1.91681e-12 9.15806e-12 4.36954e-11 1.5856e-11 
1.03804e-11 5.57803e-11 1.91681e-12 5.23441e-11 7.62478e-11 3.85776e-11 4.14033e-11 -3.58687e-11 -4.48359e-12 
-4.82711e-11 -9.4877e-11 -4.29444e-11 -4.3571e-11 -9.30346e-11 -1.07575e-11 -1.46379e-10 -2.65551e-10 -1.23579e-10 
1.95006e-11 -5.10009e-11 -8.96719e-12 -1.29577e-10 -3.70468e-10 -1.50014e-10 -5.34437e-12 -6.91843e-11 -1.62375e-11 
1.93782e-11 -1.08158e-11 2.56873e-12 -1.8584e-11 -5.52976e-11 -1.69224e-11 1.19958e-11 9.1843e-11 3.11516e-11 
-2.54446e-11 7.27338e-11 -2.73997e-12 4.8555e-11 1.10784e-10 4.78016e-11 8.72657e-12 8.26974e-11 9.20071e-12 
3.4446e-11 1.20245e-11 1.39412e-11 2.28798e-11 9.26609e-11 1.51788e-11 -6.56528e-12 1.81703e-12 -1.42447e-12 
2.1732e-11 2.39125e-11 1.19562e-11 7.32176e-12 -2.57351e-12 1.42447e-12 -2.1445e-11 -5.66054e-11 -3.26929e-13 
2.90195e-11 3.72225e-11 1.98726e-11 1.12517e-11 8.88623e-11 1.53656e-11 6.99443e-11 1.64899e-10 7.04531e-11 
-3.202e-11 7.93347e-11 6.97448e-12 3.04277e-11 -3.72853e-12 8.00975e-12 3.79534e-11 -4.85723e-12 4.67041e-14 
1.22907e-10 2.2426e-10 1.0415e-10 4.32887e-11 7.58474e-11 1.42292e-11 9.02389e-11 1.93566e-10 8.51416e-11 
1.11449e-11 6.14003e-11 1.11156e-11 4.42037e-11 5.14618e-11 2.86997e-11 4.95616e-11 3.35647e-11 6.55414e-12 
2.77918e-11 5.7521e-11 2.55938e-11 1.69478e-11 4.68909e-11 1.66578e-12 -1.01708e-11 -7.96598e-12 -5.44103e-12 
-7.23757e-12 1.49453e-11 6.22721e-12 1.95098e-11 4.1906e-11 1.84248e-11 2.27969e-11 -1.43849e-11 6.67869e-12 
3.47303e-11 1.06939e-10 4.25007e-11 -1.55413e-11 9.017e-11 1.07419e-12 4.01675e-11 9.24722e-11 3.97919e-11 
8.6768e-12 8.3071e-11 1.14736e-11 4.69181e-11 1.19348e-10 4.988e-11 6.98083e-12 -5.60449e-13 2.88009e-12 
4.85521e-12 -2.20864e-12 7.9397e-13 2.30965e-11 6.97448e-12 -2.2418e-12 -1.42271e-11 -7.89476e-11 -2.79524e-11 
-5.09395e-11 1.99271e-12 -2.98906e-12 -4.75587e-11 -8.03327e-11 -3.83674e-11 1.5975e-11 -4.17223e-12 -3.72076e-12 
-2.7299e-11 -5.6457e-11 -2.51268e-11 -1.68053e-11 4.96309e-11 4.74825e-12 5.00519e-12 5.26971e-12 3.08247e-12 
-7.7477e-12 1.3949e-11 3.98542e-12 -5.13818e-11 -1.1146e-10 -4.88525e-11 6.23455e-12 1.99271e-12 -1.09599e-11 
-5.0654e-11 -9.97332e-11 -4.51162e-11 7.81759e-12 -2.26671e-11 -4.31234e-12 -5.68363e-11 -1.55434e-10 -6.3681e-11 
-5.64296e-11 -4.29678e-12 3.33156e-12 -7.62918e-12 -4.20252e-12 -3.54951e-12 2.43015e-11 1.27658e-11 -2.49089e-13 
3.38702e-11 5.79033e-11 2.75321e-11 -1.40655e-11 1.99271e-12 -4.48359e-12 -2.23516e-11 -4.76267e-11 -2.09935e-11 
3.202e-12 4.73268e-12 -2.52202e-12 -1.4715e-11 8.10809e-14 -4.39018e-12 1.86618e-12 -3.05133e-12 2.16396e-12 
3.93515e-11 8.72944e-11 3.79938e-11 -1.32536e-11 -4.98177e-12 -5.58892e-12 2.34911e-11 5.34928e-11 2.30952e-11 
4.44186e-12 9.96354e-13 1.36999e-12 2.67647e-12 3.56987e-11 1.15126e-11 3.13235e-12 -1.7841e-11 -2.17952e-13 
2.95631e-11 6.37673e-11 2.79991e-11 -6.31054e-12 1.33885e-12 -3.9465e-12 -2.48196e-12 -3.35605e-12 -1.7514e-12 
-4.90715e-12 7.72174e-12 5.73682e-12 -1.53266e-11 -8.02544e-12 -7.00561e-12 -1.71833e-11 -8.46901e-12 2.49088e-12 
-1.33137e-11 -2.85643e-11 -1.25634e-11 -8.63137e-12 5.47995e-12 1.74362e-12 1.8889e-11 1.04568e-11 8.80372e-12 
1.80982e-11 -4.98177e-12 -2.86452e-12 -5.71801e-12 -1.20001e-13 -1.7514e-12 -7.69187e-12 -7.47265e-13 -5.66676e-12 
1.50624e-12 1.91214e-11 6.18829e-12 4.74385e-12 1.3949e-11 -4.10996e-12 2.17053e-11 4.50816e-11 2.00361e-11 
6.85263e-12 -8.7181e-12 -6.35176e-12 -2.53655e-11 -1.33989e-11 -1.16293e-11 -2.4673e-11 1.99271e-12 -2.49089e-13 
-2.26547e-11 -5.52633e-11 -2.33754e-11 1.60558e-13 5.23086e-12 6.0404e-12 1.89764e-11 2.38357e-11 1.28436e-11 
2.73544e-12 1.99271e-11 6.97448e-12 -3.53853e-12 -6.34717e-12 -2.96571e-12 -4.95284e-12 2.98906e-12 4.98177e-13 
-9.25323e-12 7.68649e-13 -2.54537e-12 9.20091e-12 3.42497e-12 -2.61543e-12 -4.13687e-11 -6.43382e-11 -3.17121e-11 
-3.27649e-11 -3.18833e-11 2.73997e-12 -1.8079e-11 -7.02696e-11 -2.65046e-11 -1.6948e-11 -2.75243e-11 2.73997e-12 
9.27894e-12 7.30101e-12 4.97399e-12 3.50276e-12 -3.48724e-11 -2.98906e-12 2.1968e-11 5.51716e-11 2.31419e-11 
1.50399e-11 -3.3876e-11 -1.49453e-12 -3.77702e-11 -7.27628e-11 -3.31599e-11 1.49863e-12 -9.71445e-12 3.86087e-12 
-1.74687e-11 -5.033e-11 -2.03396e-11 7.80255e-12 -1.3949e-11 -4.98177e-13 -6.97119e-12 -3.41284e-11 -1.23299e-11 
-9.01761e-12 9.96354e-13 -3.48724e-12 -2.30239e-11 -3.03745e-11 -1.60195e-11 -1.08136e-11 3.86087e-12 -4.1411e-12 
-2.14769e-11 -5.74531e-11 -2.3679e-11 5.64803e-12 2.19509e-12 -4.12553e-13 -1.16039e-12 -1.10605e-11 -3.66627e-12 
-3.85727e-12 -8.96719e-12 -3.73633e-12 9.20349e-12 3.08842e-11 1.20263e-11 -7.50089e-12 -3.90434e-27 -4.98177e-13 
-1.01111e-11 -3.58878e-12 -4.10996e-12 -1.33779e-12 -6.4763e-12 -1.36999e-12 -6.68293e-13 -8.36117e-12 -2.70884e-12 
-3.06747e-12 -1.10844e-11 9.02946e-13 4.76943e-12 -2.12287e-12 7.9397e-13 -4.24775e-12 3.36269e-12 5.97812e-12 
-1.14314e-11 -1.46451e-11 -7.82294e-12 -4.1135e-12 -1.46339e-11 1.05863e-12 -7.26806e-12 2.83117e-12 -1.33107e-12 
-4.53994e-12 1.5568e-12 -1.05863e-12 1.10646e-11 1.09642e-11 6.60863e-12 -2.13041e-12 5.47995e-12 4.98177e-13 
1.88733e-13 2.69135e-12 8.64026e-13 5.18966e-12 -7.47265e-13 -2.49088e-12 -1.46167e-11 -1.95552e-11 -1.02515e-11 
-6.99689e-12 -2.6777e-12 -1.61908e-12 1.06138e-12 -6.27667e-12 -1.56459e-12 -6.11722e-12 -5.97812e-12 -9.96354e-13 
5.20665e-12 9.34945e-12 4.36683e-12 2.3126e-12 -7.47265e-13 -3.23815e-12 2.06561e-12 2.05992e-12 1.23766e-12 
1.06251e-12 4.16056e-12 -3.69741e-13 -3.10435e-12 -5.61375e-12 -2.61543e-12 1.53807e-12 -4.73268e-12 4.98177e-13 
2.1091e-13 -6.983e-12 -2.03163e-12 -5.51597e-12 1.49453e-12 -5.91585e-13 7.00928e-12 6.37923e-12 4.01655e-12 
2.94753e-12 3.48724e-12 -2.2418e-12 -3.35327e-12 1.32942e-12 -6.07153e-13 -7.52076e-13 -2.49089e-13 -2.49089e-13 
-4.95666e-12 -1.97112e-12 -2.07833e-12 -2.79041e-12 -1.86816e-12 3.73633e-13 -1.95e-12 2.10568e-12 4.67041e-14 
-2.04251e-12 -8.48458e-13 8.7181e-13 3.65892e-12 4.74782e-12 2.52202e-12 1.54915e-12 -5.52665e-13 7.47265e-13 
-1.31686e-12 -3.17784e-13 -4.90393e-13 1.92438e-12 -4.51473e-13 1.69692e-12 2.48345e-12 -4.59608e-13 6.07153e-13 
8.18727e-13 1.71248e-13 1.91487e-12 6.96826e-13 5.84175e-12 1.96157e-12 -9.91046e-16 1.86816e-12 6.22721e-13 
1.15741e-11 9.75414e-12 6.39846e-12 5.73647e-13 -7.47265e-13 -1.1209e-12 -8.08083e-13 -2.78076e-12 -1.07665e-12 
-1.13064e-13 -2.01565e-13 9.09501e-14 5.14952e-12 3.8994e-12 2.71468e-12 2.63183e-12 -2.40526e-12 7.47265e-13 
-7.39214e-12 -2.00854e-11 -8.24327e-12 -1.20939e-12 -1.99271e-12 -9.34082e-13 -2.54578e-11 -3.08206e-11 -1.68835e-11 
-4.12618e-12 3.0202e-12 1.24544e-12 -6.95912e-13 -2.9737e-12 -1.10088e-12 -9.8934e-13 5.30425e-13 -7.6061e-13 
9.51139e-12 4.83344e-12 4.30345e-12 -1.51525e-13 1.60128e-13 -1.22765e-12 1.01794e-11 8.43553e-12 5.58448e-12 
1.1744e-12 1.53456e-13 -1.4545e-12 -3.78283e-12 -6.54057e-13 -1.33107e-12 -6.12386e-13 -2.41548e-13 -6.90831e-13 
1.05208e-13 9.84555e-13 3.26929e-13 2.98397e-13 -4.43689e-13 -2.17952e-13 8.79306e-13 1.14454e-12 6.07153e-13 
-5.23603e-12 2.97739e-13 8.73756e-13 -1.63899e-12 -2.25302e-12 -1.1676e-12 -2.48055e-12 6.42181e-14 3.87255e-13 
-4.25048e-12 -8.74883e-12 -3.89979e-12 -2.53798e-12 -8.7181e-13 2.17952e-12 3.51075e-12 -1.09771e-12 7.23913e-13 
-8.45019e-13 -7.86186e-13 -1.13257e-12 5.33121e-12 5.17721e-12 3.15253e-12 -1.35869e-12 -1.43226e-12 -1.01192e-12 
1.1245e-11 1.72445e-11 8.54685e-12 1.59324e-12 2.06276e-12 -1.38555e-12 7.97617e-12 1.27293e-11 6.21164e-12 
-1.38634e-12 -3.11361e-12 -3.89201e-13 1.62881e-11 2.93263e-11 1.36843e-11 -3.36127e-12 -6.18829e-12 -4.45635e-13 
-1.25739e-12 5.9278e-12 1.40112e-12 6.20244e-13 -4.59257e-13 -9.7884e-13 -1.36798e-11 -2.6875e-11 -1.21664e-11 
-9.01778e-13 3.14474e-12 -2.30601e-12 5.28417e-12 -6.91881e-12 -4.90393e-13 4.69646e-12 2.98906e-12 -2.40915e-12 
-8.6258e-12 -2.66358e-11 -1.05785e-11 -1.89124e-12 8.21992e-12 -6.52884e-13 -9.17294e-12 -1.94722e-11 -8.59355e-12 
2.02732e-12 1.59417e-11 -1.20555e-12 1.65385e-11 2.60401e-11 1.27736e-11 1.29386e-12 -8.56242e-13 -8.73756e-13 
-1.73041e-11 -4.11539e-11 -1.75374e-11 -3.18829e-12 3.95428e-12 -1.34761e-12 -1.37949e-11 -2.66042e-11 -1.21197e-11 
-5.32514e-12 1.44471e-11 -5.19583e-13 1.74707e-11 2.93113e-11 1.40346e-11 1.04242e-12 8.96719e-12 -1.08587e-12 
4.62655e-12 5.33699e-12 2.98906e-12 -1.07302e-11 8.84264e-12 -1.16468e-12 1.17472e-12 1.00343e-11 3.36269e-12 
4.6182e-12 1.18317e-11 -1.946e-15 1.11792e-11 1.9412e-11 9.17735e-12 3.05667e-12 1.02126e-11 -2.56873e-12 
-1.49376e-12 1.09903e-11 2.84895e-12 -1.20356e-11 -3.73633e-12 -1.4128e-12 -8.87852e-12 -1.29946e-11 -6.56193e-12 
8.72703e-13 -2.73997e-12 8.95162e-14 1.66388e-11 2.61733e-11 1.28436e-11 1.71591e-11 -4.04769e-13 3.26929e-13 
1.46794e-11 3.36594e-11 1.45016e-11 8.14342e-12 -5.13745e-12 -1.84092e-12 -2.52129e-12 -2.77184e-12 -1.58794e-12 
-2.40808e-11 -3.48724e-12 -7.23913e-13 1.16501e-11 2.10428e-11 9.80786e-12 1.13894e-12 9.71445e-12 -2.49088e-12 
2.10378e-11 5.8904e-11 2.39826e-11 1.22806e-11 3.16342e-11 -4.98177e-13 -6.36167e-12 -8.27228e-12 -4.39018e-12 
-2.72995e-11 2.59052e-11 9.34082e-13 3.3154e-11 5.9865e-11 2.79057e-11 2.09404e-11 2.6777e-11 1.24544e-12 
5.62974e-11 1.29274e-10 5.56713e-11 2.06845e-11 2.07989e-11 -7.47265e-13 1.09538e-11 3.38043e-11 1.34274e-11 
-1.73304e-11 1.59417e-11 3.73633e-13 4.9423e-11 9.34137e-11 4.2851e-11 2.10873e-11 1.59417e-11 -1.07419e-12 
4.82116e-11 1.25761e-10 5.21918e-11 6.03511e-12 2.98906e-11 -9.34082e-14 -2.21222e-11 -4.58323e-11 -2.03863e-11 
-2.07109e-11 9.96354e-12 1.10533e-12 4.74912e-11 7.4173e-11 3.64992e-11 1.43086e-11 1.3949e-11 1.99271e-12 
1.83462e-13 3.00185e-11 9.06059e-12 3.23872e-12 3.98542e-12 3.98542e-12 -3.24333e-11 -6.74356e-11 -2.99607e-11 
-7.92807e-12 -9.96354e-12 1.61908e-12 2.29317e-11 4.91483e-11 2.1624e-11 -1.35566e-11 1.6938e-11 2.49089e-13 
3.66009e-11 7.3465e-11 3.30198e-11 1.61211e-11 3.68651e-11 4.2345e-12 3.16394e-11 7.69476e-11 3.25761e-11 
-1.63675e-11 3.03265e-11 2.35466e-12 4.0091e-11 7.14539e-11 3.34635e-11 1.26216e-11 4.42132e-12 -3.85309e-13 
-2.80464e-11 -4.83148e-11 -2.29084e-11 3.82765e-12 1.02126e-11 -1.56848e-12 -5.37359e-12 -5.4462e-12 -3.24593e-12 
-7.66421e-12 -2.39125e-11 -1.74362e-12 2.13702e-11 5.31228e-11 2.23479e-11 1.9722e-11 -2.90811e-11 5.60449e-13 
3.5873e-11 7.64504e-11 3.3697e-11 7.8112e-12 2.09234e-11 4.98177e-12 1.20317e-11 2.75111e-11 1.18628e-11 
-5.39932e-12 8.21992e-12 3.13307e-12 1.09002e-11 2.48285e-11 1.07186e-11 -5.40915e-12 5.97812e-12 2.73997e-12 
2.48786e-11 5.81768e-11 2.49166e-11 6.50971e-12 1.94289e-11 3.95428e-12 -6.3449e-12 -4.32393e-11 -1.48753e-11 
-9.18198e-12 7.97083e-12 2.49088e-12 -5.37765e-11 -1.05173e-10 -4.76849e-11 -3.74083e-11 5.13745e-11 2.42083e-12 
2.87198e-11 7.18496e-11 3.01708e-11 7.05368e-13 4.38396e-11 -4.2345e-12 2.5266e-11 6.55735e-11 2.72518e-11 
3.82696e-11 3.98542e-12 -7.47265e-13 3.29091e-11 7.48996e-11 3.23426e-11 2.29536e-11 -1.19562e-11 4.73268e-12 
1.54829e-11 5.50403e-11 2.1157e-11 -6.26677e-12 2.87074e-11 6.61641e-12 3.03238e-11 7.32036e-11 3.10582e-11 
-1.67754e-11 -8.46901e-12 7.96305e-12 2.94411e-11 5.21354e-11 2.44729e-11 -1.60279e-11 -4.28432e-11 7.72174e-12 
-2.02135e-11 -3.51308e-11 -1.66033e-11 -3.19618e-11 -1.51321e-11 7.22357e-12 -2.77906e-11 -4.99717e-11 -2.33287e-11 
4.16258e-12 2.87697e-11 1.0524e-11 3.96639e-11 9.00178e-11 3.89045e-11 7.95144e-12 4.94441e-11 -2.07055e-12 
5.21647e-11 1.15892e-10 5.04171e-11 1.78564e-11 2.39125e-11 -1.74362e-12 7.46282e-11 1.07206e-10 5.45504e-11 
-1.66677e-11 -1.12713e-11 6.46073e-13 -4.12716e-13 3.44848e-12 9.1073e-13 2.26805e-11 -2.70884e-11 -3.19145e-13 
-7.72899e-12 -1.01742e-11 -5.37097e-12 -8.45115e-12 -2.39125e-11 4.85723e-12 4.99942e-11 1.12692e-10 4.88058e-11 
-2.8331e-11 -2.98906e-11 1.13832e-25 1.22913e-10 2.42158e-10 1.09521e-10 3.93658e-11 -1.12713e-11 -8.07981e-12 
1.16136e-11 5.17483e-11 1.90086e-11 1.49538e-11 -2.06743e-11 -3.12917e-12 6.59377e-11 1.39093e-10 6.15093e-11 
-2.13431e-11 1.51944e-11 1.08976e-13 1.24142e-10 2.31509e-10 1.06695e-10 8.97212e-11 2.78979e-11 5.3554e-12 
1.74955e-10 3.57705e-10 1.59798e-10 3.51925e-11 -2.64034e-11 -6.78766e-12 4.63704e-11 1.76875e-10 6.69737e-11 
-1.70881e-11 -2.49088e-12 -3.67406e-12 1.20588e-11 -2.14775e-11 -2.8256e-12 1.41271e-11 -3.98542e-12 1.99271e-12 
-4.40788e-11 -9.36205e-11 -4.13098e-11 2.92569e-11 2.78979e-11 2.98906e-12 -4.49138e-11 -6.91998e-11 -3.42341e-11 
-2.44216e-11 8.91737e-11 6.22721e-12 9.03742e-11 1.39332e-10 6.89119e-11 5.53795e-11 3.56819e-11 4.12553e-13 
4.10709e-11 9.63949e-11 4.12397e-11 -2.21369e-11 2.22311e-11 -3.34713e-13 3.62581e-11 9.73935e-11 4.00955e-11 
1.35344e-11 5.97812e-11 9.96354e-12 5.86766e-11 1.37014e-10 5.8707e-11 1.08969e-11 8.76791e-11 1.29526e-11 
9.62064e-11 1.15052e-10 6.33775e-11 8.07075e-11 7.22357e-11 1.67512e-11 -5.893e-11 -1.42209e-10 -6.03417e-11 
-7.35273e-11 2.04253e-11 4.2345e-12 -1.15656e-10 -2.42954e-10 -1.07583e-10 -9.03813e-12 4.38396e-11 1.73739e-11 
-1.03831e-10 -2.54078e-10 -1.07373e-10 -2.93783e-11 -6.12758e-11 8.46901e-12 -1.17511e-10 -2.07083e-10 -9.7378e-11 
-4.95238e-11 -2.14216e-11 -4.98177e-13 -2.4742e-11 -4.92061e-11 -2.21844e-11 3.84409e-11 -7.97083e-12 6.97448e-12 
-1.06652e-10 -2.04164e-10 -9.32447e-11 -4.44849e-11 3.0887e-11 1.18317e-11 5.94582e-12 4.70126e-11 1.58875e-11 
-2.15728e-11 5.45829e-11 8.80474e-12 8.41081e-11 2.73412e-10 1.07256e-10 -1.6948e-11 1.04617e-11 -1.00881e-11 
-8.95448e-11 -2.21936e-10 -9.34441e-11 -1.20868e-11 4.23067e-11 -1.83942e-12 6.22957e-12 2.30666e-11 8.78886e-12 
5.88125e-12 -4.34773e-12 2.71733e-13 -6.57885e-12 -9.48735e-12 -4.81986e-12 3.59534e-12 -2.49089e-13 -4.98177e-13 
-2.60828e-11 3.92222e-11 3.94183e-12 -7.45658e-11 -2.8695e-11 -2.19198e-11 -7.39434e-11 -8.34219e-11 -4.72096e-11 
-2.09978e-11 -3.51654e-11 -1.12529e-11 2.98795e-12 9.42984e-12 3.72534e-12 -1.20158e-12 2.72532e-12 4.1759e-13 
-3.17645e-11 -1.0803e-11 -1.27702e-11 1.81419e-11 -6.83214e-12 -9.39419e-12 5.48978e-11 1.08567e-10 4.90393e-11 
-1.85979e-11 -6.12758e-11 -9.71445e-12 7.28352e-12 4.4444e-12 3.51838e-12 5.0568e-12 2.32483e-12 -2.32483e-12 
1.9302e-12 1.31319e-11 4.51862e-12 -4.46447e-12 2.61543e-12 -9.34082e-13 -5.42619e-11 -5.21197e-11 -3.19145e-11 
1.44821e-11 -1.85986e-11 -3.15512e-12 -1.30453e-10 -3.19697e-10 -1.35045e-10 -2.52035e-11 -4.57077e-11 -7.48822e-12 
-1.47424e-11 -1.32656e-10 -4.42194e-11 7.50578e-13 -1.79344e-12 -7.0243e-12 2.12491e-11 8.17334e-11 3.08948e-11 
2.62476e-11 4.84477e-11 4.10996e-12 -7.81629e-11 -1.90593e-10 -8.06268e-11 6.33822e-12 4.64965e-11 -2.49088e-12 
-1.23649e-10 -2.83611e-10 -1.22178e-10 -1.05178e-11 5.77885e-11 2.98906e-12 6.46443e-11 1.05008e-10 5.08958e-11 
5.78639e-11 -2.98906e-11 -1.30771e-12 -1.63733e-10 -3.38709e-10 -1.50733e-10 -9.05003e-11 3.34775e-11 1.19562e-12 
8.07892e-11 2.04962e-10 8.57254e-11 3.07231e-12 3.58687e-11 -7.47265e-13 -1.63026e-10 -3.27834e-10 -1.47258e-10 
-4.75935e-11 1.3949e-11 -4.98177e-12 -8.26506e-11 -2.35171e-10 -9.53464e-11 1.32065e-11 -4.10996e-11 8.40674e-13 
-1.30786e-10 -2.94377e-10 -1.27549e-10 -4.20841e-11 5.97812e-12 -2.49088e-12 1.86685e-11 3.36401e-11 1.56926e-11 
-1.24274e-11 2.59052e-11 -4.98177e-12 1.96505e-12 9.5553e-12 3.4561e-12 -1.04153e-11 -1.99271e-11 -1.32017e-11 
-3.6318e-11 -1.24461e-10 -4.82337e-11 1.67494e-11 -5.52976e-11 -1.68135e-12 -4.12557e-11 -1.72338e-10 -6.4078e-11 
4.276e-11 -2.78979e-11 -4.48359e-12 -8.63758e-11 -1.89412e-10 -8.27363e-11 -3.68632e-11 -5.57958e-11 -5.23086e-12 
-7.45144e-11 -1.9022e-10 -7.94203e-11 -1.66358e-11 -7.57229e-11 -3.48724e-12 -9.86122e-11 -1.83013e-10 -8.44877e-11 
6.37993e-11 -7.37302e-11 -1.74362e-11 7.64959e-11 1.40678e-10 6.51522e-11 -4.70229e-11 -5.57958e-11 4.2345e-12 
8.5099e-11 1.95593e-10 8.42075e-11 3.83405e-12 -1.19562e-11 -7.84629e-12 8.41332e-11 3.08368e-10 1.1775e-10 
-1.05328e-11 -1.43475e-11 -4.7825e-12 8.59135e-12 -3.15347e-11 -6.88302e-12 -5.53262e-12 -6.42648e-11 5.60449e-13 
1.08594e-10 2.29076e-10 1.01301e-10 1.6836e-11 3.53706e-11 -3.36269e-12 1.68074e-11 1.33891e-10 4.52096e-11 
-9.20571e-11 -2.19198e-11 1.24544e-12 1.45338e-10 3.11895e-10 1.3717e-10 1.71154e-11 9.96354e-13 -2.49089e-13 
-1.16167e-10 -1.91847e-10 -9.2404e-11 -2.95928e-11 -7.47266e-11 -7.09902e-12 9.342e-11 2.55148e-10 1.0457e-10 
1.58389e-11 4.48359e-11 5.97812e-12 -5.10103e-11 -1.12162e-10 -4.89517e-11 4.21438e-12 -4.03523e-11 1.30771e-12 
3.92457e-11 6.05676e-11 2.9944e-11 3.81445e-11 3.49347e-11 1.77142e-12 2.29751e-11 6.63465e-11 2.67965e-11 
3.71059e-11 2.39125e-11 -3.54951e-12 3.80484e-11 4.32167e-11 2.43795e-11 -2.31464e-11 3.34775e-11 1.01628e-11 
-7.81535e-11 -1.27267e-10 -6.16261e-11 2.66792e-11 -3.88578e-11 -6.35176e-12 -3.06256e-11 -1.28092e-11 -1.30304e-11 
4.64512e-12 -7.97083e-12 -6.97448e-12 1.51393e-11 1.1015e-11 7.84629e-12 3.41878e-11 2.76488e-11 1.00881e-11 
-3.42989e-11 -6.65041e-11 -3.02409e-11 3.76442e-11 -3.75812e-11 -9.3992e-12 1.47869e-11 -3.0822e-11 -4.81052e-12 
4.85321e-12 8.83188e-26 -7.47265e-13 -5.98245e-11 -1.01038e-10 -4.82587e-11 -2.78315e-11 -9.8212e-12 -5.87137e-12 
8.57283e-12 -1.05344e-11 -5.88472e-13 5.0575e-11 -7.17375e-12 -9.26609e-12 -4.18604e-11 -1.3219e-10 -5.22152e-11 
-1.95054e-11 7.97083e-12 -9.96354e-13 7.37198e-11 1.88368e-10 7.86263e-11 4.1469e-11 -5.57958e-11 -1.05863e-12 
-1.05082e-12 2.10144e-13 -2.52202e-13 5.22769e-11 -4.7825e-11 -1.13584e-11 3.63082e-11 1.04605e-10 4.22739e-11 
-1.5135e-11 6.83214e-12 2.98906e-12 7.53804e-11 1.55805e-10 6.93556e-11 -4.71633e-12 -4.58323e-11 1.46962e-11 
1.04172e-10 2.28761e-10 9.988e-11 2.95671e-11 -1.70804e-11 -3.20257e-12 8.61294e-11 1.48559e-10 7.04064e-11 
1.4022e-11 1.59417e-11 3.98542e-12 7.87069e-11 2.28206e-10 9.20738e-11 -5.13108e-11 -1.15292e-11 1.76141e-12 
-8.69591e-11 -2.04474e-10 -8.74301e-11 -7.09305e-12 1.36643e-11 8.54018e-13 -1.32031e-11 -4.45098e-11 -1.73139e-11 
2.05185e-11 -3.24527e-11 -8.54018e-13 -3.52942e-11 -4.75278e-11 -2.48466e-11 -4.28916e-11 -2.39125e-11 -1.54435e-11 
-1.24209e-11 5.33649e-11 1.22832e-11 4.88828e-11 -2.39125e-11 2.42861e-12 -2.17651e-11 -1.00133e-10 -3.65693e-11 
2.10756e-11 6.40513e-12 1.00347e-11 -5.85487e-11 -1.02047e-10 -4.81786e-11 4.03613e-11 -4.27009e-11 -3.41607e-12 
1.78473e-11 3.7824e-11 1.67014e-11 -9.58424e-12 2.15212e-11 -2.39125e-12 -4.77811e-11 -7.35828e-11 -3.64092e-11 
-2.85802e-11 1.70804e-12 -1.65466e-12 -8.95057e-11 -1.82604e-10 -8.16329e-11 2.54944e-11 8.21992e-12 -3.17588e-12 
-1.73336e-11 -4.87193e-11 -1.98159e-11 -5.20308e-11 5.0387e-11 -8.54018e-13 -6.67764e-11 -1.20196e-10 -5.60916e-11 
-5.1192e-11 3.83596e-11 -8.96719e-12 -7.66225e-11 -1.7171e-10 -7.44997e-11 2.07051e-11 2.17775e-11 1.44115e-12 
-1.03411e-11 -2.49672e-11 -1.05925e-11 8.14906e-11 2.39125e-12 -5.97812e-13 -5.70368e-11 -1.20305e-10 -5.32026e-11 
-7.80026e-11 1.62263e-11 -5.01735e-12 4.52072e-11 9.07795e-11 4.0796e-11 -7.15001e-11 2.98906e-12 -3.86087e-12 
-5.41256e-11 -1.49971e-10 -6.12291e-11 1.46004e-12 4.88213e-11 6.22721e-13 7.82502e-11 1.55582e-10 7.01495e-11 
-1.89768e-11 -5.03159e-11 -1.86816e-12 3.4712e-11 1.15597e-10 4.50928e-11 4.01944e-11 -3.28797e-11 -1.61908e-12 
5.33996e-11 8.50002e-11 4.15199e-11 5.496e-11 -1.59417e-11 6.4763e-12 -6.07117e-11 -1.11226e-10 -5.15813e-11 
1.66276e-11 -3.07446e-11 6.40513e-13 7.86975e-11 2.07443e-10 8.58421e-11 -1.40888e-11 -3.98542e-11 -6.4763e-12 
4.69141e-11 7.44498e-11 3.64092e-11 -1.16208e-11 -1.32373e-11 1.01415e-12 6.91599e-11 6.41803e-11 4.00021e-11 
6.19388e-11 -9.96354e-12 -3.98542e-12 3.48264e-13 -2.48346e-11 -7.34589e-12 -2.43153e-11 -3.24527e-11 -2.66881e-12 
1.84989e-11 4.93777e-11 2.0363e-11 -1.68083e-11 1.99271e-11 3.73633e-12 1.82619e-11 1.69664e-11 1.05685e-11 
4.34365e-11 -1.40913e-11 1.60128e-12 -5.0089e-11 -9.16112e-11 -4.25101e-11 -1.14633e-11 -1.43475e-11 -3.58687e-12 
5.61427e-11 1.8385e-10 7.19977e-11 -6.47886e-12 4.6971e-12 -2.34855e-12 1.63755e-11 1.49941e-11 9.41087e-12 
3.33419e-12 1.29526e-11 -2.49089e-13 -1.84231e-11 -3.43525e-11 -1.58327e-11 1.28245e-11 3.62958e-12 3.20257e-12 
5.8548e-11 1.16904e-10 5.26355e-11 1.96331e-12 -1.79344e-11 -6.59698e-27 -3.41092e-11 -3.98167e-11 -2.21778e-11 
-1.71896e-11 -7.68616e-12 3.20257e-13 4.69187e-11 1.06349e-10 4.59802e-11 -1.32997e-11 8.21992e-12 5.16859e-12 
1.80419e-12 -3.58982e-11 -1.02282e-11 -2.22148e-11 1.62263e-11 -2.56205e-12 -3.75295e-11 -5.87588e-11 -2.88865e-11 
-4.94223e-12 -1.3949e-11 -4.98177e-12 -3.98257e-11 -8.77543e-11 -3.8274e-11 2.27022e-11 2.34143e-11 1.1209e-12 
-1.50276e-12 -2.61194e-11 -8.28664e-12 1.28205e-12 2.44463e-11 5.87137e-13 -6.00676e-12 -2.31249e-11 -8.7395e-12 
-3.71238e-12 1.49453e-12 1.77476e-12 -1.66879e-11 -4.36887e-13 -5.13745e-12 1.48156e-11 -6.97448e-12 -6.72539e-12 
3.08281e-11 6.48569e-11 2.87055e-11 1.44978e-13 5.97812e-12 -2.14839e-12 3.68375e-11 8.00005e-11 3.50514e-11 
-1.50526e-11 9.96354e-12 -2.2418e-12 -1.79963e-12 4.41447e-11 1.27035e-11 1.07035e-11 -5.97812e-12 -1.86816e-12 
-9.53151e-12 1.65371e-11 2.10168e-12 1.48003e-12 6.83214e-12 1.06752e-12 3.31663e-11 5.84516e-11 2.74854e-11 
1.20613e-11 2.39125e-11 8.09538e-13 1.65398e-11 2.48267e-11 1.24099e-11 2.31239e-11 -1.7454e-11 -5.41767e-12 
-3.08145e-11 -8.47782e-11 -3.46778e-11 1.26462e-11 -1.00881e-11 -9.80786e-13 1.75022e-11 -2.45078e-11 -2.10168e-12 
6.15441e-12 2.09982e-11 4.0726e-12 -8.12699e-12 -1.42131e-11 -6.70204e-12 1.0848e-11 3.98542e-12 -1.1209e-12 
7.85965e-12 4.25808e-11 1.51321e-11 4.19862e-13 4.15437e-27 5.55112e-12 -1.77902e-11 -3.3993e-11 -1.55349e-11 
2.66845e-11 -4.10996e-12 3.36269e-12 8.06541e-12 3.14357e-12 3.36269e-12 -2.07955e-11 -3.41607e-12 6.40513e-13 
4.54862e-11 9.12012e-11 4.10062e-11 6.41089e-12 1.09599e-11 -2.80225e-13 -7.49266e-12 1.53545e-11 2.35856e-12 
8.33449e-12 1.49453e-11 -2.11725e-12 -7.71676e-12 -2.76449e-11 -1.06085e-11 -1.11334e-11 1.70804e-12 -4.40353e-13 
-5.26032e-12 3.87005e-11 1.0032e-11 1.97511e-11 2.5407e-12 -1.63464e-13 -2.01325e-11 -4.40523e-11 -1.92554e-11 
1.71942e-11 -4.27009e-12 -2.08167e-12 1.90448e-11 5.86841e-11 2.33187e-11 -1.98838e-11 1.70804e-12 -9.6077e-13 
1.49468e-11 3.81624e-11 1.59328e-11 -1.78603e-11 5.97812e-12 4.27009e-13 1.85803e-11 2.81238e-11 1.40112e-11 
3.19799e-11 2.17775e-11 -3.73633e-12 3.16173e-11 5.35844e-11 2.55605e-11 -2.1676e-11 -1.49453e-11 -3.56286e-12 
7.52018e-11 1.44868e-10 6.60209e-11 2.79937e-11 8.4441e-12 -3.13852e-12 -3.90689e-12 -1.23056e-12 -1.54124e-12 
7.62696e-12 -4.27009e-12 -2.13504e-12 3.77514e-11 6.05941e-11 2.95036e-11 -2.0165e-11 -2.56205e-12 -5.33761e-13 
-7.21859e-12 -2.35477e-11 -9.2299e-12 -1.18062e-11 2.61543e-12 -2.37023e-12 1.15381e-11 8.89535e-11 3.01475e-11 
-2.058e-11 -1.02126e-11 -1.24544e-12 2.16784e-11 3.50671e-11 1.70236e-11 1.93038e-11 -8.96719e-12 -3.61178e-12 
-2.53988e-12 -2.62363e-13 -8.40674e-13 2.53998e-11 -6.4763e-12 -2.49088e-12 2.51513e-11 3.77241e-11 1.88626e-11 
-3.88259e-12 -1.89152e-12 -1.75286e-12 -8.53754e-12 1.70777e-11 2.56205e-12 2.67734e-11 -1.66533e-11 -2.02829e-12 
-2.47553e-11 -6.43717e-11 -2.67381e-11 3.7655e-11 3.98542e-12 -2.11725e-12 1.41176e-11 3.67121e-11 1.52489e-11 
-1.36203e-12 -3.73633e-12 -3.11361e-13 2.2889e-11 4.0862e-11 1.91253e-11 7.27059e-12 -1.49453e-12 -1.85065e-12 
-2.33125e-11 -5.84196e-11 -2.45196e-11 -1.79862e-11 -1.94289e-11 3.48724e-12 8.31768e-12 1.7136e-11 7.63612e-12 
-3.16378e-12 6.97448e-12 -1.38555e-12 1.22366e-11 3.61489e-11 1.45156e-11 2.27001e-11 -1.25541e-11 -7.27014e-27 
1.1129e-11 2.03184e-11 9.43423e-12 1.79124e-11 3.48724e-12 -2.77111e-12 1.22155e-11 3.3648e-11 1.3759e-11 
6.65342e-13 9.565e-12 -1.19562e-12 -1.11143e-11 -2.57152e-11 -1.10489e-11 -9.83877e-12 2.88231e-12 1.45116e-13 
2.06433e-11 4.2474e-11 1.89352e-11 -1.6927e-11 7.20577e-13 4.31679e-12 -9.05193e-12 -2.95123e-11 -1.15693e-11 
-2.02536e-12 5.33761e-13 -3.08581e-13 1.1894e-11 1.34597e-11 7.6061e-12 9.25766e-12 1.49453e-11 -1.28103e-12 
-1.10877e-11 -2.1216e-11 -9.6911e-12 8.10427e-12 4.73268e-12 3.50281e-14 2.73131e-11 3.05999e-11 1.73739e-11 
2.06391e-12 7.62211e-12 -1.1209e-13 -2.30956e-12 -1.18351e-11 -4.2434e-12 4.65626e-12 1.49453e-12 -5.73793e-13 
2.21992e-11 4.2853e-11 1.95156e-11 4.07995e-13 7.01896e-12 -1.10755e-12 -7.42455e-12 -2.64026e-11 -1.01481e-11 
-1.17791e-11 -5.97812e-12 -2.06666e-12 6.82959e-13 -1.18919e-11 -3.36269e-12 -1.55287e-12 1.3949e-11 -1.15203e-12 
1.86393e-11 3.98186e-11 1.75374e-11 9.60304e-12 4.98177e-13 -3.46778e-12 7.8774e-12 5.66679e-12 4.06326e-12 
3.71927e-12 1.66889e-11 -8.09538e-13 1.561e-11 4.40545e-11 1.78993e-11 -1.36422e-12 7.09902e-12 -9.92462e-13 
-1.78329e-12 3.26226e-12 4.43689e-13 -1.08505e-11 -3.86087e-12 -2.77111e-12 9.6677e-13 3.58688e-12 1.36609e-12 
-1.60592e-12 -1.68135e-12 -7.23913e-13 -2.61729e-11 -3.39819e-11 -1.80465e-11 -3.60707e-12 -7.80892e-12 -2.44729e-12 
-2.9983e-12 -1.27254e-11 -4.71711e-12 6.70082e-12 -3.98542e-12 -9.34082e-13 1.13084e-11 5.10478e-12 4.92395e-12 
-8.23045e-12 8.96719e-12 2.72218e-12 -4.87745e-13 -9.865e-12 -3.10582e-12 7.98871e-12 -1.22053e-11 -7.16129e-13 
-3.46964e-12 -2.14837e-11 -7.486e-12 3.01936e-12 -1.01415e-12 -1.06752e-12 1.40598e-11 9.83713e-12 7.16908e-12 
1.87394e-12 -1.63464e-12 -6.62614e-13 -3.13255e-11 -6.28611e-11 -2.8256e-11 7.58944e-13 -1.05863e-12 -6.14937e-13 
-1.08743e-11 -1.6481e-11 -8.20658e-12 5.92748e-12 1.70804e-12 -9.6077e-13 1.47689e-11 2.39176e-11 1.1606e-11 
3.48046e-12 -8.29776e-12 4.75993e-12 9.7357e-12 1.32827e-11 6.90553e-12 7.43104e-12 3.46197e-27 -6.40513e-13 
1.3451e-11 2.28225e-11 1.08821e-11 2.16113e-13 -3.48724e-12 3.76746e-12 -9.72487e-12 -1.91538e-11 -8.66361e-12 
-1.53544e-12 1.10533e-12 -2.26709e-13 2.60254e-12 -6.80591e-12 -1.26101e-12 1.00842e-12 -3.58687e-12 -1.4198e-12 
5.37328e-12 1.70447e-11 6.72539e-12 6.5257e-12 -5.87137e-13 -7.40593e-13 8.06394e-12 1.33265e-11 6.41714e-12 
-3.31422e-12 -5.60449e-12 -2.69016e-12 -4.76886e-12 -1.38461e-11 -5.58448e-12 -6.82802e-12 -3.30932e-12 -2.72218e-12 
3.05977e-12 -5.52842e-12 -7.40593e-13 3.8073e-12 -4.57033e-12 -4.21671e-12 -8.21984e-12 -1.65333e-11 -7.42595e-12 
-9.28047e-12 -4.05658e-12 -4.05658e-12 -1.95293e-13 1.79658e-12 4.80385e-13 3.0856e-12 2.64212e-12 -2.42861e-12 
-3.28268e-12 -1.18961e-11 -4.55365e-12 -2.47859e-12 -9.96354e-13 -2.49088e-12 -3.19319e-12 -3.65675e-12 -2.05498e-12 
-2.72055e-12 -1.5568e-12 2.36634e-12 7.32383e-12 1.0824e-11 5.44436e-12 -2.56757e-12 1.3344e-14 -1.90152e-12 
5.15115e-12 6.80509e-12 3.58687e-12 -3.49629e-12 -1.25167e-12 1.68135e-12 2.11145e-11 2.23203e-11 1.30304e-11 
-4.43334e-12 -5.33761e-13 -1.60128e-12 5.79561e-12 4.09362e-13 1.86149e-12 -6.04023e-13 7.73954e-13 -2.13504e-13 
-8.69168e-12 1.68606e-12 -2.10168e-12 3.3288e-12 6.40513e-13 -1.28103e-12 7.32094e-12 4.16827e-12 3.44676e-12 
-2.25112e-13 2.3352e-15 -1.49453e-13 5.92774e-12 4.54732e-12 3.14252e-12 -1.70824e-12 -2.59648e-28 -1.06752e-13 
8.58407e-12 7.91804e-12 4.95063e-12 -7.7394e-13 -2.54927e-13 3.42497e-13 9.34607e-12 5.19892e-12 4.3635e-12 
-1.97569e-12 1.38778e-12 -3.62958e-12 -8.17449e-12 -2.36729e-12 -3.16253e-12 1.04265e-12 -6.67201e-13 9.87458e-13 
-1.23441e-12 8.45207e-13 -1.1676e-13 -1.6636e-13 -3.23037e-13 -9.96354e-13 5.4386e-12 1.01294e-11 4.67041e-12 
-4.74687e-12 1.38555e-12 -6.22721e-13 8.8843e-12 8.94109e-12 5.34762e-12 -1.19234e-12 1.93044e-12 -3.61178e-12 
-6.34386e-14 -3.93977e-12 -1.20096e-12 4.33757e-13 -6.00481e-14 -1.82146e-12 2.68426e-12 1.51911e-12 1.26101e-12 
-3.20254e-13 -6.23833e-13 -3.52282e-12 -1.61514e-13 -2.71857e-12 -8.64026e-13 2.12711e-13 7.47265e-13 4.35905e-13 
-2.26125e-12 2.15746e-12 -3.11361e-14 5.09792e-13 -4.98177e-13 -1.90968e-12 8.93047e-12 1.26468e-11 6.47319e-12 
9.21874e-12 3.92314e-12 -2.31185e-12 1.47718e-11 2.21245e-11 1.10689e-11 -3.57074e-12 2.18777e-27 -4.98177e-13 
1.49606e-11 3.5135e-12 5.54222e-12 -6.97282e-12 -6.31024e-12 -8.30295e-14 3.07995e-11 3.48018e-11 1.96804e-11 
2.90335e-11 5.97812e-12 -7.12776e-12 3.8481e-13 -5.55819e-12 -1.55201e-12 -9.4967e-13 -3.67885e-12 -3.67885e-12 
-8.15333e-12 -1.07968e-10 -3.48363e-11 -1.94266e-11 -6.48155e-11 8.02327e-12 -1.15857e-11 -1.742e-11 -8.70171e-12 
-2.95706e-12 -5.62416e-12 2.43845e-12 -2.92825e-12 2.26539e-11 5.91768e-12 7.20265e-11 -4.92316e-11 -4.21985e-12 
8.9106e-11 7.78791e-11 5.00955e-11 1.1977e-12 4.82848e-11 8.16244e-12 9.32744e-11 1.91994e-10 8.55806e-11 
1.61166e-11 -7.97083e-12 2.39125e-12 1.52447e-10 3.75076e-10 1.58257e-10 4.72991e-11 3.58687e-11 -5.47995e-12 
3.85498e-11 8.62836e-11 3.745e-11 9.39554e-12 6.31973e-11 -7.68616e-12 -8.80598e-11 -1.57434e-10 -7.36481e-11 
-7.15701e-12 3.91295e-11 5.97812e-12 -1.39743e-11 -1.56714e-10 -5.12064e-11 -2.3616e-11 2.39125e-11 -4.7825e-12 
5.48351e-11 1.20942e-10 5.27332e-11 -1.42958e-11 -2.60864e-11 3.26079e-12 -9.61763e-11 -2.57586e-10 -1.06129e-10 
-1.993e-11 3.04341e-11 -8.69545e-12 5.96867e-11 1.05646e-10 4.95997e-11 -2.62617e-11 6.52159e-12 1.05976e-11 
-5.39758e-11 -1.30548e-10 -5.53571e-11 6.9808e-12 5.21727e-11 1.08693e-11 -2.64456e-11 -5.47346e-11 -2.43541e-11 
6.96767e-11 -7.39113e-11 -1.97542e-25 3.29569e-11 3.50613e-11 2.04054e-11 3.01182e-11 -5.43466e-11 -1.9293e-11 
1.00366e-10 2.23336e-10 9.71105e-11 2.11434e-12 8.69545e-12 1.09272e-25 9.75184e-11 1.71667e-10 8.07556e-11 
-2.42758e-11 -2.17386e-12 1.08693e-12 -1.3276e-10 -3.20949e-10 -1.36113e-10 -1.90723e-11 -4.56511e-11 -3.53253e-12 
4.28535e-11 8.74934e-11 3.91041e-11 8.39975e-12 -3.47818e-11 3.80426e-12 1.49582e-12 3.56127e-11 1.11326e-11 
-1.72839e-11 -6.08682e-11 -9.23892e-12 4.31805e-11 3.81696e-11 2.4405e-11 8.63603e-11 2.1399e-11 2.32671e-12 
1.93793e-11 4.66009e-11 1.9794e-11 -3.68084e-11 5.65204e-11 4.07599e-12 -1.78449e-11 9.98743e-11 2.46088e-11 
-8.63387e-11 -5.97812e-12 -6.11399e-12 1.25876e-11 -5.60583e-11 -1.30412e-11 2.44103e-11 -2.11534e-11 -1.40256e-11 
-7.20268e-11 -1.4001e-10 -6.3611e-11 -3.39098e-11 2.60864e-11 1.19562e-11 1.56055e-13 -3.90282e-11 -1.16617e-11 
-3.37956e-11 -4.00074e-11 9.77193e-13 -3.58363e-11 -6.85262e-11 -3.13087e-11 -1.1909e-11 4.34773e-12 1.08693e-12 
3.06685e-11 7.6679e-11 3.22043e-11 5.62732e-12 -4.23067e-11 -2.47172e-12 -5.42205e-12 -4.781e-12 -3.06091e-12 
-1.28966e-11 -2.29928e-11 1.95439e-12 -8.02703e-11 -1.82782e-10 -7.89155e-11 7.48577e-11 -3.67885e-11 -2.75913e-12 
1.10226e-11 4.35134e-11 1.63608e-11 -3.55781e-11 -9.19711e-12 -3.79381e-12 2.74251e-11 2.47137e-11 1.56416e-11 
4.0351e-11 2.55429e-11 -3.94013e-12 -1.968e-11 -8.11159e-11 -3.02388e-11 6.08616e-12 7.39113e-11 -2.4456e-12 
1.71748e-11 2.37811e-11 1.22868e-11 9.00011e-12 -4.69053e-11 2.32802e-12 -4.14268e-11 -1.20169e-10 -4.84788e-11 
1.34159e-11 -3.04341e-11 -1.41301e-11 -1.68091e-11 -4.48403e-11 -1.84948e-11 -3.18335e-11 3.86279e-11 -8.62229e-13 
2.42786e-12 2.43208e-11 8.02461e-12 3.39486e-11 3.26079e-11 3.80426e-12 3.13601e-12 -2.43325e-11 -6.35894e-12 
3.77286e-11 8.04748e-12 6.89784e-13 2.53094e-11 6.10968e-12 9.42574e-12 -2.14914e-13 3.91295e-11 -8.15199e-13 
1.90672e-11 2.5429e-11 1.33489e-11 -8.68169e-12 1.04617e-11 4.75533e-13 4.20383e-11 9.8074e-11 4.20337e-11 
-1.19381e-11 3.26079e-12 -4.07599e-13 -1.37895e-11 -3.84342e-11 -1.56671e-11 -3.26381e-11 -1.08693e-11 -3.39666e-13 
5.23139e-11 5.6634e-11 3.26844e-11 -2.70704e-11 1.03259e-11 1.76626e-12 -7.64768e-12 3.02355e-11 6.77634e-12 
-2.3112e-11 1.3179e-11 5.28605e-12 -1.93105e-11 -2.95165e-11 -1.46481e-11 -6.99019e-12 -7.60852e-12 -1.08693e-12 
1.48042e-11 1.50864e-11 8.96719e-12 -3.66569e-12 -1.55567e-11 -2.2418e-12 -8.99136e-12 8.00179e-13 -2.45735e-12 
6.2749e-12 -7.35769e-12 2.52921e-12 3.64668e-11 9.34555e-11 3.89767e-11 -2.57409e-11 2.27576e-12 -4.85723e-12 
1.75361e-11 6.24553e-11 2.39974e-11 -2.09763e-11 -1.14128e-11 -8.83132e-13 4.39763e-11 6.02163e-11 3.12578e-11 
-4.17917e-11 -7.06506e-12 2.4456e-12 -2.64908e-11 -3.92346e-11 -1.97176e-11 -1.105e-11 1.00202e-11 -1.36503e-12 
-2.41977e-11 -5.50294e-11 -2.37681e-11 -1.64332e-11 -1.08693e-12 1.76626e-12 1.06179e-12 2.91685e-11 9.06909e-12 
-2.78667e-11 -2.4456e-11 -8.91624e-13 1.07816e-11 2.64119e-11 1.1158e-11 1.04629e-11 -6.69142e-12 1.95308e-13 
-1.53468e-11 -4.0267e-11 -1.66841e-11 1.16822e-11 4.08122e-12 -2.46274e-12 -1.3097e-11 -4.1411e-12 -5.17142e-12 
-1.36838e-11 3.46459e-12 -9.34082e-13 5.63737e-12 6.13793e-13 1.87535e-12 -4.67323e-12 -1.12665e-11 -1.02749e-12 
1.58771e-11 3.02326e-11 1.38329e-11 8.04709e-12 1.24997e-11 -2.40738e-12 -2.59597e-11 -1.62438e-11 -1.26611e-11 
-1.5708e-11 -1.3247e-12 -6.11399e-13 2.27857e-12 1.36857e-11 4.78929e-12 2.14323e-12 -1.6304e-12 -6.45366e-13 
-3.83356e-12 -4.48826e-12 -2.49655e-12 -5.7245e-12 9.64652e-12 2.31822e-12 -4.17256e-13 3.45403e-13 -2.15557e-14 
6.37548e-12 9.19711e-13 -1.55201e-12 3.25686e-11 2.53444e-11 1.73739e-11 -5.62055e-12 2.98906e-12 3.39666e-13 
-7.33045e-12 -2.83802e-11 -1.07132e-11 -5.08071e-12 5.28834e-12 -1.58075e-12 8.64887e-12 1.50428e-11 7.10751e-12 
1.58882e-12 3.09945e-12 -3.11644e-12 2.42699e-12 -2.35514e-12 2.15557e-14 -5.09402e-12 3.39144e-12 -7.11339e-13 
2.9222e-12 -2.66745e-12 7.64249e-14 4.63505e-12 6.70841e-13 1.40961e-12 -3.91499e-12 -2.55173e-12 -1.94002e-12 
2.89279e-12 3.33395e-12 -5.34582e-12 1.16739e-11 4.54516e-12 4.86572e-12 1.33335e-12 7.89724e-13 -9.85032e-13 
9.17418e-13 -3.42598e-13 1.72446e-13 6.35887e-13 -5.17338e-13 -4.59856e-12 -4.24741e-12 6.80916e-13 -1.06995e-12 
-2.80202e-13 3.14191e-13 -1.02749e-12 1.6198e-12 1.68541e-12 9.91564e-13 -1.08597e-12 -4.07763e-13 -3.67885e-12 
3.22122e-12 -5.44865e-12 -6.68228e-13 1.51738e-12 -1.32209e-12 1.29334e-12 -7.29064e-13 -1.35369e-11 -4.27979e-12 
2.31552e-12 -2.3023e-12 2.26621e-13 7.78215e-12 4.52575e-12 3.69237e-12 -9.59498e-13 -1.23903e-12 -1.26101e-12 
-8.02444e-11 -1.10452e-10 -5.72089e-11 -1.56315e-11 5.51827e-12 -1.74745e-11 -1.99661e-12 -6.47685e-12 -2.54204e-12 
-3.52367e-12 -7.47265e-13 -8.40674e-13 2.1256e-12 -8.08935e-12 -1.78913e-12 3.91937e-12 -2.41424e-12 5.02967e-13 
1.70841e-11 7.69246e-11 2.82026e-11 -4.92803e-11 -2.13504e-11 -6.40513e-13 -1.6041e-11 -4.98896e-11 -1.97792e-11 
-1.10203e-10 3.0887e-11 -7.22357e-12 1.00262e-11 2.54022e-11 1.06285e-11 -2.60575e-12 2.77556e-12 -1.93488e-13 
2.70289e-11 1.95974e-11 1.39879e-11 1.32859e-12 1.36999e-12 -1.1676e-12 -5.44684e-11 -9.72531e-11 -4.55165e-11 
-5.10374e-12 -7.55806e-11 -7.47266e-12 1.34537e-11 2.82686e-11 1.25167e-11 3.43089e-12 -5.54222e-12 7.66726e-13 
2.17895e-11 2.56485e-11 1.42314e-11 6.95732e-13 5.33761e-12 2.56205e-12 9.41851e-12 -1.02859e-11 -2.60209e-13 
-1.6527e-11 -1.70804e-11 -7.89966e-12 1.17451e-10 1.68845e-10 8.58888e-11 8.95235e-11 -5.92831e-11 -4.35905e-12 
7.9616e-11 5.93974e-11 4.1704e-11 3.45755e-11 -2.78686e-11 -5.16492e-12 1.24065e-11 1.97947e-11 9.66037e-12 
4.41565e-12 3.98214e-13 3.24471e-13 -4.15949e-12 -1.91926e-11 -7.00561e-12 -9.90781e-13 -1.71844e-12 -2.59482e-12 
-5.29613e-11 -1.21417e-10 -5.23135e-11 3.86426e-12 -1.51026e-11 1.57319e-12 5.3827e-11 -9.67038e-12 1.3247e-11 
2.04341e-11 -4.84364e-11 -2.02951e-11 2.11017e-13 -4.1184e-14 5.09499e-14 -2.90831e-12 7.47265e-13 8.42797e-13 
-7.51313e-11 -1.30304e-10 -6.16307e-11 -2.99217e-11 1.35158e-11 -6.94222e-12 -3.03372e-12 -9.61232e-12 -3.79381e-12 
-1.51492e-12 -1.1209e-11 -8.8314e-13 -7.58704e-13 8.83248e-13 3.73633e-14 3.24941e-12 3.04511e-12 -2.11725e-13 
-1.43724e-10 -3.03486e-10 -1.34163e-10 -1.5264e-13 -6.64491e-11 -5.80568e-12 5.42889e-11 8.14277e-11 4.0715e-11 
-4.06945e-11 -4.07919e-11 -1.19562e-11 6.15841e-12 8.31986e-12 4.34348e-12 -6.06988e-12 -1.11052e-12 -2.09131e-12 
8.98836e-12 1.92539e-11 8.47267e-12 -5.14457e-12 -3.60446e-12 -4.066e-13 1.4723e-11 3.62883e-11 1.53034e-11 
-6.10135e-11 1.32847e-11 -1.32847e-12 6.06273e-11 2.05352e-10 7.97939e-11 -7.94105e-11 4.18469e-11 -2.09234e-12 
5.62494e-12 2.48884e-11 9.154e-12 -1.30877e-11 5.10631e-12 -1.43226e-12 3.95942e-12 6.73582e-12 3.20857e-12 
-2.83955e-12 -6.42648e-12 -7.47265e-14 -3.53605e-11 -1.29705e-10 -4.95197e-11 -7.74218e-12 7.85696e-11 3.41607e-12 
1.31025e-11 2.77636e-11 1.22598e-11 -1.37394e-11 -7.5972e-12 2.1406e-13 9.27333e-12 2.53614e-12 3.54284e-12 
7.30641e-13 8.32667e-12 5.39099e-12 -3.89003e-11 -8.12071e-11 -3.60322e-11 -4.66494e-11 -4.7825e-11 -2.17952e-11 
1.17126e-10 2.36424e-10 1.06065e-10 -6.27912e-12 -7.12393e-11 3.73633e-13 1.22899e-10 1.08442e-10 6.94023e-11 
4.76758e-11 4.7825e-11 1.49453e-12 -4.54539e-12 -6.31331e-12 -3.25761e-12 3.96513e-12 -3.36269e-12 2.75554e-12 
-9.96185e-12 -1.89947e-11 -8.68696e-12 -3.18206e-12 -1.24544e-12 2.49088e-12 7.32046e-12 2.82784e-11 1.06797e-11 
1.00753e-11 -7.43944e-11 -5.83282e-12 1.98618e-11 2.60781e-11 1.3782e-11 2.55745e-12 7.85478e-12 3.69918e-12 
-3.12041e-11 -1.30052e-10 -4.83769e-11 1.02956e-10 3.47818e-11 -3.80426e-12 9.11388e-12 -3.10072e-12 1.80395e-12 
6.42491e-11 9.41555e-11 7.47265e-13 5.74562e-12 1.60885e-11 6.55025e-12 -3.42093e-12 9.52763e-12 -4.08661e-13 
1.71248e-11 1.94795e-11 1.09813e-11 -7.00314e-12 1.49453e-12 -2.42861e-12 7.98437e-11 1.58172e-10 7.14047e-11 
-2.93716e-11 5.60449e-12 -4.34348e-12 2.32735e-12 5.22314e-12 2.26515e-12 -1.0321e-11 2.29072e-12 -1.79576e-13 
2.53381e-12 7.00717e-12 2.86229e-12 8.25791e-13 -1.45936e-12 1.20634e-12 -4.38588e-12 -6.76719e-11 -2.16173e-11 
-1.02283e-11 -3.01345e-11 7.23641e-12 -4.28057e-11 -8.88999e-11 -3.95117e-11 -3.79301e-12 -2.90366e-11 -1.1636e-11 
-8.95797e-11 -2.35681e-10 -9.75782e-11 -3.13068e-11 -5.97812e-11 4.6971e-12 1.15428e-11 1.33825e-11 7.47757e-12 
4.82991e-12 -2.16314e-12 1.94682e-12 4.09205e-12 1.16628e-11 4.72645e-12 5.90071e-12 1.99271e-12 3.98542e-13 
6.77926e-11 1.6031e-10 6.84308e-11 2.55531e-11 -8.79781e-11 -4.18469e-12 -4.99526e-11 -1.24921e-10 -5.2462e-11 
1.02525e-11 7.51536e-11 -3.41607e-12 -2.17149e-11 1.72196e-11 -1.34858e-12 -3.14186e-11 2.69016e-11 -1.49453e-12 
-4.85699e-11 -1.54071e-10 -6.07922e-11 1.02494e-11 -4.21985e-12 7.03309e-12 -2.57123e-11 -4.5745e-11 -2.14372e-11 
-2.10192e-11 -9.16646e-11 5.72904e-12 4.93907e-11 1.40495e-10 5.69657e-11 -3.73989e-12 -8.54018e-12 5.97812e-12 
1.06069e-11 7.43278e-11 2.54804e-11 1.51759e-11 6.49053e-11 2.13504e-12 -1.15886e-10 -2.23653e-10 -1.01862e-10 
-3.54738e-12 5.46571e-11 4.6971e-12 -7.67549e-11 -1.34081e-10 -6.32507e-11 -8.6247e-11 2.39125e-11 5.12411e-12 
-2.61881e-11 -9.47755e-11 -3.62891e-11 2.20399e-12 -2.39125e-11 -2.13504e-12 -4.30985e-11 -1.18364e-10 -4.84388e-11 
2.64996e-11 -1.02482e-11 6.19163e-12 -4.42944e-11 -1.12965e-10 -4.71778e-11 -3.71366e-11 7.00295e-11 2.98906e-12 
5.41192e-12 -1.0149e-11 -1.42114e-12 4.24483e-11 2.90366e-11 -1.08887e-11 1.79093e-10 3.17972e-10 1.49119e-10 
9.87403e-12 1.70804e-11 -3.84308e-12 2.25839e-10 4.99742e-10 2.17674e-10 4.06236e-11 3.41607e-12 -7.25915e-12 
6.48161e-11 8.83066e-11 4.59368e-11 4.48583e-11 2.22045e-11 -3.84308e-12 7.83189e-12 5.84212e-11 1.98759e-11 
1.30917e-11 -4.27009e-12 3.84308e-12 1.66302e-10 3.83139e-10 1.64832e-10 1.45922e-11 4.09929e-11 3.41607e-12 
1.76975e-10 3.4004e-10 1.55104e-10 7.15313e-11 3.41607e-12 5.55112e-12 1.23428e-10 2.55809e-10 1.13771e-10 
1.48271e-11 4.6117e-11 3.20257e-12 1.63472e-10 2.89958e-10 1.36029e-10 1.49366e-11 2.39125e-11 8.75368e-12 
3.72599e-11 6.27536e-11 3.0004e-11 5.8703e-11 2.00694e-11 -7.47265e-13 -8.61859e-12 -5.88786e-13 -2.76221e-12 
-1.40834e-11 2.13504e-12 -8.86043e-12 2.24264e-11 1.19554e-10 4.25941e-11 3.53372e-11 1.96424e-11 5.87137e-12 
-1.55721e-11 -7.65017e-11 -2.76221e-11 1.65727e-11 4.09929e-11 4.48359e-12 -6.65841e-12 -4.81188e-11 -1.64332e-11 
-2.4049e-11 2.81826e-11 -7.41928e-12 -2.66739e-11 -3.57094e-11 -1.8715e-11 2.37561e-11 1.94289e-11 5.17748e-12 
1.24674e-10 1.92847e-10 9.52563e-11 3.5246e-11 2.81826e-11 -7.47265e-13 6.44211e-11 1.55021e-10 6.58328e-11 
3.94857e-11 3.41607e-12 -4.48359e-12 5.42695e-11 1.04791e-10 4.77182e-11 8.55228e-12 -2.39125e-11 -5.33761e-12 
7.08165e-11 1.992e-10 8.10049e-11 -3.31967e-11 -7.68616e-12 -4.80385e-12 -6.50338e-12 4.95379e-11 1.29103e-11 
-8.89374e-13 2.04964e-11 3.84308e-12 3.01922e-12 -6.0532e-11 -1.72538e-11 1.92477e-12 -6.40513e-13 6.08488e-12 
1.20289e-10 2.65153e-10 1.15633e-10 -1.44197e-11 -5.97812e-12 -8.54018e-12 4.77865e-11 1.40364e-10 5.64452e-11 
3.69859e-11 -1.19562e-11 8.32667e-12 5.20902e-11 5.44618e-11 3.19656e-11 2.75306e-11 5.97812e-12 5.76462e-12 
3.18495e-11 1.37086e-10 5.06806e-11 -3.05144e-11 2.98906e-11 8.75368e-12 7.81563e-11 1.68108e-10 7.38792e-11 
-1.66131e-12 3.07446e-11 -4.27009e-12 6.07445e-11 6.18871e-11 3.67895e-11 2.59284e-12 2.72342e-26 -4.6971e-12 
-1.36754e-11 3.68273e-11 6.94557e-12 -1.51428e-11 -2.56205e-12 -4.05658e-12 -2.3351e-11 -3.34278e-11 -1.70337e-11 
2.37188e-11 -2.56205e-12 -6.45851e-12 3.26114e-11 6.95372e-11 3.06446e-11 -1.3112e-11 1.53723e-11 -5.12411e-12 
-5.43292e-12 -1.01129e-11 -4.66374e-12 5.63388e-12 1.19562e-11 -1.28103e-12 6.32872e-12 -3.65529e-11 -9.06727e-12 
9.37391e-12 5.12411e-12 -5.76462e-12 2.72768e-11 5.7391e-11 2.54004e-11 1.79573e-11 1.11022e-11 4.9106e-12 
6.84538e-11 1.45384e-10 6.41514e-11 -1.8717e-11 -6.83214e-12 -1.70804e-12 4.13138e-11 8.35863e-11 3.747e-11 
5.57348e-14 8.54018e-12 5.33761e-12 1.70178e-11 7.06525e-11 2.63011e-11 6.17982e-12 7.68616e-12 8.96719e-12 
-9.7917e-12 -6.48801e-12 -4.88391e-12 3.80149e-12 -1.02482e-11 5.33761e-12 1.89963e-11 -2.58311e-12 4.92395e-12 
-1.45967e-11 1.02482e-11 7.1524e-12 -4.75085e-12 2.55675e-11 6.245e-12 -1.39386e-11 5.12411e-12 4.80385e-12 
1.96754e-11 3.87714e-11 1.75341e-11 -1.90929e-11 2.56205e-12 5.33761e-12 3.60247e-11 6.55901e-11 3.04844e-11 
3.01153e-11 1.06752e-12 -2.72218e-12 -6.02374e-12 1.67657e-11 3.22258e-12 1.51849e-11 3.41607e-12 -4.37684e-12 
5.08585e-11 4.86212e-11 2.98439e-11 -9.66935e-12 -2.13504e-12 3.41607e-12 3.75403e-11 1.21921e-10 4.78383e-11 
9.16289e-12 -2.98906e-12 -3.30932e-12 3.14465e-11 7.23033e-11 3.11249e-11 2.24768e-11 -5.12411e-12 -3.30932e-12 
5.33697e-11 9.86188e-11 4.55965e-11 -3.03535e-12 -1.70804e-12 -2.02829e-12 2.84215e-11 8.90059e-11 3.52282e-11 
4.58008e-12 1.28103e-12 2.02829e-12 6.3465e-12 1.23351e-11 5.60449e-12 8.5733e-12 -2.98906e-12 -9.6077e-13 
5.43638e-11 1.06899e-10 4.83788e-11 1.02948e-11 -6.83214e-12 -3.36965e-26 2.34527e-11 5.59443e-11 2.38191e-11 
1.28481e-11 -2.98906e-12 -3.41607e-12 4.27357e-11 5.581e-11 2.95637e-11 5.30695e-12 -1.28103e-11 -8.54018e-13 
9.01461e-12 3.9293e-13 2.82226e-12 -5.7984e-12 2.98906e-12 -1.81479e-12 1.62748e-11 8.34496e-12 7.38592e-12 
3.21682e-13 8.54018e-13 4.16334e-12 -7.0763e-12 1.82853e-11 3.36269e-12 5.98765e-12 -2.13504e-12 -1.17427e-12 
2.47371e-11 3.14412e-11 1.68535e-11 1.08369e-11 1.66533e-11 3.30932e-12 -9.87168e-12 -4.32375e-11 -1.59328e-11 
-2.8549e-12 -1.28103e-11 5.33761e-13 -2.71237e-11 -6.41495e-11 -2.73819e-11 6.54952e-13 -3.84308e-12 1.70804e-12 
2.79465e-11 3.39698e-11 1.85749e-11 -7.66049e-12 7.25915e-12 3.41607e-12 -2.81907e-11 -2.91886e-11 -1.72138e-11 
1.29822e-11 -2.13504e-13 -2.88231e-12 -2.58639e-12 -3.83798e-11 -1.22898e-11 2.47502e-12 1.49453e-12 -5.87137e-13 
-2.14306e-12 -1.7873e-11 -6.00481e-12 -2.22267e-12 -5.12411e-12 -7.47265e-13 1.22257e-12 5.58288e-12 2.04164e-12 
-3.51693e-12 -8.4868e-12 -2.58874e-12 -6.20984e-13 9.09444e-12 2.54204e-12 -6.52477e-12 -3.20257e-13 -5.09742e-12 
6.91447e-12 -5.58007e-12 4.00321e-13 1.6629e-12 -3.36269e-12 1.06752e-13 4.45475e-12 3.41822e-12 2.36189e-12 
5.8284e-12 -2.08167e-12 8.54018e-13 -3.29124e-12 -9.65246e-12 -3.88311e-12 -1.71636e-12 -3.52282e-12 -3.73633e-13 
-1.41789e-11 -1.81804e-11 -9.70778e-12 -8.08136e-12 -8.54018e-13 2.29517e-12 -4.64845e-12 -8.49542e-12 -3.94316e-12 
-4.49753e-13 2.34855e-12 4.80385e-13 2.91308e-12 8.49606e-12 3.42274e-12 7.78982e-13 2.66881e-13 -1.1209e-12 
1.5296e-11 1.82642e-11 1.00681e-11 2.38167e-12 1.97492e-12 5.33761e-13 2.39382e-12 2.81035e-12 1.56125e-12 
-1.73301e-12 1.54791e-12 1.17427e-12 -2.39182e-14 3.35992e-12 1.0008e-12 3.69802e-14 -4.00321e-14 -2.93569e-13 
-2.82107e-12 -9.81981e-13 -1.14091e-12 -1.35943e-12 -5.73793e-13 -2.08167e-12 8.08931e-12 3.31983e-12 3.42274e-12 
-3.21973e-12 -3.21925e-13 -9.6077e-13 -3.94325e-12 -1.99484e-12 -1.78143e-12 -3.15747e-12 -8.00642e-14 -1.86816e-12 
-9.14804e-12 -5.19679e-12 -4.30345e-12 2.41241e-12 -7.20577e-13 -1.22765e-12 1.80465e-12 1.0205e-11 3.60289e-12 
1.01542e-12 -4.80385e-13 8.00642e-13 1.36959e-11 1.13241e-11 7.50601e-12 -6.54699e-12 1.06752e-12 -7.47265e-13 
-1.61492e-11 -8.68177e-12 -7.4493e-12 2.39289e-12 3.30042e-12 7.47265e-13 -3.41792e-12 -3.61883e-12 -2.11103e-12 
-6.84676e-13 -1.99271e-13 -5.97812e-13 1.30213e-11 1.00638e-11 6.92555e-12 -9.73826e-13 -2.82893e-12 7.47265e-13 
1.07408e-12 -1.91475e-12 -2.52202e-13 9.7485e-13 -6.22332e-13 3.06846e-12 1.30347e-12 2.12149e-12 1.02749e-12 
-1.58504e-12 3.60011e-13 2.34299e-12 -4.58867e-12 -2.81895e-13 -1.46117e-12 -9.298e-13 1.668e-14 8.54018e-13 
8.2632e-12 7.68291e-12 4.78383e-12 3.5433e-12 1.46784e-13 3.20257e-13 2.6509e-13 5.53956e-12 1.7414e-12 
2.53022e-12 -2.66881e-13 1.06752e-13 1.30625e-11 1.09568e-11 7.20577e-12 2.00839e-12 -3.73633e-13 1.38778e-12 
-5.41164e-12 -1.08014e-11 -4.8639e-12 1.76244e-12 1.28103e-12 1.22765e-12 -3.24267e-12 -4.43014e-12 -2.30184e-12 
-8.97651e-13 -1.06752e-13 1.17427e-12 1.36597e-11 -5.11951e-12 2.56205e-12 3.36167e-12 -2.2418e-12 1.49453e-12 
5.62469e-12 1.20561e-11 5.30425e-12 2.62327e-12 1.70804e-12 4.27009e-13 -9.21466e-12 -7.06505e-12 -4.88391e-12 
4.97928e-13 -4.27009e-13 -1.70804e-12 -6.24923e-13 -2.64436e-12 -9.80786e-13 2.94768e-12 3.62958e-12 -8.54018e-13 
1.30719e-11 1.33492e-11 7.92635e-12 7.58886e-13 -2.13504e-13 2.13504e-12 -6.17037e-13 -4.58713e-12 -1.56125e-12 
4.03773e-12 1.06752e-12 1.44115e-12 -1.6145e-11 -3.42287e-11 -1.51121e-11 -4.47428e-12 1.23833e-11 6.40513e-13 
-8.35035e-12 -2.86793e-11 -1.11089e-11 -2.04928e-11 5.97812e-12 5.33761e-13 -1.52102e-11 -3.36957e-11 -1.46718e-11 
-8.92623e-13 -1.32373e-11 1.22765e-12 -1.34249e-11 -3.90839e-11 -1.57526e-11 -5.91092e-12 6.19163e-12 1.3344e-13 
-1.6262e-12 -8.91558e-12 -3.16253e-12 -2.8785e-12 1.00347e-11 1.52122e-12 -1.17661e-11 -2.96671e-11 -1.243e-11 
-1.14259e-11 -4.27009e-13 2.71551e-12 -5.08715e-12 -2.39361e-11 -8.70698e-12 -6.27594e-13 4.6971e-12 9.2741e-13 
-2.99579e-12 -1.19495e-11 -4.48359e-12 4.63727e-13 1.38778e-11 2.13171e-12 -4.24e-12 -1.97125e-11 -7.18576e-12 
-1.15633e-11 1.97492e-11 2.72385e-12 -2.24872e-13 -5.6465e-12 -1.76141e-12 -9.8919e-12 5.44436e-12 1.33524e-12 
9.39887e-12 1.829e-11 8.30666e-12 -1.33309e-12 -2.34855e-12 1.30855e-12 -2.11596e-12 -1.87674e-11 -6.26502e-12 
8.28504e-12 -3.52282e-12 -6.87634e-13 1.24943e-11 8.12223e-12 6.18496e-12 1.72978e-12 -2.13504e-13 1.19179e-12 
2.49782e-11 4.65458e-11 2.14572e-11 3.41552e-12 1.36643e-11 1.47451e-12 -2.16151e-11 -5.21774e-11 -2.21377e-11 
1.37978e-12 6.72539e-12 9.7745e-13 -9.28765e-12 -2.51399e-11 -1.03283e-11 -8.48071e-12 -1.2063e-11 -5.92141e-13 
-4.97503e-12 -9.97028e-12 -4.48359e-12 7.95925e-12 -1.05685e-11 1.22765e-12 -3.77067e-11 -9.03959e-11 -3.84308e-11 
1.94172e-11 -3.20257e-12 -8.40674e-13 -2.26327e-11 -5.76316e-11 -2.40793e-11 -1.75388e-11 2.42328e-11 -1.69469e-12 
4.74471e-11 1.11347e-10 4.76382e-11 4.27912e-12 -2.34855e-12 -1.94156e-12 -1.01177e-11 -3.63862e-11 -1.39512e-11 
1.1335e-12 -1.81479e-11 -9.54098e-13 -1.01851e-13 -1.25083e-11 -3.78303e-12 -8.41842e-12 2.60475e-11 3.93649e-13 
-6.41929e-12 -1.33299e-11 -5.92475e-12 -1.04992e-11 4.05658e-12 1.20096e-12 1.59917e-11 2.39736e-11 1.19896e-11 
4.37504e-12 2.34855e-12 -5.33761e-13 2.67249e-11 4.86021e-11 2.25981e-11 1.88684e-11 1.19562e-11 1.92154e-12 
4.15264e-11 1.0339e-10 4.34748e-11 -8.48058e-13 7.89966e-12 -5.33761e-14 5.61019e-11 1.36653e-10 5.78263e-11 
5.19842e-12 2.5834e-11 1.02749e-12 7.25951e-12 1.0805e-12 2.50201e-12 -4.93123e-12 -8.32667e-12 2.54871e-12 
-1.11129e-11 -2.98533e-11 -1.22898e-11 7.01108e-12 -8.11317e-12 5.60449e-12 9.23623e-12 3.80683e-11 1.41914e-11 
2.57277e-12 2.81826e-11 5.55112e-12 5.03883e-11 1.11475e-10 4.85589e-11 1.45319e-11 -1.70804e-12 -6.93889e-13 
4.75407e-11 9.80426e-11 4.3675e-11 -1.70633e-11 7.68616e-12 5.33761e-13 2.79897e-11 6.08148e-11 2.66413e-11 
8.69609e-12 -1.28103e-11 5.87137e-13 -6.58731e-11 -1.41426e-10 -6.21898e-11 3.61121e-11 -4.27009e-12 5.30836e-27 
2.01042e-12 -2.0225e-11 -5.46438e-12 1.17076e-11 -1.11022e-11 -4.00321e-12 -6.10056e-12 -2.01205e-11 -7.8663e-12 
-5.994e-12 3.41607e-12 -1.17427e-12 -1.67013e-11 -4.91515e-11 -1.97558e-11 3.67564e-11 8.54018e-13 1.28103e-12 
-4.13895e-11 -9.55202e-11 -4.10729e-11 -6.84462e-11 -2.73286e-11 3.20257e-13 7.65686e-11 1.51147e-10 6.83147e-11 
-9.92924e-12 -3.84308e-11 -7.47265e-13 7.01843e-11 1.65871e-10 7.08167e-11 3.65579e-11 -8.54018e-13 7.47265e-13 
3.81622e-11 8.07998e-11 3.56886e-11 4.27488e-11 1.70804e-12 3.20257e-12 -6.57432e-11 -1.18738e-10 -5.53444e-11 
9.87275e-12 1.96424e-11 4.27009e-13 -2.70332e-11 -9.09947e-11 -3.54084e-11 -6.5e-12 -1.19562e-11 -3.84308e-12 
8.84881e-11 1.71921e-10 7.81226e-11 -3.8366e-11 -5.12411e-12 2.4553e-12 7.02836e-11 1.33613e-10 6.1169e-11 
2.71742e-11 -4.27009e-11 3.73633e-12 9.08909e-11 2.20492e-10 9.34149e-11 4.19267e-11 -1.70804e-12 2.13504e-13 
-1.19881e-11 -2.46412e-11 -1.09888e-11 -6.4095e-12 -1.92154e-12 -4.35015e-12 -9.79422e-12 3.65597e-12 -1.84148e-12 
-1.85457e-11 -3.07446e-11 -2.34855e-12 5.94012e-11 1.23812e-10 5.4964e-11 1.68006e-11 -1.53723e-11 -6.19163e-12 
6.55025e-11 1.03433e-10 5.06806e-11 2.44605e-11 9.39419e-12 -3.20257e-13 -5.45325e-11 -1.07531e-10 -4.8619e-11 
3.49961e-12 -6.83214e-12 -3.41607e-12 1.24781e-11 2.72204e-11 1.19095e-11 1.22643e-11 -6.83214e-12 -3.73633e-12 
1.06237e-10 1.76456e-10 8.4808e-11 1.71462e-11 1.19562e-11 -2.66881e-12 1.06887e-10 2.36989e-10 1.03163e-10 
1.80785e-13 2.04964e-11 -1.70804e-12 1.18951e-10 2.41138e-10 1.08027e-10 3.98844e-11 -4.7825e-11 -5.79131e-12 
7.36931e-11 1.8418e-10 7.7362e-11 4.28666e-12 -8.54018e-13 -1.76141e-12 9.55483e-12 -6.41898e-12 9.40754e-13 
-2.28667e-11 -4.14199e-11 -1.94823e-12 8.05825e-11 1.37926e-10 6.55525e-11 2.04359e-11 -4.8679e-11 -5.49774e-12 
3.3793e-11 5.87478e-11 2.77622e-11 3.539e-11 -2.09234e-11 -4.16334e-12 -4.69032e-12 9.36073e-12 1.40112e-12 
-4.34861e-11 -9.94931e-11 -5.44436e-12 4.1956e-11 1.1984e-10 4.85389e-11 5.31904e-11 -4.52629e-11 4.96398e-12 
7.60408e-11 1.40066e-10 6.4832e-11 -1.0807e-11 -3.07446e-11 -2.34855e-12 1.41011e-12 5.39535e-12 2.04164e-12 
4.71661e-11 2.98906e-12 -2.88231e-12 -2.74133e-11 7.19711e-12 -6.06486e-12 -2.54566e-11 -1.70804e-11 -4.10996e-12 
1.62122e-11 -3.78295e-11 -6.4852e-12 7.72013e-11 1.11022e-11 -4.10996e-12 -2.33011e-11 -1.06803e-10 -3.90313e-11 
-5.52148e-11 2.30585e-11 3.09581e-12 -1.41498e-10 -3.06727e-10 -1.34468e-10 1.54979e-13 1.28103e-11 9.23407e-12 
-7.43701e-11 -1.7116e-10 -7.3659e-11 -2.2456e-11 -3.07446e-11 1.17427e-12 1.01739e-10 2.18984e-10 9.62171e-11 
-1.12971e-11 3.97118e-11 4.32346e-12 2.09836e-10 4.62836e-10 2.01802e-10 3.09955e-11 -4.01388e-11 -1.0782e-11 
1.26444e-10 2.70475e-10 1.19075e-10 3.58267e-11 -3.84308e-12 5.33761e-14 1.15128e-10 2.26045e-10 1.02352e-10 
5.09471e-11 -1.29526e-11 -6.22721e-12 -2.80295e-11 -3.26858e-11 -1.82146e-11 7.66701e-12 3.58687e-11 6.40513e-13 
4.19442e-11 5.26316e-11 2.83727e-11 -6.82146e-12 -2.98906e-11 -8.40674e-12 3.09261e-11 -6.79567e-12 7.23913e-12 
3.90305e-11 -3.43985e-25 -1.99271e-12 1.63977e-11 6.33158e-12 6.8188e-12 -4.07567e-12 -1.80589e-12 -2.80225e-12 
2.20469e-11 1.64369e-10 5.59248e-11 -4.21835e-11 -4.22739e-11 -7.84629e-12 7.95166e-13 -4.66493e-12 -1.16093e-12 
-4.37969e-12 5.63118e-12 -6.35509e-13 -1.90896e-12 9.94206e-12 2.40993e-12 -1.49084e-12 -2.49088e-12 -1.94289e-12 
-3.19228e-11 -1.44307e-10 -5.2869e-11 9.63486e-11 -1.83329e-11 1.29526e-12 -7.55861e-11 -6.84062e-11 -4.31977e-11 
-5.82348e-11 5.88615e-11 -1.83942e-12 1.90047e-11 8.28388e-12 8.18656e-12 -2.05355e-13 -2.77556e-12 2.34855e-12 
2.20714e-12 -1.05327e-12 3.4616e-13 -2.09493e-13 -9.23093e-13 -5.71438e-13 -3.78433e-11 -7.5314e-11 -3.39472e-11 
-4.4628e-11 4.93195e-11 -2.53537e-12 -5.46467e-11 -1.36093e-10 -5.72219e-11 -1.81924e-11 7.97083e-12 -1.59417e-12 
2.2599e-11 2.49769e-11 1.42728e-11 -4.33411e-12 1.49453e-13 7.72174e-13 6.05887e-11 3.19703e-11 2.77677e-11 
-1.4813e-12 -1.46736e-11 -6.65746e-12 6.57575e-12 2.03428e-11 8.07556e-12 6.6345e-12 2.07196e-12 -6.75086e-13 
8.82706e-11 1.27347e-10 6.46852e-11 9.89948e-11 3.98542e-12 -2.2418e-12 1.03703e-11 2.86251e-12 3.96985e-12 
-3.08239e-12 1.5568e-13 1.43226e-12 1.89386e-11 3.45376e-11 1.60429e-11 1.84205e-12 6.22721e-12 -3.11361e-14 
8.14259e-11 2.15612e-10 8.91114e-11 -4.54015e-11 -5.51731e-11 -1.61908e-12 3.70894e-11 8.90116e-11 3.78303e-11 
-1.68994e-11 -1.5842e-10 -2.05498e-11 1.08107e-11 1.20318e-11 6.85276e-12 7.82997e-13 -2.37766e-12 2.37766e-13 
-5.67726e-12 -1.3805e-11 -5.84468e-12 5.235e-12 -4.53697e-13 1.47451e-12 1.13024e-11 9.31411e-12 6.18496e-12 
-2.18005e-12 -1.06752e-13 -2.66881e-13 -1.48798e-11 -6.50509e-11 -2.39792e-11 -1.42558e-11 1.22365e-11 -2.13504e-12 
-3.85597e-11 5.05694e-11 3.60289e-12 -2.30062e-11 -3.58687e-11 -1.69736e-11 1.10046e-11 2.66389e-11 1.1293e-11 
4.21918e-12 -6.04351e-12 3.59622e-12 -5.27065e-11 -1.27291e-10 -5.39993e-11 -8.37032e-11 4.30425e-11 -5.97812e-13 
3.01684e-11 1.37421e-10 5.0277e-11 3.93622e-12 -5.18104e-11 1.99271e-12 -2.08148e-12 -4.30141e-12 -1.91487e-12 
1.29219e-13 1.74362e-12 -2.49089e-13 -2.49862e-12 -1.09121e-11 -4.02322e-12 3.82688e-12 -9.87458e-13 3.06913e-13 
-2.35576e-11 -6.07766e-11 -2.53003e-11 1.82103e-11 -3.20257e-12 -8.78037e-12 9.10846e-12 1.86984e-11 8.34207e-12 
-2.21773e-12 -5.10152e-13 2.22024e-12 -6.07056e-11 -1.16195e-10 -5.30702e-11 3.76028e-11 -2.29928e-11 -3.56388e-12 
-1.42365e-12 -8.04172e-12 -2.83961e-12 4.72625e-12 -1.29526e-12 9.78597e-14 6.56863e-12 -3.79682e-11 -9.41986e-12 
5.35929e-12 -5.17338e-11 -9.71445e-12 5.69545e-11 7.90323e-11 4.0796e-11 3.23509e-11 -7.3232e-11 -7.5972e-12 
6.94031e-12 3.33459e-12 3.08247e-12 -3.70081e-12 -2.13477e-12 4.04769e-13 1.04637e-10 1.54613e-10 7.77751e-11 
-1.2711e-11 -3.20645e-11 1.08693e-12 2.49365e-12 6.48791e-12 2.69447e-12 -1.60701e-12 -4.08122e-12 -1.14964e-13 
-4.02491e-11 -8.94326e-11 -3.89045e-11 -6.60006e-12 -2.29161e-11 -1.27658e-11 1.44871e-12 -3.23903e-12 -5.37097e-13 
-8.92382e-12 -4.79495e-12 -8.92243e-13 1.26231e-11 2.29343e-11 1.06672e-11 -3.97532e-12 -2.78979e-12 2.29161e-12 
7.69555e-11 1.69642e-10 7.39793e-11 -3.49002e-11 5.38031e-12 1.28281e-11 3.58625e-13 -2.8648e-11 -8.4868e-12 
7.71404e-11 -4.27009e-11 6.40513e-13 -7.9408e-11 -5.86285e-11 -4.1411e-11 2.4349e-12 1.72701e-11 5.31389e-12 
8.66278e-12 -9.59475e-11 -2.61854e-11 2.21182e-11 1.59417e-11 -9.2993e-12 1.87777e-11 2.33321e-10 7.56295e-11 
-8.84833e-12 1.19562e-11 -1.32847e-12 -3.56117e-12 -1.0666e-10 -3.30665e-11 -5.06246e-11 -3.18833e-11 1.19562e-11 
-2.27853e-11 -7.41517e-11 -2.90811e-11 1.57214e-11 3.18833e-11 5.31389e-12 -1.08444e-10 -2.57093e-10 -1.09661e-10 
-4.88448e-11 -6.90805e-11 2.65694e-12 5.19588e-11 5.48139e-11 3.20318e-11 8.04561e-11 1.05192e-11 -5.90627e-12 
-2.79711e-11 -4.6246e-11 -2.22651e-11 -8.42858e-11 2.60864e-11 -3.80426e-12 2.10211e-11 6.47069e-11 2.57184e-11 
-2.60723e-12 -3.71972e-11 -7.97083e-12 -8.26811e-11 -1.93496e-10 -8.28531e-11 -1.02008e-11 4.7825e-11 8.63507e-12 
1.29464e-10 2.98346e-10 1.28343e-10 -4.71617e-11 2.65694e-12 -2.65694e-12 -1.19876e-11 -2.714e-11 -1.17383e-11 
3.32918e-11 5.31389e-11 3.98542e-12 2.96986e-11 4.90757e-11 2.36323e-11 -3.24026e-12 2.65694e-12 -3.32118e-12 
1.54036e-11 2.49695e-11 1.21119e-11 -1.16755e-11 -2.65694e-12 -5.97812e-12 -4.995e-12 -1.65927e-11 -6.4763e-12 
-4.51618e-12 2.65694e-12 7.3066e-12 -5.00241e-11 -9.77684e-11 -4.43378e-11 6.67105e-12 1.32847e-11 1.66059e-12 
3.24287e-11 1.2128e-10 4.61125e-11 -1.77594e-13 -2.65694e-12 -5.97812e-12 1.30133e-12 -1.19159e-11 -3.18437e-12 
4.74082e-11 -1.24997e-11 2.17386e-12 1.59577e-11 3.02275e-11 1.38555e-11 4.81583e-12 -5.49748e-28 -7.97083e-12 
-1.21936e-11 -1.70743e-11 -8.78037e-12 1.61226e-12 6.64236e-13 5.31389e-12 -1.72833e-11 -2.16367e-11 -1.1676e-11 
-1.7527e-11 -1.46132e-11 6.64236e-13 -1.5269e-11 -2.38586e-11 -1.17383e-11 5.36329e-12 -1.19562e-11 1.66059e-12 
7.77703e-12 -2.4839e-12 1.58794e-12 -2.87264e-12 -1.32847e-12 5.64601e-12 2.61318e-13 7.83406e-12 2.42861e-12 
2.05745e-12 2.65694e-12 -6.64236e-13 5.07839e-12 -1.42116e-11 -2.73997e-12 -9.83528e-13 1.32847e-12 6.64236e-13 
-2.87305e-12 3.2882e-12 1.24544e-13 -8.24233e-12 2.2418e-12 9.96354e-13 1.48578e-12 2.35433e-12 1.15203e-12 
3.54268e-13 -2.3352e-13 -6.64236e-13 1.11142e-11 8.39769e-12 5.85358e-12 -1.02767e-12 8.30295e-14 9.96354e-13 
-3.6007e-12 1.98728e-12 -4.84024e-13 -2.32343e-12 -4.07599e-13 2.98906e-12 5.84914e-12 6.12409e-12 3.59197e-12 
-7.86471e-13 8.49165e-15 1.76626e-12 1.28317e-11 1.17955e-12 4.20337e-12 -6.265e-12 -3.29476e-12 1.35866e-13 
-6.21223e-12 -1.51518e-12 -2.31822e-12 1.5542e-12 2.71733e-12 -3.53253e-12 -6.70653e-12 5.94228e-12 -2.29275e-13 
6.29893e-12 -1.08693e-12 1.08693e-12 4.95911e-13 -9.62916e-12 -2.73997e-12 -2.8574e-12 2.65694e-12 1.57756e-12 
1.74666e-13 -5.01491e-12 -1.45207e-12 -4.10027e-12 -3.80426e-12 -1.76626e-12 2.57082e-11 4.84239e-11 2.22396e-11 
6.95304e-12 1.6304e-12 -4.07599e-13 3.57791e-12 4.74391e-12 2.49655e-12 -4.99734e-13 -3.80426e-12 1.1209e-12 
3.20463e-11 7.75526e-11 3.28797e-11 2.83924e-11 1.79344e-11 1.61908e-12 4.32485e-11 9.11744e-11 4.03269e-11 
-6.45696e-12 -1.6304e-11 7.81232e-13 4.77169e-11 9.46032e-11 4.2696e-11 -5.6317e-12 1.46872e-27 -2.7428e-12 
2.29724e-11 4.11396e-11 1.92336e-11 -1.87923e-11 -1.05748e-26 7.13299e-13 -3.07273e-12 -3.05542e-11 -1.00881e-11 
-3.71595e-11 7.60852e-12 -1.4266e-12 1.02259e-11 1.5334e-11 7.66796e-12 -5.24698e-13 6.52159e-12 -1.2228e-12 
-4.52211e-11 -8.91168e-11 -4.03014e-11 -7.64688e-12 -1.73909e-11 2.58146e-12 4.75698e-11 9.67883e-11 4.33074e-11 
2.06123e-11 1.6304e-11 -2.71733e-13 1.81138e-11 3.46194e-11 1.58199e-11 1.43596e-11 -2.82602e-11 -1.27778e-26 
3.84505e-11 9.35098e-11 3.95881e-11 -7.47066e-12 1.19562e-11 3.39666e-13 5.89319e-12 1.18544e-11 5.32427e-12 
4.8095e-12 2.17386e-11 1.49453e-12 3.28264e-11 5.67605e-11 2.68761e-11 7.6034e-12 5.43466e-12 -2.8532e-12 
-1.11923e-11 -2.5152e-11 -1.09033e-11 -1.90636e-11 -5.21727e-11 -3.60046e-12 -3.59421e-11 -4.57476e-11 -2.45069e-11 
-3.99332e-11 1.5217e-11 -3.53253e-12 7.09097e-11 1.81708e-10 7.57852e-11 1.90302e-12 -1.06278e-11 4.31753e-12 
-3.05862e-12 3.21001e-11 8.71244e-12 -2.09752e-12 6.52159e-12 -5.16293e-12 8.96593e-12 9.63079e-12 5.57902e-12 
3.272e-11 3.91295e-11 6.79332e-12 -5.40113e-11 -1.10217e-10 -4.92686e-11 -7.97904e-11 6.52159e-12 7.06506e-12 
-3.06104e-11 -3.6134e-11 -2.00233e-11 1.25742e-11 3.69557e-11 -1.03259e-11 1.89985e-10 4.70326e-10 1.98093e-10 
-2.20683e-11 4.99989e-11 -2.71733e-12 -3.61865e-11 -1.07068e-10 -4.29763e-11 6.23862e-11 4.56511e-11 3.80426e-12 
-4.02358e-11 -1.22889e-10 -4.89374e-11 -2.01896e-11 1.73909e-11 2.17386e-12 -1.91655e-10 -4.27217e-10 -1.85662e-10 
-6.61413e-12 5.21727e-11 5.97812e-12 -2.61628e-11 -5.70554e-11 -2.49655e-11 4.5426e-11 4.34773e-12 -8.96719e-12 
-2.5421e-11 2.35528e-11 -5.60449e-13 7.44346e-14 -3.26079e-11 7.88025e-12 -1.11348e-10 -2.61945e-10 -1.11988e-10 
-2.75272e-12 4.56511e-11 -1.03259e-11 1.60659e-10 2.9755e-10 1.37463e-10 1.54464e-10 4.99989e-11 -5.70639e-12 
-3.11016e-11 -6.26162e-12 -1.1209e-11 -2.57033e-11 5.10858e-11 6.11399e-12 6.73803e-11 1.46021e-10 6.40205e-11 
-2.81041e-11 3.31096e-11 8.96719e-12 -1.94144e-11 -4.59713e-11 -1.96157e-11 2.1203e-11 -2.49088e-11 -4.48359e-12 
5.42665e-13 -3.06469e-12 -7.56606e-13 5.2551e-12 -3.6616e-12 -1.77476e-13 -2.06653e-12 2.33341e-12 8.00642e-14 
2.70737e-12 3.62958e-12 8.00642e-13 -6.14761e-11 -1.13331e-10 -5.2442e-11 -4.92378e-11 -5.23086e-12 -1.73739e-11 
1.56385e-11 2.42779e-11 1.19749e-11 -4.56269e-11 -6.05783e-11 -1.19562e-12 6.15627e-12 1.28367e-11 5.6979e-12 
7.7199e-13 7.97083e-13 -2.59052e-12 2.61731e-11 6.34987e-11 2.69016e-11 -3.35566e-11 3.14848e-11 -1.54435e-12 
-2.63509e-11 -3.92893e-12 -9.08395e-12 6.68168e-11 -2.18264e-11 -9.4498e-12 1.42501e-10 2.89278e-10 1.29534e-10 
-8.19888e-13 -2.83961e-11 -2.47532e-12 -3.67219e-11 -1.12653e-10 -4.48126e-11 5.03574e-11 -2.06743e-11 -1.30771e-12 
7.41114e-11 1.64213e-10 7.14973e-11 -8.86735e-12 -3.15987e-11 1.49453e-11 -5.92509e-11 -2.18483e-10 -8.33201e-11 
2.61248e-11 1.49453e-11 2.09234e-11 -1.63447e-11 -3.20941e-11 -1.45316e-11 -1.6059e-11 2.71484e-11 9.7378e-12 
-1.44187e-12 4.45431e-11 1.29304e-11 -1.93189e-11 2.17775e-11 -8.64693e-12 -4.92942e-12 -4.61115e-11 -1.53123e-11 
-2.42196e-11 1.36643e-11 -1.02482e-11 1.12057e-10 1.16638e-10 6.86083e-11 3.10809e-11 5.70413e-11 3.0202e-12 
-5.33481e-11 -6.12771e-11 -3.43876e-11 -2.65942e-11 7.44063e-11 9.98133e-12 8.80615e-13 2.51958e-11 7.82294e-12 
-7.44091e-12 -9.96354e-12 9.96354e-13 -1.89663e-11 -4.19826e-11 -1.82847e-11 6.78219e-11 6.07776e-11 4.98177e-12 
-3.35142e-11 -8.37909e-11 -3.51915e-11 -8.66868e-11 2.29161e-11 -7.97083e-12 3.57848e-12 -1.64221e-11 -3.85309e-12 
4.48423e-11 -2.59052e-11 6.84993e-12 -6.85851e-12 -1.80503e-11 -7.47266e-12 -3.53042e-11 -1.74362e-11 3.93871e-12 
-1.38907e-10 -2.09905e-10 -1.04644e-10 -1.14968e-11 -1.34241e-11 2.15506e-12 -8.75354e-11 -1.93623e-10 -8.43476e-11 
-3.45317e-11 -2.00694e-11 -4.16334e-12 -8.15436e-11 -1.36164e-10 -6.53123e-11 -2.33292e-11 7.60076e-11 1.39845e-11 
1.12604e-10 1.32359e-10 7.34889e-11 -4.39906e-12 5.38031e-11 2.27605e-11 -4.65176e-11 -6.29701e-11 -3.28463e-11 
-3.57882e-11 5.99947e-11 1.1209e-11 -2.56834e-11 -5.41139e-11 -2.39392e-11 3.16539e-11 3.99787e-11 -1.96157e-12 
6.09386e-11 1.402e-10 6.03417e-11 -4.82858e-11 6.78143e-11 -1.57237e-12 3.39242e-11 7.58971e-11 3.29464e-11 
-1.74509e-11 4.79851e-11 7.87965e-12 2.18851e-11 9.06718e-11 3.37671e-11 5.15892e-11 2.90366e-11 7.79291e-12 
4.91077e-11 -5.40598e-12 1.31105e-11 2.00077e-11 3.07446e-11 -1.70804e-12 -9.33903e-11 -9.99647e-11 -5.80065e-11 
-5.40443e-11 -3.21324e-11 -3.89201e-12 -2.11118e-11 -2.8061e-11 -1.47518e-11 4.54874e-11 2.88231e-12 3.36937e-12 
-5.16118e-11 -1.01244e-10 -4.58567e-11 -3.66039e-11 2.75688e-11 -4.3635e-12 8.49398e-11 1.40908e-10 6.77543e-11 
-5.48976e-13 -5.74327e-11 -4.53697e-12 4.9665e-11 9.43393e-11 4.32013e-11 6.40836e-12 -2.46598e-11 -9.34082e-13 
3.36606e-11 8.00973e-11 3.41273e-11 -7.20545e-11 -3.82173e-11 7.97973e-12 5.60082e-11 1.16597e-10 5.17815e-11 
-1.98891e-11 -5.93542e-11 2.93569e-12 -4.09455e-11 -4.17208e-11 -2.47999e-11 1.46401e-11 9.39419e-12 2.56205e-12 
2.58529e-11 2.82461e-11 1.62297e-11 -5.48368e-11 3.3876e-11 8.7181e-13 -8.30645e-12 -2.23848e-11 -9.20738e-12 
2.17594e-11 3.15987e-11 1.01415e-12 -1.20741e-11 3.43381e-12 -2.59208e-12 3.46537e-11 2.98906e-12 2.80225e-12 
4.09706e-11 7.4622e-11 3.46778e-11 1.19578e-11 -3.98542e-12 -3.98542e-12 3.47145e-11 2.2131e-11 1.70537e-11 
9.82374e-12 8.54018e-12 -6.35176e-12 3.89943e-11 1.09858e-10 4.46558e-11 -5.27763e-14 -2.39125e-11 -5.28423e-12 
-4.93593e-12 2.23499e-11 5.22419e-12 -1.42542e-11 -1.70804e-11 -1.06752e-13 2.52512e-11 1.88841e-11 1.32406e-11 
8.51246e-14 -1.34508e-11 2.49088e-12 3.1624e-12 1.67869e-11 5.9848e-12 -3.96993e-11 1.28103e-11 3.30932e-12 
-3.0376e-11 -8.72516e-11 -3.52883e-11 7.48047e-12 4.9106e-12 8.05979e-12 -3.88734e-11 -9.11642e-11 -3.90113e-11 
-4.74477e-12 -3.41607e-12 3.20257e-12 -4.46486e-11 -6.66629e-11 -3.33934e-11 -1.77661e-12 -3.36269e-12 4.03212e-12 
1.3099e-11 4.76163e-11 1.82146e-11 1.78059e-11 1.56303e-11 1.24544e-13 -2.82069e-11 -5.76619e-11 -2.57606e-11 
-2.01768e-11 8.31333e-12 1.04751e-12 2.8312e-11 4.11993e-11 2.08534e-11 1.23828e-12 -7.97083e-12 4.48359e-12 
9.14939e-13 4.25199e-11 1.30304e-11 -1.87835e-12 -3.38138e-11 2.44863e-12 -4.89408e-12 -3.99418e-11 -1.34508e-11 
-8.86074e-12 -4.98177e-12 -4.98177e-12 3.72887e-12 7.86932e-12 3.47946e-12 1.92584e-11 -9.09173e-12 4.15666e-12 
-3.12046e-11 -8.0029e-11 -3.33701e-11 3.89326e-12 -3.00152e-11 2.52202e-12 -1.12133e-12 1.88689e-11 5.32427e-12 
-2.00843e-11 -3.2942e-11 3.73633e-13 -2.5829e-12 1.17236e-11 2.7422e-12 -2.82534e-11 -1.62263e-11 -8.54018e-13 
-3.67403e-11 -8.1966e-11 -3.56119e-11 -2.74561e-12 1.44471e-11 -7.9397e-13 -7.59583e-13 2.93911e-12 6.53857e-13 
-2.92106e-11 -1.1209e-11 2.77111e-12 3.01998e-11 3.93893e-11 2.08767e-11 1.18679e-11 -6.3701e-12 -2.18759e-12 
8.97094e-12 2.9268e-11 1.14717e-11 3.01999e-12 -1.08353e-11 -2.94236e-12 -4.35426e-11 -7.3996e-11 -3.52616e-11 
9.79929e-12 -2.09234e-11 -5.72904e-12 -2.79261e-12 -1.13521e-11 -4.2434e-12 7.70925e-13 -2.73286e-11 -2.2418e-12 
-2.21002e-11 -5.4628e-11 -2.30184e-11 4.77996e-12 9.28744e-12 3.30932e-12 -2.63725e-12 -1.40984e-11 -5.02069e-12 
-1.78746e-11 6.22721e-12 -5.44881e-12 -1.85334e-12 -1.64947e-12 -1.05084e-12 2.31326e-12 5.04404e-12 1.27658e-12 
8.36955e-12 -6.04997e-13 2.32937e-12 -9.99677e-12 -1.19562e-11 2.67582e-27 1.82138e-11 6.2195e-11 2.41227e-11 
-3.33654e-13 -1.63153e-11 -6.22721e-14 3.20765e-11 6.61578e-11 2.94703e-11 6.49764e-12 -9.46536e-12 -2.98906e-12 
1.79554e-11 3.61435e-11 1.62297e-11 3.25976e-12 -6.22721e-12 -1.08976e-12 5.944e-12 -3.67552e-12 6.80545e-13 
1.71621e-12 9.18069e-12 7.20577e-13 1.84146e-11 1.05419e-11 8.68696e-12 1.77143e-12 -1.74362e-12 -3.92314e-12 
3.14925e-12 2.78756e-11 9.30746e-12 1.06623e-11 -9.8212e-12 2.13504e-13 -3.88878e-12 -8.72133e-12 -3.78303e-12 
-1.66114e-12 -7.68616e-12 2.34855e-12 -1.00622e-12 6.17018e-13 -1.1676e-13 -6.83187e-12 1.17072e-11 3.73633e-13 
5.16304e-14 6.62038e-12 2.0016e-12 -8.59615e-13 5.76462e-12 -1.26768e-12 1.56478e-12 -6.30191e-12 -1.42114e-12 
7.18937e-14 -4.48359e-12 -1.26768e-12 -2.25571e-12 7.2115e-13 -4.60369e-13 2.79853e-12 -4.62371e-12 -2.42861e-12 
4.14288e-12 1.76746e-11 6.54525e-12 5.36436e-12 -2.56205e-12 3.20257e-13 9.50884e-12 1.99147e-11 8.82707e-12 
-1.20603e-12 4.27009e-13 5.87137e-13 7.62934e-12 1.08966e-11 5.55779e-12 2.57831e-12 2.49088e-12 -2.17952e-12 
3.03564e-12 3.50294e-12 1.96157e-12 3.47118e-12 1.17427e-12 -1.73472e-12 7.20154e-12 4.24096e-12 3.43275e-12 
-1.06693e-12 2.36634e-12 -1.15203e-12 3.48813e-12 2.81693e-12 1.89152e-12 6.88868e-12 9.96354e-13 9.96354e-13 
3.39338e-12 3.21191e-12 1.98159e-12 5.54542e-13 -2.30184e-13 -1.10088e-13 1.92568e-12 -5.24555e-13 4.20337e-13 
1.05849e-12 8.67362e-14 7.33921e-14 -7.31398e-13 1.7322e-12 3.00241e-13 -1.11746e-14 1.3344e-14 3.73633e-13 
-1.37631e-12 1.04271e-12 -1.0008e-13 1.45164e-12 -2.73553e-13 -5.01027e-13 7.23347e-12 6.23287e-12 4.0399e-12 
1.94605e-13 -1.43226e-12 -8.40674e-13 1.59979e-12 4.08254e-12 1.7047e-12 -9.06023e-13 3.26929e-13 -4.20337e-13 
1.13689e-13 -4.4505e-12 -1.30104e-12 8.7647e-13 6.67201e-13 4.80385e-13 1.98612e-13 -3.1343e-12 -8.80706e-13 
1.66283e-12 7.47265e-13 1.3344e-12 -4.49628e-11 -1.02155e-10 -4.41354e-11 3.36063e-11 5.26075e-11 1.55431e-11 
1.43309e-11 4.03939e-12 5.51108e-12 8.65251e-12 -9.54507e-11 2.01762e-12 -3.41953e-11 -1.08319e-10 -4.27543e-11 
3.6988e-11 2.73286e-11 4.05658e-12 -5.50036e-11 -7.64351e-11 -3.94316e-11 -5.42477e-11 -4.27009e-13 6.88552e-12 
-4.04559e-11 -8.89145e-11 -3.88111e-11 8.42233e-12 7.57229e-11 1.6938e-11 1.29538e-11 1.77152e-11 9.20071e-12 
-4.70804e-12 3.85257e-11 8.69734e-12 1.90759e-11 -2.37917e-12 5.00901e-12 1.58102e-11 2.55938e-11 6.72539e-12 
-5.93185e-11 -1.42703e-10 -6.06063e-11 5.05275e-12 -1.85986e-11 2.32483e-12 -4.09577e-11 -9.40755e-11 -4.051e-11 
-1.12385e-11 2.39125e-11 -5.41767e-12 5.07917e-11 1.4223e-10 5.79064e-11 9.12257e-12 1.36643e-11 -6.40513e-12 
-1.14267e-11 -2.95691e-11 -1.22987e-11 -1.59386e-11 2.78979e-11 -2.73997e-12 -8.80503e-12 2.70196e-11 5.46438e-12 
3.32452e-11 1.49453e-11 1.31572e-11 -1.0675e-11 -5.6527e-11 -2.01606e-11 2.96636e-11 4.64965e-12 -3.32118e-13 
3.56257e-12 5.97215e-11 1.89852e-11 -2.67739e-11 2.09234e-11 8.21992e-12 7.47426e-11 1.46752e-10 6.64482e-11 
4.47483e-11 1.77476e-11 1.00647e-11 5.1375e-11 3.04906e-11 2.45597e-11 1.42993e-11 1.57993e-11 1.1209e-11 
-1.43953e-12 -1.82429e-11 -5.90473e-12 -2.9791e-12 7.08835e-11 2.2418e-12 -4.62955e-11 -6.27327e-11 -3.27084e-11 
-2.22214e-11 -9.2993e-12 8.63507e-12 -7.38064e-12 -1.61716e-11 -7.06566e-12 2.09885e-11 -5.87958e-26 -3.41607e-12 
-1.82575e-11 4.26474e-11 7.31697e-12 -2.32425e-11 3.58687e-11 9.46536e-12 -1.87245e-11 6.52303e-12 -3.66043e-12 
-4.12054e-11 6.2817e-11 4.8689e-12 2.22055e-11 5.34032e-11 2.26826e-11 -1.80545e-11 3.23815e-11 -4.75344e-12 
-1.43359e-11 -1.31027e-11 -8.2316e-12 2.97957e-11 3.59154e-11 4.30845e-12 -2.11692e-11 -2.499e-11 -1.38478e-11 
-5.18162e-11 2.09234e-11 -2.73997e-12 -2.14339e-11 -7.0865e-11 -2.76897e-11 2.49222e-11 3.53083e-11 2.49867e-12 
7.06482e-11 1.39253e-10 6.29705e-11 3.46645e-11 -1.78276e-11 6.4852e-12 -8.01313e-12 -4.0611e-11 -1.45872e-11 
8.86431e-12 -1.31187e-11 2.3871e-12 5.26412e-11 1.16294e-10 5.06806e-11 -1.11912e-11 3.55485e-11 -3.86977e-12 
-6.16431e-11 -3.65133e-11 -2.94469e-11 3.39775e-11 -1.29526e-11 -7.72174e-12 1.01611e-11 1.79781e-11 8.44176e-12 
3.72126e-11 -1.60662e-11 5.06739e-12 4.39924e-11 5.9535e-11 3.10582e-11 -2.70618e-11 1.74362e-11 -2.17952e-12 
7.4118e-11 1.65837e-10 7.19866e-11 -1.45782e-11 3.81936e-11 -2.11725e-12 2.63582e-12 2.79294e-11 9.16957e-12 
1.34108e-11 -4.28432e-11 -3.03836e-12 6.353e-12 1.43006e-11 6.19608e-12 -1.72512e-11 2.87216e-26 -1.57756e-12 
2.27718e-11 5.57578e-11 2.35589e-11 1.94903e-11 2.40192e-11 2.29851e-12 -2.78054e-11 -6.34011e-11 -2.73619e-11 
-2.90791e-11 2.56205e-11 -2.02829e-12 7.85819e-12 6.62975e-11 2.22467e-11 -1.85624e-11 3.18833e-11 -1.57756e-12 
3.73932e-11 5.21619e-11 2.68665e-11 4.32119e-12 9.71445e-12 2.42861e-12 4.30988e-11 8.77394e-11 3.92515e-11 
4.48143e-11 1.45183e-11 2.13504e-12 6.75543e-12 3.35139e-11 1.20808e-11 -2.41178e-11 -3.15512e-12 9.54839e-13 
-1.55885e-11 -4.18575e-11 -1.72338e-11 1.61747e-11 -3.73633e-12 4.95063e-12 5.57117e-11 9.54094e-11 4.53363e-11 
4.14597e-12 -1.53723e-11 -2.4553e-12 -6.73475e-11 -1.53621e-10 -6.62906e-11 2.41192e-11 8.96719e-12 3.73633e-12 
-3.15267e-11 -9.62674e-11 -3.83382e-11 -2.59847e-11 5.51108e-12 -1.14425e-12 -1.78117e-11 -4.80411e-11 -1.97558e-11 
1.08073e-11 1.21431e-11 4.36683e-12 -1.14893e-11 -3.50146e-11 -1.39512e-11 -1.89982e-11 3.33067e-11 -4.00321e-13 
-6.81064e-13 -4.86539e-13 -3.50281e-13 8.15594e-12 3.58687e-11 4.76382e-12 -4.23862e-11 -8.04455e-11 -3.68495e-11 
-8.1478e-12 2.09234e-11 3.36269e-12 -6.95596e-13 -9.73498e-12 -3.12917e-12 -9.9755e-12 -9.96354e-13 -1.03787e-12 
2.10639e-11 7.4079e-11 2.85429e-11 1.06972e-11 1.11022e-11 -5.33761e-13 4.50526e-11 8.81059e-11 3.99476e-11 
6.37329e-13 1.19562e-11 7.47265e-13 -1.02896e-11 -2.58802e-11 -1.08509e-11 -5.76309e-12 1.1292e-11 -3.03058e-12 
3.41645e-11 6.72612e-11 3.04277e-11 -1.35129e-11 2.03474e-11 9.3019e-13 -1.1528e-11 -5.53256e-11 -2.00561e-11 
1.56562e-11 1.06752e-12 -2.27516e-12 -2.01641e-11 -5.52964e-11 -2.26381e-11 9.98608e-12 -1.92154e-12 -5.07073e-13 
-2.29811e-11 -6.42517e-11 -2.61699e-11 2.33418e-11 5.47995e-12 -1.93044e-12 -1.13044e-12 -1.63836e-11 -5.25421e-12 
-2.51924e-11 2.59675e-11 -7.23913e-13 9.53109e-12 2.61197e-12 3.64292e-12 -6.07024e-12 1.54435e-11 7.8878e-13 
-2.61856e-11 -6.40571e-11 -2.70728e-11 -7.67186e-12 1.01296e-11 9.13325e-13 -3.17862e-11 -7.4032e-11 -3.17454e-11 
-9.31831e-12 1.11022e-11 -2.0016e-12 -3.45433e-12 -2.8171e-11 -9.4876e-12 -2.31866e-11 -5.44436e-12 -2.34855e-12 
-1.97673e-11 -4.12816e-11 -1.83147e-11 4.93253e-12 -4.6971e-12 -8.80706e-13 -7.94562e-12 -2.88468e-11 -1.10377e-11 
-1.32594e-12 -3.32118e-12 -6.22721e-13 1.10327e-11 2.20688e-11 9.93046e-12 1.99435e-13 -1.68135e-12 -2.63878e-12 
-1.96931e-12 4.4602e-12 7.47265e-13 -4.63038e-12 -1.56303e-11 -1.20652e-13 -6.52153e-12 -2.93239e-11 -1.07536e-11 
-5.71442e-12 -4.29678e-12 -1.83314e-12 2.78495e-11 6.85944e-11 2.89332e-11 5.14715e-12 1.64398e-11 1.74362e-12 
1.29271e-11 2.77574e-11 1.22053e-11 1.94374e-12 -1.99271e-12 -4.15147e-14 2.1573e-11 4.82756e-11 2.09546e-11 
3.9601e-12 8.96719e-12 9.02946e-13 2.72009e-11 5.38308e-11 2.43095e-11 8.05115e-14 6.72539e-12 1.08587e-12 
-1.06762e-12 -3.08386e-12 -1.24544e-12 6.78542e-12 -7.5972e-12 1.01192e-12 1.02068e-11 2.38205e-11 1.02082e-11 
-1.33557e-12 1.81479e-12 2.10836e-12 1.35429e-12 -4.08982e-12 -8.20658e-13 2.42908e-12 -1.96958e-11 -4.67041e-14 
-2.36112e-12 -9.74888e-13 -1.0008e-12 -4.05839e-12 4.61703e-12 -5.00401e-15 5.64553e-12 8.4176e-12 4.21894e-12 
3.04602e-12 1.2662e-12 7.66726e-13 6.49339e-13 -7.88847e-12 -2.17174e-12 8.5948e-12 5.60449e-13 -1.35734e-13 
8.98915e-12 1.10936e-11 6.02483e-12 -7.84105e-12 4.577e-12 -3.42497e-13 1.23114e-12 9.91946e-12 3.34518e-12 
5.30157e-13 1.35442e-12 3.2401e-13 1.08502e-12 -1.20178e-12 -3.50281e-14 9.58321e-13 -2.03163e-12 -3.57578e-13 
1.12143e-12 -2.47066e-12 -4.04769e-13 -1.01645e-12 1.07938e-12 -5.78612e-13 8.41905e-12 1.45243e-11 6.88302e-12 
1.92329e-13 7.00561e-14 -2.18925e-14 1.29609e-12 8.31543e-13 6.38289e-13 -2.89935e-13 -5.18934e-13 5.68233e-13 
2.74209e-12 2.1952e-12 1.48119e-12 1.13738e-12 -2.2418e-12 9.47426e-13 5.73345e-13 1.23644e-12 5.42935e-13 
6.095e-13 -6.65533e-13 2.83144e-13 1.93367e-12 2.09456e-12 1.20847e-12 -1.74257e-12 3.42983e-14 -7.35589e-13 
4.33703e-13 1.10086e-12 4.60369e-13 -1.10555e-12 1.46784e-13 -9.47426e-13 1.04126e-12 6.93468e-13 5.20417e-13 
-1.43342e-12 -1.50954e-13 -4.93729e-13 7.52921e-13 2.84997e-12 1.08087e-12 -1.11644e-12 2.05498e-12 -2.66881e-14 
2.92123e-12 2.44269e-13 9.4965e-13 -2.14576e-13 -1.42707e-12 -8.54296e-13 -6.5638e-12 -1.07751e-11 -5.20167e-12 
-6.02046e-14 2.06666e-12 1.19095e-12 5.71664e-12 1.61231e-12 2.19869e-12 -4.62283e-12 -2.48969e-12 1.67843e-14 
3.36589e-12 2.76402e-12 1.83897e-12 -7.25977e-12 2.56873e-13 7.57482e-13 1.17189e-10 1.72143e-10 8.67996e-11 
1.17567e-11 -5.57958e-11 -1.99271e-11 -4.0964e-12 -9.83698e-12 -4.18002e-12 6.49857e-12 -8.21992e-12 1.09365e-12 
-3.22135e-12 -6.05275e-12 -2.78223e-12 2.68538e-12 -1.60128e-12 -2.34855e-12 -7.13491e-11 -1.87158e-10 -7.75521e-11 
-3.56841e-11 -1.79344e-11 1.59417e-11 -7.00423e-11 -1.33089e-10 -6.09395e-11 -2.64551e-11 -3.66658e-11 5.18104e-12 
2.38476e-11 -7.89585e-11 -1.65332e-11 1.50207e-11 -4.7825e-11 -1.83942e-11 -2.76346e-11 -9.63314e-11 -3.71898e-11 
-2.28712e-11 1.02482e-11 -3.09581e-12 -1.07469e-10 -1.85459e-10 -8.78784e-11 6.42629e-12 2.31154e-11 -6.17739e-12 
-6.92665e-11 -2.38124e-10 -9.22172e-11 8.40609e-12 3.59933e-11 -8.93605e-12 -3.8421e-11 -7.43539e-11 -3.38324e-11 
2.39746e-11 2.07242e-11 -3.58687e-12 -9.31552e-11 -1.22851e-10 -6.48019e-11 -2.11717e-12 8.07047e-11 1.49453e-11 
1.28412e-10 2.74333e-10 1.20823e-10 -6.39043e-12 -4.18469e-11 -1.36999e-11 -2.15495e-11 -1.26035e-10 -4.42755e-11 
-1.10751e-11 7.97083e-12 -4.98177e-12 1.18348e-10 2.22089e-10 1.02131e-10 -9.25149e-12 1.47154e-11 -9.19711e-13 
8.68828e-12 -8.0878e-12 1.80144e-13 7.2494e-11 4.09929e-11 8.54018e-13 -4.87611e-11 -6.71429e-11 -3.47712e-11 
-4.66349e-11 -7.57229e-11 -2.98906e-12 -6.35264e-11 -1.26793e-10 -5.70958e-11 5.89839e-12 -5.85358e-11 -1.7156e-11 
3.03335e-11 1.40532e-10 5.12595e-11 -3.20571e-12 -7.19674e-11 -1.81356e-11 6.03533e-11 8.48297e-11 4.35549e-11 
4.23329e-11 4.27009e-13 8.59355e-12 -3.17931e-11 -1.36342e-10 -5.04404e-11 3.26738e-11 6.37667e-11 -3.98542e-12 
-5.58715e-12 -5.57509e-11 -1.84014e-11 1.41961e-11 3.88578e-11 9.71445e-12 -2.93653e-11 -7.40064e-11 -3.10115e-11 
-6.62581e-12 -2.73997e-12 2.92679e-12 2.17323e-11 4.94735e-11 2.13617e-11 -4.16696e-11 -1.12665e-11 -7.07028e-12 
1.18217e-10 2.53361e-10 1.11473e-10 6.68884e-11 -2.73499e-11 -1.40486e-11 -6.73396e-11 -1.48745e-10 -6.48253e-11 
3.51466e-12 7.17375e-12 1.07606e-11 -1.04439e-10 -1.18433e-10 -6.68616e-11 -8.19772e-11 5.97812e-13 7.92101e-12 
-5.05225e-11 -7.91903e-11 -3.89139e-11 -6.91945e-12 7.97083e-12 9.80123e-26 1.21252e-12 -1.52388e-12 -9.34082e-14 
6.92063e-13 1.6938e-11 -3.48724e-12 1.01695e-10 1.94409e-10 8.88312e-11 9.73966e-11 2.39125e-11 3.48724e-12 
6.73544e-11 1.66353e-10 7.01122e-11 1.19067e-11 1.26662e-25 2.39125e-12 -1.99731e-11 -5.36192e-11 -2.20777e-11 
2.5113e-13 5.12411e-12 -1.28103e-12 -2.38931e-11 -4.14077e-11 -1.95902e-11 2.62913e-11 5.43466e-11 6.82953e-26 
-7.76664e-11 -1.42577e-10 -6.60729e-11 -1.83734e-11 -2.56205e-12 -1.65466e-12 -1.17088e-10 -2.92117e-10 -1.22762e-10 
1.32723e-11 3.26306e-11 9.18514e-12 2.85453e-12 5.4843e-11 1.73093e-11 -1.90202e-11 2.75913e-12 6.84035e-12 
-2.41908e-12 -1.2593e-11 -4.50361e-12 -1.34274e-12 1.02482e-11 -2.98906e-12 9.37156e-11 2.1819e-10 9.35717e-11 
-9.67302e-12 2.19198e-11 -1.49453e-12 -4.14758e-11 -4.09569e-11 -2.47298e-11 1.68973e-11 1.38244e-11 9.27855e-12 
-1.30003e-11 -1.24354e-11 -7.63073e-12 -1.84669e-12 9.08215e-12 -6.72539e-12 -3.56219e-11 -1.21304e-10 -4.70777e-11 
4.55078e-11 1.38778e-11 2.21511e-12 -1.14051e-11 -2.98502e-11 -1.23766e-11 -8.39738e-12 1.49453e-11 1.29526e-11 
-2.02867e-11 -5.17095e-11 -2.15988e-11 2.31245e-11 8.2774e-12 5.28834e-12 1.9953e-11 4.89022e-11 2.06566e-11 
-4.65531e-12 -2.79691e-11 7.47265e-13 -6.7636e-12 -1.73669e-11 -7.23913e-12 2.86646e-11 9.96354e-12 7.47265e-13 
-1.50987e-11 -2.41327e-11 -1.17694e-11 9.56229e-13 5.10631e-12 3.61178e-12 1.91977e-11 3.96494e-11 1.76541e-11 
-1.39221e-11 -1.88541e-11 3.88003e-12 5.54713e-12 3.62197e-11 1.253e-11 7.0587e-13 7.55864e-27 1.70804e-12 
1.6693e-11 3.1023e-11 1.43148e-11 1.07472e-11 -5.97812e-12 3.48724e-12 -5.74541e-11 -7.37844e-11 -3.93716e-11 
-9.64434e-12 1.49453e-12 9.21627e-12 2.92362e-11 5.65436e-11 2.5734e-11 -2.07764e-11 -2.39125e-11 4.73268e-12 
1.85048e-11 5.63152e-11 2.2446e-11 1.5157e-11 1.19562e-11 1.19562e-12 -1.38886e-11 -8.09208e-11 -2.84428e-11 
1.08183e-12 2.4126e-11 7.47265e-13 -3.24844e-11 -7.63002e-11 -3.26354e-11 -1.90215e-11 -4.59856e-12 -4.59856e-12 
-3.66646e-11 -2.15821e-11 -1.7474e-11 -8.63223e-12 -4.37684e-12 -1.71804e-12 -3.1528e-11 -8.42203e-11 -3.47245e-11 
-7.47874e-12 -3.98542e-12 3.73633e-12 -1.28991e-11 3.19906e-12 -2.91002e-12 -2.1484e-11 9.19711e-13 6.89784e-13 
1.76855e-12 9.30699e-12 3.32266e-12 5.5546e-12 1.35575e-11 2.72218e-12 1.25411e-12 -5.79997e-12 -1.36376e-12 
-2.39505e-12 1.55431e-11 -9.96354e-13 1.01831e-11 9.28773e-11 3.09181e-11 -4.62027e-11 -1.72182e-11 -1.97714e-12 
3.42343e-11 6.16648e-11 2.87697e-11 -9.99558e-12 -6.17739e-12 2.29161e-12 6.1927e-11 9.09822e-11 4.58728e-11 
5.56335e-11 8.96719e-13 1.04617e-12 5.55901e-12 2.59507e-11 9.45291e-12 -1.13557e-11 7.97083e-13 9.96354e-13 
3.32141e-11 5.00749e-11 2.49867e-11 -1.10239e-11 -1.54435e-11 4.98177e-13 -1.16182e-11 2.97796e-12 -2.59208e-12 
3.93437e-12 2.17952e-12 4.07882e-12 4.6319e-12 1.29719e-11 5.28116e-12 2.59502e-12 -4.59856e-12 2.06935e-12 
2.2502e-11 4.88886e-11 2.14172e-11 -1.05999e-11 -5.12411e-12 5.87804e-12 1.23881e-11 7.07452e-11 2.494e-11 
3.93277e-12 1.49453e-12 6.4763e-12 -2.08419e-12 8.33535e-12 1.87535e-12 -2.40792e-12 4.59856e-12 3.90877e-12 
-6.79367e-12 -1.72256e-11 -7.20577e-12 -1.29429e-11 -8.64693e-12 6.67201e-13 -2.58743e-12 1.71435e-11 4.36683e-12 
4.97399e-12 -7.97083e-12 2.30407e-12 1.82254e-12 3.39275e-12 1.56459e-12 3.59385e-12 -1.09599e-11 3.73633e-12 
-2.36648e-11 -2.28237e-11 -1.39466e-11 -6.67643e-12 -7.81755e-12 -1.60949e-12 -3.43369e-12 -9.4433e-12 -3.8631e-12 
-9.00376e-12 -8.35336e-12 2.66881e-12 -2.79176e-12 1.17434e-11 2.68549e-12 1.12126e-11 -5.47995e-12 2.73997e-12 
1.33958e-11 3.74039e-11 1.52399e-11 2.94918e-12 2.29928e-12 2.29928e-13 5.64511e-12 3.01836e-11 1.07486e-11 
-1.13881e-11 3.94983e-12 3.31599e-12 1.29408e-11 5.09994e-13 4.03523e-12 -6.25165e-12 3.18833e-12 5.47995e-12 
-1.29335e-12 2.03591e-13 -3.26929e-13 -5.05509e-12 1.49453e-12 1.80589e-12 -8.18966e-12 -5.97725e-12 -4.25007e-12 
3.32337e-12 2.45975e-12 -2.50645e-12 5.3536e-12 1.19628e-11 5.19493e-12 7.20237e-12 9.19711e-13 -3.67885e-12 
2.04158e-12 3.96324e-12 1.80144e-12 2.8331e-12 3.18255e-12 -4.3635e-12 1.10139e-11 6.1109e-12 5.13745e-12 
-4.42807e-13 1.79032e-13 5.60449e-13 7.62881e-12 1.78386e-12 2.8238e-12 4.96927e-12 1.83942e-12 1.83942e-12 
6.37323e-12 2.03351e-12 2.52202e-12 2.53358e-13 2.86229e-12 1.86816e-13 -8.33958e-12 -6.99493e-12 -4.60035e-12 
-2.42502e-12 9.4965e-13 -9.34082e-13 7.60911e-12 3.59987e-12 3.36269e-12 2.74894e-13 6.89784e-13 -3.44892e-13 
4.80088e-12 3.20553e-12 2.40192e-12 -7.10987e-13 -6.33841e-13 7.73954e-13 4.31112e-12 2.77233e-12 2.12504e-12 
-3.71162e-12 4.53419e-13 -1.23766e-12 -1.25028e-11 -3.73587e-12 -4.8716e-12 2.19122e-13 -4.31115e-14 -8.62229e-13 
-2.71187e-12 2.11139e-12 -1.80144e-13 4.00224e-13 3.06913e-13 -1.39111e-12 1.1534e-11 9.87208e-12 6.42181e-12 
-8.28534e-13 -3.73633e-13 1.24544e-13 1.26008e-11 1.56552e-11 8.47679e-12 -4.35957e-12 1.86816e-13 7.47265e-13 
-1.17616e-11 -7.57385e-12 -5.80065e-12 4.08289e-12 -2.83961e-12 2.31652e-12 -6.56856e-12 -6.17499e-12 -3.82306e-12 
3.62193e-12 -3.54951e-12 3.18922e-12 -7.69185e-12 -5.91072e-12 -4.08077e-12 -2.60482e-13 -5.13745e-13 1.68135e-12 
3.72667e-12 4.52439e-12 2.47532e-12 -1.03077e-12 -8.87378e-13 2.98906e-12 8.12556e-12 4.32886e-12 3.73633e-12 
3.96207e-13 -3.61178e-13 -1.99271e-12 4.06778e-12 2.78215e-12 2.05498e-12 1.62536e-12 -1.5568e-14 4.98177e-13 
-5.16891e-13 3.8345e-13 -4.00321e-14 -1.3118e-12 -1.06752e-13 1.17427e-12 -2.0244e-12 -9.32829e-12 -3.40581e-12 
-3.02549e-12 5.7482e-13 4.59856e-13 -1.32762e-11 -1.03428e-11 -7.08568e-12 -3.44454e-12 1.04083e-12 4.27009e-13 
-4.02762e-12 -3.21152e-12 -2.17174e-12 -2.24883e-12 4.98177e-13 1.05863e-12 1.24756e-11 1.69791e-11 8.83641e-12 
-5.02617e-12 -1.99271e-13 -1.59417e-12 -1.09243e-11 -7.21243e-12 -5.44103e-12 -1.61014e-12 6.4763e-12 -4.48359e-12 
-1.19836e-11 -8.83308e-12 -6.245e-12 4.40202e-12 -2.88231e-12 -1.20096e-12 2.8697e-12 1.0926e-11 4.1387e-12 
-1.11856e-12 -6.09309e-12 1.92565e-12 5.4629e-13 -4.74966e-12 -1.26101e-12 -1.84154e-12 4.32346e-12 4.80385e-13 
1.81023e-11 1.8825e-11 1.10782e-11 -2.19651e-12 -1.19562e-12 1.54435e-12 -6.17455e-12 -2.21593e-11 -8.50015e-12 
6.39865e-12 -4.98177e-13 -1.1209e-12 1.40188e-11 3.30856e-11 1.41313e-11 -4.88897e-12 -1.28103e-12 1.49453e-12 
1.00396e-12 -1.21507e-11 -3.34401e-12 -8.07381e-12 -1.50788e-27 5.97812e-13 9.31995e-12 1.5044e-11 7.30919e-12 
4.05253e-12 1.19562e-11 -4.98177e-13 -1.13432e-11 -3.01156e-11 -1.24377e-11 1.66221e-12 -1.37957e-12 -3.36269e-12 
-3.05103e-12 -1.19721e-11 -4.50695e-12 -3.17666e-12 1.43849e-11 2.3352e-14 1.37137e-11 1.81169e-11 9.54919e-12 
2.37088e-12 -6.89784e-12 1.46579e-12 1.54815e-11 4.34991e-11 1.76942e-11 -4.75979e-12 1.17961e-11 -1.39612e-12 
-7.19079e-12 -2.69699e-11 -1.02482e-11 4.65007e-12 -2.98906e-12 -2.66881e-14 2.28055e-11 3.79816e-11 1.82362e-11 
-2.08166e-13 3.90877e-12 1.10473e-12 1.87496e-11 3.56273e-11 1.63131e-11 1.17576e-11 2.13504e-12 1.86983e-12 
8.4879e-12 2.62066e-11 1.04083e-11 6.65969e-13 -1.38778e-11 -2.0016e-14 -5.28491e-12 -3.38843e-11 -1.17507e-11 
-1.17295e-11 -9.8639e-12 1.06641e-12 -5.0626e-12 -2.70075e-11 -9.62104e-12 3.25435e-12 -1.19562e-11 1.5568e-14 
5.51587e-13 1.38189e-11 4.31115e-12 3.01977e-11 -3.40293e-11 1.23586e-12 4.61814e-11 1.07631e-10 4.61436e-11 
-6.23773e-12 -5.47995e-12 9.41866e-13 -5.6583e-12 -1.78375e-11 -7.04873e-12 3.35003e-12 -5.08715e-12 1.56279e-13 
2.9569e-11 6.0025e-11 2.68782e-11 1.68224e-11 -1.89307e-11 -1.68135e-12 -3.16628e-11 -6.03802e-11 -2.76129e-11 
9.07628e-12 3.77082e-11 1.46579e-12 1.71451e-11 3.23613e-11 1.48519e-11 -6.24428e-12 -1.19562e-11 -8.2733e-13 
-7.64023e-12 -9.40676e-12 -5.1141e-12 -2.89886e-11 1.19562e-11 -2.17952e-12 2.67341e-12 3.28936e-11 1.06701e-11 
3.91584e-12 1.56351e-11 -1.14964e-13 1.72453e-11 1.49138e-11 9.64773e-12 3.79337e-12 -2.56205e-12 2.13504e-12 
1.01689e-11 8.35705e-12 5.55779e-12 5.24811e-12 1.59417e-11 -1.36999e-12 -5.14327e-12 -7.56025e-12 -3.81105e-12 
7.19523e-12 2.07242e-11 -5.77885e-12 -1.7068e-11 -3.87434e-11 -1.67434e-11 -8.06753e-12 -1.99271e-12 -1.61908e-12 
-1.87611e-11 -4.14513e-11 -1.80637e-11 -3.69713e-11 1.93249e-26 -1.83942e-12 3.56727e-11 6.30287e-11 2.96104e-11 
-1.00682e-11 8.96719e-12 -1.74362e-12 5.04702e-11 9.71866e-11 4.4297e-11 3.21684e-12 2.48322e-11 -3.44892e-12 
3.15157e-11 6.66408e-11 2.94469e-11 -1.73667e-11 -1.99271e-11 3.73633e-13 1.29508e-11 2.05324e-11 1.0045e-11 
1.85872e-11 -2.94308e-11 3.27647e-12 4.2466e-11 6.97017e-11 3.36503e-11 -9.55731e-13 -1.6938e-11 3.36269e-12 
-1.62012e-11 -3.33051e-11 -1.48519e-11 1.73077e-12 1.65548e-11 2.47172e-12 4.94791e-11 1.18989e-10 5.05405e-11 
5.0808e-11 1.87884e-11 -3.62958e-12 2.45826e-11 6.35324e-11 2.64345e-11 -1.3677e-11 -5.97812e-12 -1.99271e-12 
6.18518e-12 1.7598e-11 7.13495e-12 2.31728e-11 7.35769e-12 6.89784e-13 1.21202e-11 3.82535e-11 1.51121e-11 
9.8844e-12 -8.11317e-12 1.76141e-12 6.5206e-12 -8.63785e-12 -6.35176e-13 3.19097e-11 1.59417e-12 -9.96354e-13 
-4.56885e-11 -9.34897e-11 -4.17535e-11 -4.89708e-11 -1.6938e-11 -9.96354e-13 -1.35015e-11 -3.70011e-11 -1.51508e-11 
2.11221e-11 9.565e-12 1.59417e-12 -2.67684e-11 -3.5893e-11 -1.87984e-11 -3.63496e-11 -1.49453e-11 -3.42497e-13 
1.81367e-11 3.52617e-11 1.60195e-11 -1.62101e-11 3.78615e-11 -3.36269e-12 2.05266e-11 6.16726e-11 2.46598e-11 
-1.70351e-11 2.21306e-11 -6.75413e-13 1.02979e-10 2.03478e-10 9.1937e-11 5.8875e-13 7.97083e-12 1.15203e-12 
7.76308e-12 6.38276e-11 2.14772e-11 2.23597e-11 4.7825e-11 2.2418e-12 6.52969e-11 1.33734e-10 5.97094e-11 
-6.45445e-11 2.39125e-11 -1.14964e-12 7.81025e-11 1.82707e-10 7.82427e-11 4.59934e-12 8.54018e-12 -3.30932e-12 
-2.25382e-11 -2.75286e-11 -1.502e-11 4.1755e-11 -1.11592e-11 4.38396e-12 3.99812e-11 6.50251e-11 3.15019e-11 
4.96938e-11 9.96354e-12 3.23815e-12 -1.97394e-12 -1.9074e-11 -6.31439e-12 -3.14859e-11 -1.35504e-11 -1.99271e-12 
1.27212e-11 1.13314e-11 7.21578e-12 -3.39482e-11 -3.98542e-11 -2.73997e-12 -9.17534e-11 -2.60458e-10 -1.05663e-10 
-2.53747e-11 2.23183e-11 2.19198e-12 -1.03744e-10 -2.09641e-10 -9.40153e-11 -8.44404e-11 3.23815e-11 -5.66676e-12 
-2.88614e-12 2.12564e-11 5.51108e-12 -2.77028e-11 3.58687e-11 4.73268e-12 4.39865e-11 7.069e-11 3.4403e-11 
-1.2457e-11 -5.05841e-12 3.39144e-12 -1.04545e-11 2.97783e-11 5.79715e-12 1.37055e-11 -3.17588e-11 -4.20337e-13 
7.53153e-11 1.08869e-10 5.52552e-11 3.728e-11 6.08682e-11 -8.69545e-12 -1.86223e-11 -1.20945e-10 -4.18702e-11 
2.21036e-11 -4.98177e-11 -1.74362e-11 -8.67585e-11 -1.49205e-10 -7.0789e-11 8.54656e-13 -1.34278e-10 -4.82848e-12 
-8.01425e-11 -1.67156e-10 -7.41895e-11 3.52796e-11 -6.37667e-11 -5.47995e-12 -4.58875e-13 3.38703e-11 1.00234e-11 
-4.11152e-11 4.59856e-11 9.19711e-13 -2.18204e-10 -5.58485e-10 -2.33007e-10 6.1041e-11 -1.99271e-12 -6.97448e-12 
-1.46896e-11 -5.61569e-11 -2.1254e-11 -2.54169e-11 6.25404e-11 2.94308e-11 -7.00016e-11 -1.60717e-10 -6.92155e-11 
1.95452e-11 5.38031e-11 8.21992e-12 6.84129e-11 1.70209e-10 7.15866e-11 -1.80846e-11 -1.83942e-12 -5.51827e-12 
1.9055e-11 3.41098e-11 1.59494e-11 3.44388e-11 -1.3949e-11 4.98177e-13 -1.74642e-11 3.71518e-11 5.90627e-12 
-5.29811e-11 7.72558e-11 2.69016e-11 -1.50716e-10 -3.4824e-10 -1.49687e-10 4.8659e-11 6.84993e-11 -1.96157e-12 
3.67671e-11 1.75269e-10 6.3611e-11 -1.28972e-10 3.86279e-11 -1.01168e-11 6.52448e-11 1.19548e-10 5.54378e-11 
8.84797e-11 1.13584e-10 2.19198e-11 8.14481e-11 1.0932e-10 5.72305e-11 -3.34746e-11 7.90952e-11 1.14964e-12 
9.30519e-11 1.92933e-10 8.57954e-11 -8.75717e-11 9.76427e-11 8.7181e-12 6.54142e-11 2.0353e-10 8.06831e-11 
1.78991e-11 6.43798e-12 1.14964e-13 1.27896e-11 -2.53219e-11 -3.75968e-12 7.34784e-11 -4.98177e-12 4.98177e-12 
1.28817e-10 2.58282e-10 1.1613e-10 -2.81001e-11 -9.96354e-12 1.14581e-11 4.49711e-11 8.34227e-11 3.85181e-11 
7.7058e-12 3.26079e-11 -3.39666e-13 -5.5453e-13 -1.17584e-11 -3.69387e-12 -8.43873e-13 2.4456e-12 5.43466e-13 
8.85363e-12 9.90585e-12 5.62784e-12 6.27567e-12 -3.48724e-12 1.30771e-12 2.30217e-11 2.62978e-11 1.47959e-11 
-3.65273e-11 -8.45905e-11 -4.63305e-12 -4.22002e-11 -1.22607e-10 -4.94421e-11 -7.08363e-11 -5.19817e-11 -1.47001e-11 
-1.73484e-12 -9.94119e-12 -3.50281e-12 -5.72048e-12 1.1209e-12 -8.61107e-13 -3.38126e-12 -5.37312e-11 -1.71337e-11 
3.0945e-11 -1.92154e-11 -8.54018e-13 -3.87123e-12 -1.20749e-11 -4.78383e-12 -2.80366e-12 5.31092e-12 1.26768e-12 
-1.64828e-10 -2.7635e-10 -1.32354e-10 1.27738e-11 -1.1209e-11 1.30771e-12 -7.46955e-12 8.72597e-13 -1.97909e-12 
7.05392e-13 -6.35176e-12 -1.58794e-12 -5.26304e-11 -1.09044e-10 -4.85022e-11 -3.01221e-11 -8.96719e-12 -7.47265e-13 
2.15723e-12 -5.66003e-12 -1.05084e-12 -1.39037e-12 3.48724e-12 -2.2418e-12 2.16494e-12 7.46329e-12 2.88847e-12 
1.79947e-12 -1.83942e-12 5.7482e-13 -1.01425e-10 -2.28666e-10 -9.90271e-11 4.33079e-12 1.03468e-11 -4.56982e-12 
7.1223e-11 1.25401e-10 5.89873e-11 1.85423e-11 -3.826e-11 -4.48359e-12 6.91178e-12 1.80749e-11 7.49601e-12 
-6.60381e-13 -4.98177e-13 3.36659e-13 1.57496e-11 1.07783e-11 7.95838e-12 -1.85895e-12 9.71445e-12 -2.80225e-12 
7.47892e-11 2.01076e-10 8.27597e-11 5.86928e-11 -3.16342e-11 3.7986e-12 -1.37362e-12 -9.94525e-12 -3.39566e-12 
-5.18015e-13 -1.3187e-12 -1.3187e-13 5.17587e-12 -3.25939e-11 -8.22542e-12 -3.5941e-11 3.65721e-11 2.72532e-12 
6.08202e-11 8.7432e-11 4.44756e-11 3.04691e-11 -3.41607e-11 -1.13157e-11 -7.00449e-12 -1.71065e-11 -7.2333e-12 
2.07263e-12 2.42861e-12 1.49453e-12 9.51629e-12 5.30447e-12 4.44623e-12 3.80309e-12 -9.96354e-14 -8.46901e-13 
-3.47114e-12 -3.42658e-11 -1.13211e-11 -3.83816e-11 1.59417e-11 1.99271e-13 7.91055e-11 1.66278e-10 7.3615e-11 
5.05786e-12 -2.74994e-11 -1.46464e-11 -3.92435e-11 -2.70763e-11 -1.98959e-11 -3.37904e-12 -4.48359e-12 3.28797e-12 
-1.89397e-10 -3.25691e-10 -1.54526e-10 -7.47436e-11 -4.10996e-11 -2.61543e-11 3.93787e-12 -3.12055e-12 2.45196e-13 
5.98868e-12 7.09902e-12 -1.1209e-12 9.87194e-12 3.13126e-11 1.23554e-11 -2.95869e-12 -1.32184e-27 8.91624e-14 
2.29666e-12 5.12857e-11 1.60747e-11 4.73786e-11 -4.34773e-11 2.98906e-12 2.24574e-12 1.80195e-12 1.21431e-12 
3.21263e-13 -8.96719e-12 -6.51911e-13 3.21697e-11 4.5359e-11 2.32586e-11 4.83645e-11 -2.39125e-11 -4.73268e-12 
-6.77612e-12 -3.66946e-11 -1.30412e-11 3.68539e-14 -2.94308e-11 -8.50733e-12 -2.50595e-12 1.24934e-11 2.99625e-12 
-9.53447e-12 5.17338e-12 -1.09216e-12 1.05984e-11 1.20235e-10 3.92501e-11 1.32082e-11 -1.51446e-11 -7.17375e-12 
7.14255e-13 -1.53806e-13 1.68135e-13 -7.88033e-13 -3.98542e-12 -9.34082e-13 5.90866e-11 1.6159e-10 6.6203e-11 
-4.58578e-11 6.07776e-11 5.72904e-12 7.80352e-12 1.24349e-11 6.07153e-12 3.46621e-12 1.93044e-12 9.18514e-13 
7.15479e-11 1.49985e-10 6.64599e-11 -6.21634e-11 -8.1701e-11 -4.98177e-12 -5.09982e-11 -2.16724e-10 -8.03167e-11 
4.68477e-12 -3.31096e-11 -1.79919e-11 -8.57373e-12 -1.77243e-11 -7.8894e-12 -1.75724e-12 -3.36269e-12 -4.06865e-13 
8.61404e-11 1.27484e-10 6.40874e-11 -6.1007e-12 6.6955e-11 6.87484e-12 5.23575e-12 9.3009e-12 4.36099e-12 
1.22112e-12 -7.00561e-13 2.91901e-15 -6.52312e-11 -6.52855e-11 -3.9155e-11 -8.75277e-11 -1.30432e-11 1.08693e-12 
2.77344e-12 -2.94328e-12 -5.09499e-14 -6.2221e-12 8.15199e-13 -1.08693e-12 7.65364e-11 2.30992e-10 9.22585e-11 
-2.56944e-11 2.80512e-11 1.05767e-11 1.59202e-11 -4.3296e-11 -8.21274e-12 9.52895e-11 2.98906e-11 -2.75913e-12 
-5.11269e-12 -2.50367e-12 -2.28491e-12 5.35747e-12 4.48359e-12 -3.73633e-13 5.7862e-12 1.68646e-12 2.2418e-12 
2.19454e-12 4.71352e-12 1.03468e-12 2.92274e-12 3.45573e-11 1.1244e-11 -3.81934e-11 1.70003e-11 1.68135e-12 
8.73042e-11 1.73592e-10 7.82689e-11 -1.88095e-11 -3.12702e-11 -1.2876e-11 1.73642e-11 5.75779e-11 2.24826e-11 
4.57138e-11 -2.02336e-11 6.20805e-12 1.53359e-12 -4.88072e-12 -1.00414e-12 3.06948e-12 1.86816e-12 2.17952e-12 
7.63993e-12 1.20983e-10 3.85869e-11 1.33698e-11 -2.80972e-11 -1.79344e-12 -6.09122e-11 -6.37877e-11 -3.741e-11 
-2.38441e-11 1.92154e-12 -1.86016e-11 -6.07439e-12 -4.64187e-13 -1.96157e-12 -3.48787e-12 -1.15203e-12 3.58065e-12 
-7.14025e-12 -2.31815e-11 -9.09652e-12 -3.85383e-12 7.89551e-12 -6.10263e-13 6.43328e-11 1.17374e-10 5.45119e-11 
-3.11365e-11 -2.16882e-11 -3.97801e-12 -8.32297e-11 -1.57296e-10 -7.21578e-11 2.06701e-11 -4.38396e-11 -4.67041e-12 
1.02011e-11 1.64202e-11 7.9864e-12 6.42383e-13 -3.20257e-12 2.26848e-13 1.4384e-11 4.44631e-11 1.76541e-11 
1.78311e-11 -2.90366e-11 1.06752e-11 1.45851e-10 3.42207e-10 1.46417e-10 -1.64676e-11 2.09234e-11 5.33761e-14 
3.16939e-11 7.59924e-11 3.23059e-11 2.62571e-11 -1.06752e-11 1.59061e-11 3.24057e-11 5.96014e-11 2.76021e-11 
5.73221e-11 -3.41607e-11 1.47318e-11 -1.03026e-10 -1.88874e-10 -8.75702e-11 -1.76573e-11 -1.83614e-11 4.48359e-12 
-1.44477e-11 -4.67346e-11 -1.83547e-11 8.53767e-12 8.96719e-12 9.6077e-12 5.79403e-11 2.93963e-11 2.6201e-11 
-1.19956e-11 2.56205e-12 5.23086e-12 -3.19812e-12 6.09778e-11 1.73339e-11 -4.03481e-11 5.29491e-11 2.88231e-12 
2.12145e-10 4.11287e-10 1.8703e-10 3.0821e-11 9.7785e-11 6.29838e-12 3.27727e-11 7.01765e-11 3.08847e-11 
1.12094e-11 3.33067e-11 -8.54018e-12 8.3807e-12 8.4894e-11 2.79824e-11 -2.59133e-11 7.08835e-11 -1.28103e-12 
-9.30501e-12 1.56547e-12 -2.32186e-12 1.13653e-11 9.8212e-11 1.23833e-11 -4.76482e-11 -1.36499e-10 -5.52443e-11 
1.71784e-11 3.41607e-11 6.40513e-13 4.24319e-11 6.08509e-11 3.09848e-11 -1.81291e-11 -1.45183e-11 -1.06752e-12 
-1.81189e-12 -2.02725e-11 -6.62531e-12 -6.56537e-12 1.70804e-12 1.52656e-11 -7.64233e-12 -3.75272e-11 -1.35509e-11 
6.72764e-12 3.71498e-11 1.45183e-11 2.48437e-11 6.44945e-11 2.68015e-11 4.59305e-11 7.38725e-11 8.32667e-12 
3.94466e-11 5.66971e-11 2.88431e-11 2.01843e-11 5.42301e-11 -6.61864e-12 -1.42007e-10 -2.33294e-10 -1.1259e-10 
-1.26346e-11 4.6971e-11 -1.1209e-11 -3.11112e-11 -6.58999e-11 -2.91033e-11 1.57919e-11 9.26609e-11 1.04617e-11 
-1.71444e-11 -9.16094e-11 -3.26261e-11 1.64248e-11 1.45183e-11 -2.88231e-12 -8.02772e-11 -1.67188e-10 -7.42395e-11 
-3.91787e-12 -3.28797e-11 -1.52656e-11 2.2209e-11 2.07588e-11 1.28903e-11 1.92125e-11 3.67228e-11 -4.27009e-12 
-9.38481e-11 -2.16467e-10 -9.30946e-11 -2.81781e-11 5.93542e-11 3.20257e-13 -6.38111e-11 -1.25007e-10 -5.66454e-11 
1.61026e-11 4.27009e-11 -2.77556e-12 4.70967e-11 9.18146e-11 4.16734e-11 2.00048e-11 2.83961e-11 -1.06752e-13 
-3.91959e-11 -8.07002e-11 -3.59688e-11 -1.91245e-11 3.99253e-11 -2.77556e-12 -2.80254e-11 -7.18546e-11 -2.9964e-11 
8.35028e-12 -1.49453e-11 -3.14919e-12 2.03337e-11 6.7003e-11 2.6201e-11 -8.6556e-12 2.1991e-11 2.93569e-12 
-2.83337e-11 -8.00198e-11 -3.2506e-11 -4.4528e-11 3.90713e-11 -6.43927e-26 -2.15442e-12 7.62547e-12 1.64132e-12 
1.08516e-11 1.36643e-11 -7.47265e-13 8.43525e-11 1.79592e-10 7.91835e-11 -4.67051e-12 1.15292e-11 -6.40513e-13 
1.45717e-11 3.21324e-11 1.40112e-11 3.03592e-11 2.51935e-11 3.7897e-12 5.35587e-11 9.2425e-11 4.37951e-11 
1.69206e-11 1.70804e-12 -4.32346e-12 -1.1718e-12 -1.69717e-12 -8.6069e-13 -1.63761e-11 -1.55858e-11 -7.47265e-13 
3.61903e-11 7.08956e-11 3.21257e-11 7.5859e-12 -7.47266e-12 -1.1209e-12 1.08878e-11 5.23629e-11 1.89752e-11 
5.14647e-12 7.25915e-12 1.22765e-12 -1.42766e-11 -4.11012e-11 -1.66133e-11 -3.06764e-11 4.05658e-12 1.1209e-12 
-2.62863e-12 -1.56527e-11 -5.4844e-12 2.8544e-11 -1.08887e-11 1.1209e-12 3.46304e-11 4.55005e-11 2.40393e-11 
-9.80794e-12 -5.12411e-12 -1.86816e-12 3.26714e-11 9.5965e-11 3.85909e-11 1.63879e-11 8.54018e-13 -2.56205e-12 
-2.74484e-11 -8.17058e-11 -3.27462e-11 2.39312e-13 5.55112e-12 3.46945e-12 -8.61723e-11 -1.81109e-10 -8.01843e-11 
-1.91168e-11 -2.35414e-26 2.02829e-12 -2.29366e-11 -4.54516e-11 -2.05164e-11 -1.12155e-11 -2.56205e-12 3.20257e-13 
-5.64688e-11 -9.71209e-11 -4.60769e-11 -1.09109e-12 -4.48359e-12 2.29517e-12 -3.7353e-12 -5.93152e-11 -1.89152e-11 
-1.32416e-11 -1.96424e-11 4.6971e-12 -5.94027e-11 -1.15738e-10 -5.25421e-11 -2.04207e-11 -2.83961e-11 2.34855e-12 
1.40569e-11 5.13956e-11 1.96357e-11 2.7293e-11 -1.72939e-11 -3.84308e-12 -1.46908e-11 -4.77593e-11 -1.8735e-11 
-3.58604e-12 -1.75074e-11 4.80385e-12 -2.87225e-11 -8.66366e-11 -3.46077e-11 -2.59125e-11 -1.92154e-11 2.21511e-12 
-2.05204e-11 -5.83428e-11 -2.3659e-11 2.79953e-11 -1.66533e-11 2.48199e-12 -2.56369e-12 -2.2056e-11 -7.38592e-12 
-4.9197e-12 -2.4126e-11 2.98906e-12 -1.23638e-11 -2.74682e-11 -1.19496e-11 -2.12463e-11 -2.3272e-11 -3.41607e-12 
-3.44996e-11 -4.60983e-11 -2.41794e-11 -5.09255e-12 -2.13504e-12 -3.73633e-12 1.96718e-12 -1.59784e-11 -4.20337e-12 
-5.69099e-13 1.19562e-11 -6.29838e-12 -2.79363e-11 -4.70571e-11 -2.2498e-11 9.90406e-12 -8.32667e-12 -1.38778e-12 
-2.72919e-11 -5.73092e-11 -2.53803e-11 -2.50042e-11 -1.08887e-11 4.80385e-12 -9.15082e-12 -3.46843e-11 -1.31505e-11 
4.98943e-12 1.11022e-11 -5.07073e-13 -4.29343e-12 -1.40546e-11 -5.50441e-12 -3.74893e-12 -1.17427e-11 -2.2418e-12 
-1.04156e-11 -2.32113e-11 -1.00881e-11 4.33847e-12 6.61864e-12 -1.86816e-13 -2.79642e-11 -2.92149e-11 -1.71537e-11 
-1.20051e-11 -1.08887e-11 2.48199e-12 1.91918e-11 3.4985e-11 1.6253e-11 -2.8403e-12 -9.18069e-12 -2.0016e-12 
-5.45653e-12 -2.51013e-11 -9.16735e-12 2.4145e-12 -2.56205e-12 -1.5746e-12 1.38703e-11 2.65621e-11 1.21297e-11 
5.4781e-12 1.02482e-11 1.84148e-12 -7.19782e-12 2.26054e-12 -1.48119e-12 -4.19287e-12 -2.88231e-12 2.64212e-12 
1.39312e-11 2.81692e-11 1.26301e-11 -1.33077e-11 1.78276e-11 -1.41447e-12 1.38223e-12 -4.78496e-12 -1.02082e-12 
-1.18087e-12 1.02482e-11 6.67201e-13 6.01732e-12 1.75349e-11 7.06566e-12 -5.72944e-12 -5.97812e-12 -2.29517e-12 
1.16446e-11 3.95297e-11 1.53523e-11 -2.24421e-13 8.43342e-12 1.86816e-12 -3.26987e-12 -2.74214e-11 -9.20738e-12 
-4.74498e-12 -5.01735e-12 -2.13504e-12 6.46376e-12 2.00241e-11 7.94637e-12 -9.44019e-13 -8.00642e-13 -3.25594e-12 
-4.49473e-12 2.15953e-12 -7.00561e-13 1.4312e-12 8.70031e-12 -3.26929e-12 1.95824e-11 4.74047e-11 2.00961e-11 
9.84139e-12 4.80385e-12 2.93569e-13 1.06055e-11 2.20477e-12 3.84308e-12 3.37574e-12 -1.1209e-12 -6.40513e-13 
-4.31994e-13 1.36608e-12 2.80225e-13 1.00894e-12 -2.82893e-12 -3.29597e-12 -5.69194e-12 -8.38601e-12 -4.22338e-12 
-1.43105e-13 -8.54018e-13 -2.80225e-12 -4.32439e-12 -5.01642e-12 -2.80225e-12 -2.6157e-12 -1.01415e-12 2.26848e-13 
-4.65346e-12 -2.31021e-11 -8.32667e-12 -8.2826e-12 -1.70804e-12 1.3344e-14 4.45393e-12 1.50283e-11 5.84468e-12 
1.54055e-12 -6.05819e-12 1.73472e-13 -4.57882e-13 3.05997e-12 7.80626e-13 -4.58383e-12 -2.909e-12 5.33761e-14 
1.53302e-12 1.46939e-12 9.00722e-13 1.36894e-12 -9.34082e-13 -1.80812e-12 6.03626e-12 1.09774e-11 5.10409e-12 
1.21462e-12 -1.04083e-12 -1.36109e-12 5.98796e-12 9.02407e-12 4.50361e-12 5.66763e-13 9.6077e-13 -2.4086e-12 
4.14403e-12 2.9283e-12 2.1217e-12 3.65168e-13 1.04083e-12 -2.26848e-13 3.67902e-12 3.05971e-12 2.02162e-12 
-5.28142e-13 3.00241e-13 -9.34082e-14 3.4538e-12 4.81949e-12 2.48199e-12 5.13988e-13 6.85549e-13 -4.67041e-13 
6.04787e-12 8.764e-12 4.44356e-12 9.52876e-13 3.60289e-13 8.13986e-13 1.54979e-12 4.51818e-13 6.00481e-13 
-1.43804e-12 2.05498e-12 8.67362e-14 9.89497e-13 -1.92358e-12 -2.80225e-13 1.06774e-12 -9.34082e-14 2.2935e-13 
2.50845e-12 2.16196e-12 1.40112e-12 -3.24969e-12 -6.93889e-13 -4.67041e-13 2.22586e-12 4.06363e-12 1.88685e-12 
-4.77142e-12 2.93613e-12 -6.83437e-13 8.32558e-12 1.16237e-11 5.9848e-12 1.25055e-12 -2.98906e-12 -1.0008e-14 
5.6536e-12 1.21607e-11 5.34428e-12 2.15471e-12 -1.20096e-13 -4.33681e-13 2.83698e-12 2.90095e-12 1.72138e-12 
1.01629e-12 2.93569e-13 -4.50361e-14 5.91368e-12 4.16106e-12 3.02242e-12 -5.51262e-13 -6.10489e-13 -1.61796e-13 
3.6556e-12 2.08233e-12 1.72138e-12 7.53186e-13 5.50265e-13 -2.40679e-13 4.82297e-12 2.0492e-12 2.06165e-12 
5.39052e-13 5.24543e-14 -1.27543e-12 6.64819e-12 9.2312e-12 4.76382e-12 -1.24542e-12 -1.58127e-12 -6.67201e-15 
3.73721e-12 3.20169e-12 2.08167e-12 -7.69496e-13 -1.22765e-12 -4.67041e-13 1.8485e-12 1.02047e-12 8.6069e-13 
-9.4908e-13 -1.38778e-12 -6.13825e-13 2.85296e-12 3.68561e-12 1.96157e-12 9.25136e-13 -1.94823e-12 -2.71885e-13 
6.58442e-12 1.10964e-11 5.30425e-12 5.48793e-13 1.81479e-12 -8.05646e-13 9.02e-12 1.2664e-11 6.50521e-12 
2.34738e-12 1.49453e-12 -1.27185e-14 -7.02978e-13 -9.77208e-12 -3.14252e-12 1.75573e-13 -1.62797e-12 7.33921e-13 
6.67078e-13 2.60221e-12 9.80786e-13 -1.58718e-12 -4.08327e-12 3.41941e-13 9.34596e-12 1.76757e-11 8.1065e-12 
-2.93113e-12 4.80385e-13 1.60128e-13 -7.03245e-15 -3.7293e-12 -1.1209e-12 2.40812e-12 -4.32346e-12 7.67282e-14 
2.26968e-12 1.86697e-12 1.24099e-12 -3.02029e-13 3.25594e-12 1.668e-13 -2.92673e-13 -1.30861e-12 -4.80385e-13 
-6.17477e-12 -4.59035e-12 9.07394e-13 8.69929e-12 1.83891e-11 8.12651e-12 9.8935e-12 -1.0355e-11 6.93889e-13 
1.37994e-11 3.37053e-11 1.42514e-11 -5.6144e-12 -3.09581e-12 1.14759e-12 9.28861e-12 2.41382e-11 1.0028e-11 
7.51204e-12 -9.18069e-12 9.87458e-13 1.70556e-11 3.86557e-11 1.67134e-11 -4.18289e-12 5.01735e-12 1.22765e-12 
3.08749e-12 6.65365e-12 2.92234e-12 9.412e-14 5.65787e-12 -5.07073e-13 1.00944e-11 1.46588e-11 7.42595e-12 
-1.76325e-12 -1.44115e-11 1.23432e-12 -1.06412e-12 3.59948e-12 7.6061e-13 -6.74269e-12 3.20257e-12 -1.1209e-12 
7.58938e-12 1.05585e-11 5.44436e-12 -1.81983e-12 -5.12411e-12 4.27009e-13 -9.37904e-12 -1.80429e-11 -8.22659e-12 
1.65825e-12 -9.71445e-12 -1.37443e-12 3.75013e-12 -6.01861e-12 -6.80545e-13 -1.82327e-12 -3.62958e-12 -6.93889e-13 
-1.63985e-11 -3.39085e-11 -1.50921e-11 -1.16022e-11 -2.56205e-12 -2.42861e-12 -2.5629e-11 -6.61779e-11 -2.75421e-11 
1.79715e-11 -5.12411e-12 -1.20096e-12 -1.89159e-11 -3.39931e-11 -1.58727e-11 -2.2234e-11 -1.68668e-11 -2.29517e-12 
9.32722e-12 1.51591e-11 7.34589e-12 1.56991e-11 1.23833e-11 -2.26848e-12 -1.5353e-11 -3.90907e-11 -1.63331e-11 
-1.55115e-11 2.02829e-11 1.5746e-12 -4.50459e-11 -8.9662e-11 -4.04124e-11 -2.86167e-11 2.3699e-11 -7.73954e-13 
-1.78601e-11 -4.51238e-11 -1.88951e-11 1.63728e-11 3.41607e-12 -4.00321e-13 -4.45314e-11 -9.66484e-11 -4.23539e-11 
-9.26327e-12 1.47318e-11 -1.1209e-12 -3.2457e-11 -5.24777e-11 -2.54804e-11 -3.14057e-11 2.02829e-11 1.04083e-12 
1.63461e-11 3.14922e-11 1.43515e-11 -1.91597e-12 1.06752e-12 -1.25434e-12 -4.9971e-11 -1.10424e-10 -4.81186e-11 
-1.01492e-11 -8.54018e-12 1.7881e-12 -5.81334e-11 -8.25794e-11 -4.22138e-11 -2.40491e-11 2.17775e-11 1.76141e-12 
-3.33813e-11 -8.44464e-11 -3.53483e-11 -1.72122e-11 1.49453e-11 -5.33761e-13 -2.59578e-11 -8.30629e-11 -3.27062e-11 
9.24668e-12 -2.13504e-11 -1.06752e-12 -2.26106e-11 -4.61778e-11 -2.06365e-11 -9.81068e-12 1.94289e-11 -1.04083e-12 
-5.00531e-11 -1.1648e-10 -4.996e-11 -1.33694e-11 -3.20257e-12 1.06752e-12 -1.54369e-11 -1.74562e-11 -9.86791e-12 
-5.56702e-13 -1.68668e-11 -2.64212e-12 -1.03233e-11 -2.61059e-11 -1.09288e-11 -7.76345e-12 2.47665e-11 8.54018e-13 
-1.53787e-11 -1.69138e-11 -9.68776e-12 -2.52779e-11 1.19562e-11 5.87137e-13 8.50504e-12 8.30843e-12 5.04404e-12 
3.75145e-12 2.13504e-13 7.47265e-13 -4.52387e-11 -9.13374e-11 -4.09728e-11 1.46615e-12 2.77556e-12 -1.06752e-13 
-1.64239e-11 -3.59514e-11 -1.57126e-11 -4.19675e-11 5.76462e-12 -8.54018e-13 -1.24731e-11 -1.86852e-11 -9.34749e-12 
-1.14973e-11 2.77556e-12 -1.49453e-12 -2.24924e-12 -2.62403e-11 -8.54685e-12 2.11432e-11 -1.02482e-11 1.06752e-13 
-1.75958e-11 -5.07257e-11 -2.04964e-11 1.66751e-11 -1.02482e-11 6.40513e-13 1.59724e-11 2.05902e-11 1.09688e-11 
-1.70164e-11 -1.15292e-11 -1.22765e-12 2.3591e-11 7.84241e-11 3.06045e-11 -1.18439e-11 -9.39419e-12 1.01415e-12 
4.25262e-11 9.01134e-11 3.97919e-11 1.29263e-11 -4.6971e-12 -3.41607e-12 -1.28249e-11 -2.94089e-11 -1.26702e-11 
1.82921e-11 -2.98906e-12 -1.76141e-12 6.28611e-11 1.42904e-10 6.17295e-11 -2.03924e-11 6.61864e-12 -3.52282e-12 
4.72514e-11 1.21617e-10 5.06606e-11 -8.82777e-12 -2.498e-11 -2.66881e-14 -5.35567e-12 -2.26668e-11 -8.40674e-12 
1.55501e-11 -1.62263e-11 2.58874e-12 -1.34847e-11 -1.57388e-11 -8.76703e-12 -2.77926e-11 8.96719e-12 1.54791e-12 
-6.96628e-12 -2.73279e-11 -1.02882e-11 8.08916e-12 9.39419e-12 -5.87137e-13 -9.59799e-11 -2.21608e-10 -9.52763e-11 
-1.22534e-11 7.68616e-12 6.93889e-13 -9.0058e-11 -1.93236e-10 -8.49881e-11 -2.6267e-11 1.49453e-12 -5.55112e-12 
-5.30581e-11 -1.24751e-10 -5.33427e-11 -4.03928e-11 -5.65787e-11 -4.21671e-12 -5.67061e-11 -1.36315e-10 -5.79064e-11 
7.05943e-12 -7.17375e-11 -1.92154e-12 -1.02446e-11 -1.40415e-11 -7.28584e-12 -2.55804e-11 -5.0387e-11 1.76141e-12 
1.13526e-11 1.70034e-11 8.50682e-12 2.86872e-11 -3.15987e-11 -2.82893e-12 -6.63425e-11 -1.4049e-10 -6.20497e-11 
6.50878e-13 5.97812e-12 -4.32346e-12 -1.28498e-10 -2.99845e-10 -1.28503e-10 1.45648e-12 -1.83614e-11 -6.245e-12 
-5.10788e-11 -8.90335e-11 -4.20337e-11 -2.66833e-11 -6.57594e-11 -2.02829e-12 -2.00528e-12 1.93856e-12 -2.0016e-14 
-8.56031e-12 -4.6544e-11 -8.32667e-12 -2.17197e-11 -2.46508e-11 -1.39111e-11 -1.26216e-11 -1.19562e-11 -3.14919e-12 
8.12076e-12 8.35911e-12 4.94396e-12 -3.63077e-11 -4.14199e-11 1.54791e-12 -1.00006e-10 -2.17715e-10 -9.53164e-11 
-4.39925e-12 -7.04565e-11 -6.72539e-12 -1.34558e-10 -3.07797e-10 -1.32706e-10 -4.44596e-11 -5.29491e-11 -1.85749e-11 
-1.40941e-10 -2.1788e-10 -1.07646e-10 -3.17095e-11 -1.15292e-11 -1.28103e-11 -4.8958e-11 -1.34789e-10 -5.51242e-11 
3.08354e-12 -2.64745e-11 -1.19562e-11 -8.0997e-11 -2.02363e-10 -8.50081e-11 -8.24812e-11 -5.50841e-11 2.01371e-25 
-2.40224e-11 -6.52492e-11 -2.67815e-11 -1.99068e-11 1.40913e-11 -5.97812e-12 -6.71169e-11 -1.17831e-10 -5.54845e-11 
-7.6662e-11 -3.84308e-11 -1.92154e-12 -1.44291e-10 -2.70175e-10 -1.2434e-10 -6.61385e-11 1.96424e-11 -6.08488e-12 
-1.86403e-11 -6.46264e-11 -2.498e-11 -9.89677e-12 8.54018e-12 -1.1636e-11 1.16105e-11 8.20645e-11 2.81025e-11 
1.33501e-11 1.06752e-11 -9.50095e-12 -8.49971e-11 -1.22503e-10 -6.22499e-11 -1.48414e-11 9.8212e-12 -1.21698e-11 
4.74389e-11 9.681e-11 4.32747e-11 1.42395e-11 -2.98906e-11 -9.39419e-12 9.35284e-11 2.15386e-10 9.26743e-11 
2.68083e-11 2.47665e-11 -9.39419e-12 5.07864e-11 8.4522e-11 4.05925e-11 7.94807e-12 4.14199e-11 4.27009e-12 
8.50342e-11 1.4495e-10 6.89953e-11 1.36239e-11 3.64559e-11 2.04831e-12 9.33678e-11 1.83587e-10 8.30866e-11 
2.79819e-11 1.83614e-11 1.12624e-11 -4.44514e-11 -5.89203e-11 -3.10115e-11 1.01393e-10 -2.23183e-11 -8.76792e-12 
5.51911e-11 1.2859e-10 5.51342e-11 -2.97425e-11 -4.28432e-11 -2.98906e-12 7.16704e-12 1.08474e-11 5.40433e-12 
6.77936e-12 -1.49453e-12 -2.93569e-13 7.18355e-12 7.89077e-11 2.58274e-11 5.16465e-11 -2.61543e-11 -2.02384e-12 
7.92101e-12 -1.81473e-13 2.32186e-12 -4.82891e-12 -1.81479e-12 2.16173e-12 6.76085e-12 -1.09642e-11 -1.26101e-12 
6.65244e-11 3.09804e-11 -9.4498e-12 7.77953e-12 8.87827e-12 4.99734e-12 1.54312e-12 -1.61908e-12 2.86452e-12 
4.81145e-11 5.63859e-11 3.13501e-11 4.85711e-11 -8.4441e-11 -1.94289e-11 -1.93774e-11 2.69085e-11 2.25931e-12 
1.26183e-11 -6.33308e-11 -2.07833e-11 -3.42223e-11 -3.27569e-11 -2.00937e-11 -8.98214e-12 -7.03309e-12 -8.61553e-12 
-9.04826e-11 -2.40402e-10 -9.92654e-11 1.02847e-11 -7.03309e-13 -1.0198e-11 -1.89078e-11 -5.50403e-11 -2.21844e-11 
-2.03131e-11 -6.37667e-11 -1.49453e-12 -1.50258e-11 -4.76745e-11 -1.88101e-11 -6.84667e-11 3.06379e-11 3.36269e-12 
3.99229e-11 9.3431e-11 4.00062e-11 1.05788e-11 6.75176e-11 8.61553e-12 -1.12528e-10 -2.91494e-10 -1.21206e-10 
3.13979e-12 5.739e-11 1.11592e-11 5.03386e-11 6.35415e-11 3.4164e-11 3.56725e-11 5.97812e-11 1.17072e-11 
-1.00575e-10 -2.49064e-10 -1.04892e-10 -2.54547e-12 2.16707e-11 3.17588e-12 -4.12595e-11 -8.1325e-11 -3.67754e-11 
3.78215e-12 4.21985e-12 -5.45064e-12 4.94464e-11 6.53834e-11 3.44489e-11 -6.86401e-11 3.10862e-11 -8.76792e-12 
-5.96366e-11 -1.68824e-10 -6.85383e-11 2.81336e-11 -2.29161e-11 -4.17223e-12 1.72089e-10 2.91216e-10 1.38991e-10 
3.75169e-11 -2.39125e-11 -2.56205e-12 -4.60528e-11 -1.02466e-10 -4.45557e-11 -2.34709e-11 -7.7364e-12 -6.98913e-12 
-2.54398e-11 -2.56011e-11 -1.53123e-11 -9.3548e-13 6.92822e-11 -1.37443e-12 -2.99059e-11 -1.36205e-10 -4.98333e-11 
6.25424e-11 2.45637e-25 6.4763e-12 4.68545e-11 1.10071e-10 4.70777e-11 -4.99353e-11 -5.80732e-11 -6.40513e-12 
2.64544e-11 3.54698e-11 1.85772e-11 -1.78864e-11 4.25502e-11 -1.80223e-12 4.07809e-11 1.15647e-10 4.69283e-11 
-2.45291e-11 -7.57229e-11 3.58687e-12 4.69679e-11 9.0887e-11 4.13565e-11 3.7583e-11 1.94289e-11 5.16859e-12 
-3.85957e-11 -1.11658e-10 -4.50761e-11 -2.69507e-11 -3.67228e-11 1.0355e-11 -5.5743e-11 -3.42036e-11 -2.6984e-11 
-1.79828e-11 2.07476e-11 -4.39568e-14 8.20654e-11 1.7374e-10 7.67415e-11 9.63221e-12 -4.9533e-11 -8.21992e-12 
-5.0236e-11 -1.29186e-10 -5.38265e-11 5.65947e-12 5.18104e-11 -2.86452e-12 -4.74085e-11 -7.57569e-11 -3.69496e-11 
-6.73237e-12 -2.2845e-11 -1.32373e-11 3.3566e-11 9.35241e-11 3.8127e-11 -2.30678e-11 -2.67257e-11 -4.83525e-12 
-4.13764e-11 -5.60978e-11 -2.92423e-11 -3.90981e-11 -5.62647e-11 -5.45064e-12 -1.38067e-11 -6.27101e-11 -2.29551e-11 
5.90109e-11 -4.13487e-11 -8.65583e-12 -6.20414e-11 -7.44012e-11 -4.09328e-11 -5.19338e-11 -1.79344e-11 -4.27009e-13 
-6.84282e-11 -1.22125e-10 -5.71658e-11 -3.14817e-11 -1.09013e-11 -7.34078e-12 8.95567e-12 -4.86656e-13 2.5407e-12 
7.36438e-11 3.20328e-11 1.00756e-11 6.72066e-12 4.72184e-12 3.43275e-12 2.65186e-11 5.97812e-12 -5.23086e-12 
-2.75535e-11 -4.9108e-11 -2.29984e-11 -2.96634e-11 4.6971e-11 1.19562e-11 1.41808e-11 8.89653e-12 6.9232e-12 
2.05667e-12 4.50118e-11 8.79136e-13 -2.08164e-11 -2.57126e-11 -1.39587e-11 -6.20366e-11 2.97972e-11 9.13065e-12 
-9.24493e-12 -4.3375e-11 -1.5786e-11 2.0525e-11 -1.11093e-10 -2.98906e-12 -3.05824e-11 -1.51877e-11 -1.3731e-11 
-4.52976e-12 -7.97083e-13 7.97083e-12 7.28551e-11 1.83743e-10 7.69793e-11 -5.79741e-12 1.9341e-11 1.05496e-12 
1.11163e-11 -1.85889e-11 -2.2418e-12 -2.85482e-13 -3.33067e-11 -8.96719e-12 -7.14716e-11 -1.25075e-10 -5.89639e-11 
-1.07132e-11 3.19456e-11 -1.47896e-12 2.1808e-11 -9.10453e-12 3.81105e-12 -2.5266e-11 5.97812e-12 -3.03888e-12 
-3.82237e-11 -6.63935e-11 -3.13852e-11 -2.37405e-11 5.08141e-11 -7.05232e-12 1.576e-11 7.33864e-11 2.67439e-11 
-3.00931e-11 -2.02696e-11 -6.70204e-12 -5.31399e-11 -1.37125e-10 -5.70796e-11 2.4014e-11 -2.27629e-11 5.46079e-13 
2.02339e-11 3.17011e-11 1.55805e-11 1.27137e-11 -9.08675e-11 -6.87484e-12 5.97962e-11 1.60647e-10 6.6133e-11 
-5.69743e-11 -1.15826e-11 1.30771e-12 -2.85145e-11 -7.42345e-11 -3.08247e-11 -2.5597e-11 1.28103e-11 -5.07073e-12 
-9.02538e-11 -2.11024e-10 -9.03832e-11 7.93473e-12 -3.67885e-12 -6.09309e-12 -9.84306e-12 -1.84463e-11 -8.4868e-12 
1.09306e-11 -2.56205e-11 -1.76141e-12 -1.21931e-11 -4.8172e-11 -1.81095e-11 -3.15516e-11 -1.6253e-11 -6.46852e-12 
-6.26107e-11 -9.77011e-11 -4.80935e-11 -1.1593e-11 1.86816e-12 -1.02749e-12 -4.54564e-11 -1.38989e-10 -5.53336e-11 
4.56201e-11 2.2188e-11 -4.97219e-12 -5.36233e-11 -9.68306e-11 -4.51362e-11 2.07619e-11 -9.18069e-12 -3.17588e-12 
-8.2454e-11 -1.61867e-10 -7.32962e-11 -6.3281e-11 1.56926e-11 -5.55779e-12 9.66432e-11 1.54912e-10 7.54666e-11 
3.90577e-11 -5.51827e-11 1.83942e-12 -1.47658e-10 -3.25562e-10 -1.41966e-10 -3.17729e-11 -2.02336e-11 6.78287e-12 
2.63979e-11 -1.82247e-11 2.45196e-12 1.81514e-11 -1.49453e-12 1.02749e-12 7.80844e-12 2.85624e-11 1.09112e-11 
-2.24549e-11 -6.72539e-11 5.13745e-13 6.27845e-11 7.11228e-11 4.01722e-11 -3.18692e-13 -5.08941e-11 2.70884e-12 
-5.99736e-11 -1.55099e-10 -6.45217e-11 3.5326e-11 -3.76124e-11 -6.22721e-12 1.28221e-11 4.34096e-11 1.68695e-11 
3.19081e-11 -2.11227e-11 -1.6938e-12 -6.77542e-11 -1.83459e-10 -7.53639e-11 -1.55541e-11 -5.08141e-11 -6.10999e-12 
3.71364e-11 4.37952e-11 2.42795e-11 4.3142e-11 2.89023e-11 4.92895e-13 -5.90788e-11 -1.17852e-10 -5.30792e-11 
3.24029e-11 5.89094e-11 -4.29288e-12 3.73871e-11 4.8415e-11 2.57406e-11 -3.00162e-12 3.70831e-11 -3.93982e-12 
-2.16159e-11 -7.82725e-11 -2.99665e-11 -2.53243e-11 1.75607e-11 -5.7446e-12 -8.13593e-11 -2.20349e-10 -9.05125e-11 
-1.40381e-12 2.4553e-11 4.27009e-12 -2.59607e-11 -8.64166e-11 -3.37132e-11 8.04622e-12 -2.20731e-11 -6.49546e-12 
-3.9673e-11 -1.00688e-10 -4.21084e-11 1.2651e-11 2.4311e-11 -1.19562e-12 3.09398e-11 7.87564e-11 3.29089e-11 
-4.08524e-11 -2.50334e-11 -1.82146e-12 2.41886e-11 1.23073e-11 1.09488e-11 -2.93859e-11 -1.87884e-11 -6.40513e-13 
-5.11348e-11 -9.27857e-11 -4.31761e-11 9.07831e-13 2.29928e-11 -1.8969e-12 1.56667e-11 7.01354e-11 2.57406e-11 
1.66459e-11 -3.07446e-11 6.40513e-13 -3.79702e-12 -1.13818e-11 -4.55365e-12 -4.49215e-13 -7.84629e-12 1.1676e-12 
-8.1135e-12 -9.57911e-12 -5.30778e-12 -1.13406e-11 -8.4397e-12 -7.03309e-13 3.11067e-11 6.12956e-11 2.77207e-11 
-4.17376e-11 2.75913e-11 -2.29928e-13 1.90403e-11 2.73135e-11 1.39061e-11 5.27311e-12 -1.08353e-11 1.1209e-12 
2.77196e-11 4.63648e-11 2.22253e-11 -3.77128e-11 -1.79344e-11 -2.14839e-12 2.13753e-11 3.02661e-11 1.54924e-11 
-3.71832e-12 -2.34321e-11 7.79291e-12 -1.67263e-11 -4.18873e-11 -1.75841e-11 2.83661e-12 -5.23086e-12 1.5568e-12 
4.43358e-12 4.08992e-12 2.55705e-12 -1.90735e-11 1.02749e-12 3.87644e-12 3.96238e-11 1.02961e-10 4.27755e-11 
1.35597e-11 1.3187e-11 1.36266e-12 1.7362e-11 1.9939e-11 1.11903e-11 -8.84978e-12 -3.97545e-11 -5.82867e-12 
4.31321e-11 1.07022e-10 4.50461e-11 1.20678e-12 -1.99271e-11 7.47265e-13 2.17391e-11 1.47568e-11 1.09488e-11 
2.14421e-11 -2.43395e-11 -2.66881e-12 -7.71956e-12 -1.90941e-11 -8.04409e-12 -4.00021e-11 1.96926e-11 -4.92316e-12 
-5.68413e-11 -4.70419e-11 -3.1165e-11 -2.18531e-12 -8.54018e-12 -2.02829e-12 -4.10615e-12 -2.55509e-11 -8.89713e-12 
-1.8055e-12 1.36999e-11 -1.65021e-12 -6.3964e-11 -1.68022e-10 -6.95958e-11 -3.0764e-12 6.40513e-12 -2.2418e-12 
1.37981e-11 1.99387e-11 1.01211e-11 -3.76374e-12 -2.81323e-12 -4.39568e-14 -1.41034e-11 -6.0448e-11 -2.23654e-11 
-9.92244e-12 -1.1209e-11 -6.35176e-12 -2.14645e-11 -2.70299e-11 -1.45483e-11 2.53551e-11 -2.39125e-11 4.98177e-13 
1.36326e-11 7.55054e-11 2.67414e-11 -4.40033e-12 -1.62263e-11 -2.34855e-12 -2.65922e-11 -5.43433e-11 -2.42806e-11 
-8.00129e-14 7.38474e-12 -1.71431e-12 3.36704e-11 8.88945e-11 3.67695e-11 2.35926e-11 -8.96719e-12 2.13504e-12 
-1.21646e-11 -2.65998e-11 -1.16293e-11 4.71012e-12 2.39125e-11 -1.99271e-12 -4.45963e-13 -1.79866e-11 -5.52976e-12 
-2.68626e-12 2.47096e-11 7.27338e-12 4.75573e-11 1.14918e-10 4.87426e-11 2.0187e-12 2.26817e-11 1.14288e-12 
-2.66457e-12 -2.27272e-12 -1.48119e-12 -8.30424e-12 -1.29437e-11 2.51535e-12 3.03455e-11 6.21286e-11 2.77422e-11 
2.19445e-11 1.38711e-11 3.96596e-12 -2.04387e-11 -4.39462e-11 -1.93155e-11 3.66319e-12 -1.668e-11 1.93488e-13 
-7.97097e-12 3.90104e-12 -1.22098e-12 -1.81906e-11 1.87884e-11 -1.70804e-12 1.38137e-11 5.49787e-11 2.06377e-11 
-4.02147e-12 -2.26323e-11 3.64017e-13 -1.83037e-11 -3.67353e-11 -1.65117e-11 1.03878e-11 -3.90877e-12 -2.65854e-13 
1.14413e-11 1.63581e-12 3.92314e-12 1.19578e-11 -4.24423e-12 2.16152e-12 -7.99411e-12 -3.03616e-11 -1.15067e-11 
4.56622e-12 2.2418e-12 -2.89565e-12 -4.04084e-11 -6.42088e-11 -3.13852e-11 -9.80422e-12 -9.96354e-13 3.48724e-12 
-2.86369e-13 -1.47368e-11 -4.50695e-12 -1.25944e-11 -1.99271e-12 1.61908e-12 1.51225e-11 2.94799e-11 1.33807e-11 
-1.42675e-11 -2.46598e-11 -1.1209e-12 1.9766e-11 4.57296e-11 1.96487e-11 -2.33543e-11 -1.72311e-11 -3.51654e-13 
7.11603e-12 2.71959e-11 1.02936e-11 -1.11386e-13 -3.59684e-11 -6.60085e-12 2.47614e-11 5.6815e-11 2.44729e-11 
9.8093e-12 -9.96354e-12 -6.22721e-14 1.99985e-11 7.60118e-11 2.88031e-11 -5.98092e-12 -2.93569e-11 -7.64613e-12 
1.97442e-11 5.05317e-11 2.10828e-11 2.4956e-12 1.49453e-12 -1.24727e-12 4.34814e-11 8.01767e-11 3.70974e-11 
1.50879e-11 2.16707e-11 -3.77944e-12 4.99839e-11 9.73675e-11 4.42054e-11 1.14714e-11 -6.22721e-12 1.68135e-12 
2.89042e-11 5.50297e-11 2.51802e-11 2.64843e-12 2.72218e-12 2.66881e-12 -5.27557e-12 1.92387e-12 -1.00551e-12 
3.53216e-12 -4.92316e-12 -1.89564e-13 -1.09283e-11 -3.78441e-11 -1.46317e-11 6.21661e-12 -3.5762e-12 3.25594e-12 
2.08478e-11 3.97118e-11 1.81679e-11 -1.71282e-11 -1.03372e-11 -3.73633e-13 5.51333e-12 1.06152e-11 4.83854e-12 
-7.83599e-12 -9.68954e-12 -2.65279e-12 1.06917e-11 2.34847e-11 1.02529e-11 1.99872e-12 2.90115e-12 1.68684e-12 
-2.42697e-11 -1.79975e-11 -1.26802e-11 -1.33387e-11 -1.15826e-11 1.49453e-12 2.15165e-12 3.68636e-12 1.7514e-12 
-5.25064e-12 -8.09538e-13 3.28875e-12 1.29224e-11 1.91283e-11 9.61521e-12 -3.93302e-12 -3.17588e-12 -2.75554e-12 
-1.19093e-11 -2.23848e-11 -1.02882e-11 1.11916e-11 4.6971e-12 1.09588e-12 -1.20346e-11 -6.06663e-13 -3.79237e-12 
-1.74378e-12 3.78615e-12 -7.72174e-13 7.06213e-13 -6.95738e-12 -1.87535e-12 1.94637e-12 4.59856e-13 -6.68228e-13 
7.5895e-13 8.18155e-12 2.68215e-12 -1.04519e-12 4.27009e-13 -4.59035e-12 -1.36294e-11 -3.09147e-11 -1.33632e-11 
-2.98192e-12 -3.15253e-12 4.08661e-13 1.53012e-11 4.51466e-12 5.94476e-12 -7.68023e-12 4.27009e-12 3.38938e-12 
1.7908e-11 3.35443e-11 1.54357e-11 7.53299e-12 -9.96354e-13 6.30505e-13 -5.35993e-12 -6.6497e-12 -3.60289e-12 
-5.60517e-13 1.45183e-11 1.94823e-12 6.06391e-12 1.87717e-11 7.45068e-12 1.42507e-12 1.49453e-12 -6.69654e-14 
4.62437e-12 1.59254e-11 6.16494e-12 4.26914e-12 6.68143e-12 -6.15395e-13 1.54599e-11 4.18304e-11 1.71871e-11 
-4.29213e-12 5.97812e-12 8.17322e-13 -3.85536e-12 5.92368e-12 6.20497e-13 -1.72877e-11 2.13504e-13 -9.6077e-13 
1.37385e-12 -6.04607e-13 2.30773e-13 -1.01262e-12 -1.05496e-12 1.0948e-12 -1.60488e-11 -4.93369e-11 -1.96157e-11 
-2.83395e-12 7.9397e-12 4.0399e-12 -9.21275e-13 -2.46327e-13 -3.50281e-13 1.58122e-12 9.96354e-13 1.01192e-12 
-1.84758e-11 -5.14558e-11 -2.09795e-11 9.25172e-13 6.87484e-12 3.58687e-12 1.28443e-11 2.56179e-11 1.15387e-11 
2.28869e-12 -7.20891e-12 7.63749e-13 1.07908e-11 1.46046e-11 7.61861e-12 -3.57516e-12 2.42861e-12 1.86816e-12 
1.45994e-11 2.74343e-11 1.26101e-11 1.03583e-11 6.4763e-12 1.71248e-12 7.79164e-12 1.33186e-11 6.33308e-12 
9.43891e-12 -4.98177e-13 2.2418e-13 5.30927e-12 9.28576e-12 4.37851e-12 -1.5876e-12 9.52763e-12 3.61957e-13 
-8.25648e-12 -2.71052e-11 -1.06085e-11 -8.59968e-13 -5.27756e-12 -4.30345e-13 8.33913e-12 2.04018e-11 8.62229e-12 
2.51851e-12 4.10996e-12 6.35894e-13 -4.21709e-12 -1.06615e-11 -4.46358e-12 6.77851e-13 -1.98826e-12 -3.2059e-12 
8.44212e-13 7.32051e-13 4.72879e-13 7.21716e-12 2.84895e-12 -2.13087e-13 1.1397e-12 -4.56467e-12 -1.02749e-12 
3.12198e-12 -3.11361e-13 -2.80847e-12 2.92362e-12 1.26684e-11 4.67759e-12 -4.48411e-13 -1.20712e-12 -5.82005e-13 
4.42081e-13 -1.8432e-12 -4.20337e-13 2.89952e-12 1.7414e-12 -1.59128e-12 1.46632e-12 8.34154e-12 2.94236e-12 
-1.73881e-12 2.3352e-12 -1.2435e-12 -2.71314e-12 2.17938e-12 -1.60128e-13 -3.88536e-12 -1.27435e-12 -1.91153e-12 
9.4922e-12 1.00457e-11 5.86136e-12 -4.797e-12 -7.97083e-12 -1.1209e-12 2.30661e-12 8.4042e-12 3.21324e-12 
1.24395e-13 2.2418e-12 2.86452e-13 5.35525e-12 1.11285e-11 4.94514e-12 7.38085e-13 -3.60446e-12 1.14288e-12 
-6.263e-13 -5.99682e-13 -3.67795e-13 -1.58638e-12 -1.7047e-12 1.03917e-12 3.26204e-12 4.98902e-12 2.47532e-12 
1.74914e-12 -1.79032e-12 2.63878e-12 3.56045e-12 2.64452e-12 1.86149e-12 -1.14853e-12 1.14759e-12 9.34082e-13 
5.57937e-12 9.83298e-12 4.62371e-12 -4.69703e-12 -1.58794e-12 6.87217e-13 -2.57876e-12 -5.9712e-13 -9.52763e-13 
-4.85587e-13 3.7986e-13 1.24544e-14 8.60933e-13 -1.14834e-12 -8.62229e-14 1.32247e-12 -4.16744e-13 1.08497e-12 
8.15747e-13 1.18335e-13 2.80225e-13 -5.85827e-13 3.33601e-13 1.64132e-12 1.87257e-12 2.97298e-12 1.45366e-12 
-1.28402e-12 1.19095e-12 -1.15593e-12 -1.30196e-13 2.63636e-13 4.00321e-14 3.38955e-12 -3.13585e-13 -5.07073e-13 
-1.81579e-12 1.81579e-12 -3.19752e-28 -1.73331e-12 -8.77648e-13 -4.04769e-13 2.33054e-13 1.69738e-12 5.79131e-13 
-2.86732e-13 -1.40112e-12 -1.14892e-12 5.22446e-13 2.16991e-12 8.07706e-13 1.89786e-13 -5.00009e-13 -8.2419e-13 
2.68172e-12 3.97361e-12 1.9966e-12 7.22825e-13 -3.38605e-13 -1.08587e-12 1.0062e-11 5.66175e-12 4.71711e-12 
-8.0026e-13 -4.59257e-13 -6.27586e-13 -5.4052e-12 -1.23424e-11 -5.32427e-12 1.38096e-12 -6.65533e-13 1.44032e-12 
3.46183e-12 2.78484e-12 1.874e-12 -3.70417e-12 -1.3369e-12 -1.52956e-12 -1.44515e-11 -1.29483e-11 -8.21992e-12 
2.77292e-12 4.51473e-13 1.27658e-12 -1.77134e-12 -1.47874e-11 -4.96762e-12 -1.09637e-11 -8.51883e-11 -9.90127e-12 
-8.21185e-13 -2.74531e-12 -1.06995e-12 -9.16321e-13 1.35866e-12 1.76626e-12 1.34077e-10 2.51444e-10 1.15656e-10 
5.89618e-11 -1.5217e-11 4.34773e-12 -2.90296e-12 -2.1553e-11 -7.33679e-12 4.33802e-12 -3.48158e-13 -7.62126e-13 
6.69371e-11 1.07668e-11 2.33112e-11 -1.02912e-11 -1.45717e-11 6.63198e-12 -1.19391e-11 -2.17462e-11 -1.01056e-11 
1.52241e-12 -3.26929e-12 2.42861e-12 2.58572e-12 1.33742e-12 1.17694e-12 -2.8799e-12 2.91434e-12 1.27658e-13 
3.12306e-11 1.36053e-11 1.34508e-11 -4.32543e-11 -3.69557e-11 9.51065e-12 1.58136e-11 5.51766e-11 2.12971e-11 
3.5573e-11 -7.60852e-11 -1.35866e-11 -8.1843e-12 -2.68502e-12 -3.26079e-12 -4.06918e-12 -7.20092e-12 5.43466e-13 
-8.36095e-11 -1.71395e-10 -7.65013e-11 4.73881e-11 -4.44089e-11 1.1209e-11 -4.25709e-11 -6.26824e-12 -1.46517e-11 
1.19055e-11 1.02482e-11 1.02482e-11 1.26263e-11 5.7885e-12 5.52443e-12 -5.8886e-11 -3.84308e-11 5.55112e-12 
5.31734e-11 8.98345e-11 4.29024e-11 -4.75619e-11 4.18469e-12 2.01762e-12 -9.47354e-11 -1.23957e-10 -6.56076e-11 
-4.3193e-11 2.69016e-11 -1.49453e-12 -5.34482e-11 -8.41421e-11 -4.12771e-11 2.65857e-11 -3.61676e-11 -2.42861e-12 
1.20978e-10 2.10528e-10 9.94517e-11 1.62499e-11 3.31599e-11 -9.37818e-12 1.11559e-10 2.22259e-10 1.00145e-10 
-9.74963e-14 -1.34508e-11 4.48359e-12 8.78024e-11 1.45785e-10 7.00762e-11 4.33076e-11 -2.90366e-11 -2.13504e-13 
-6.92056e-11 -1.48669e-10 -6.53624e-11 6.67576e-11 -4.98177e-13 -5.66676e-12 2.04963e-11 1.34109e-11 1.01722e-11 
5.23684e-11 -7.0243e-11 -1.34508e-12 -4.14767e-11 -1.54681e-10 -5.88472e-11 6.92803e-13 5.78931e-11 -4.03657e-13 
-4.97652e-11 -7.29109e-11 -3.68028e-11 -1.63922e-11 -2.31154e-11 -3.18833e-12 3.03539e-11 9.26575e-11 3.69034e-11 
2.7332e-11 -3.65585e-11 6.16409e-26 7.92427e-12 2.59362e-11 1.01581e-11 1.35147e-11 3.23815e-11 3.54951e-12 
3.45661e-11 1.04946e-10 4.18535e-11 2.75184e-11 2.51935e-11 -9.6077e-13 2.50417e-11 -3.21808e-11 -2.14172e-12 
8.62193e-12 -1.92154e-11 7.73954e-13 6.31822e-11 1.44417e-10 6.22799e-11 -1.02622e-11 -3.18833e-11 -2.59052e-11 
7.56814e-11 9.97259e-11 5.26222e-11 4.81496e-11 2.33787e-11 3.89646e-12 7.83283e-11 1.37756e-10 6.48253e-11 
4.11059e-11 1.14581e-11 -2.83338e-12 3.97669e-11 1.25317e-10 4.9525e-11 -3.17277e-11 -8.66828e-12 7.72174e-12 
-4.79712e-11 -4.91733e-11 -2.91434e-11 -2.92266e-11 -3.72483e-11 -6.06435e-12 1.64652e-11 2.32333e-11 1.19095e-11 
1.12691e-11 4.18469e-11 -4.98177e-12 3.08216e-11 1.08423e-10 4.17735e-11 7.19406e-11 4.09929e-11 -1.28103e-12 
-7.13206e-11 -1.04754e-10 -5.28223e-11 -3.44999e-11 7.68616e-11 -2.56205e-12 3.48459e-11 3.23146e-11 2.01481e-11 
5.22369e-11 3.79611e-11 -9.34082e-13 -7.12878e-12 -2.0093e-11 -8.16654e-12 8.36828e-12 -3.07446e-11 5.97812e-12 
4.15553e-11 1.08271e-10 4.4948e-11 1.74481e-11 -1.36563e-11 1.87891e-11 6.38397e-11 3.38385e-11 2.93035e-11 
2.87746e-11 -5.50841e-11 1.1169e-11 -3.14926e-11 -7.54597e-11 -3.20857e-11 -2.82883e-11 -2.51081e-11 1.25541e-11 
-2.46843e-11 -7.4017e-11 -2.96104e-11 -1.04984e-11 -5.08141e-11 -1.61908e-12 7.3325e-13 3.87044e-12 1.38111e-12 
2.27971e-11 -7.44864e-11 2.75554e-12 3.20318e-12 4.7175e-11 1.51134e-11 -6.5195e-12 -2.20941e-11 7.19243e-12 
4.45139e-11 5.89144e-11 3.10285e-11 4.21143e-11 -7.49983e-11 -2.8532e-12 4.09235e-11 8.83535e-11 3.87831e-11 
3.3052e-11 7.23353e-11 6.05285e-12 1.31923e-11 3.74483e-11 1.51922e-11 -2.97919e-11 5.85002e-11 8.21992e-12 
1.96705e-11 1.09633e-10 3.87911e-11 1.54522e-11 -1.24631e-26 4.88391e-12 6.13529e-11 7.33417e-11 4.04084e-11 
3.16633e-11 2.33147e-11 -1.06485e-12 1.30276e-10 1.73768e-10 9.12131e-11 2.81237e-11 9.39419e-12 2.93569e-13 
2.96531e-11 6.92817e-11 2.96805e-11 3.15435e-11 -1.99271e-12 -4.98177e-13 8.97704e-11 1.28182e-10 6.53857e-11 
3.64516e-11 -3.18833e-11 -2.98906e-12 -1.2024e-11 -4.52632e-13 -3.743e-12 -7.24014e-12 4.68108e-11 7.00561e-12 
-3.44894e-11 -4.96446e-11 -2.52402e-11 -2.31716e-13 -5.92475e-12 2.92234e-12 8.386e-11 1.48026e-10 6.95657e-11 
5.04421e-11 5.97812e-12 -2.49089e-13 -6.25766e-11 -1.62911e-10 -6.76462e-11 3.60804e-11 -1.19562e-11 -1.19562e-12 
2.25688e-11 -4.55436e-12 5.40433e-12 1.20646e-11 -3.68295e-12 4.25007e-12 -6.19402e-11 -1.28052e-10 -5.69977e-11 
3.20295e-11 -9.16646e-12 -8.46901e-13 -4.05702e-11 -7.08011e-11 -3.34114e-11 -8.29695e-12 1.83942e-11 -2.12683e-12 
-1.13674e-11 -6.46825e-11 -2.28149e-11 2.51663e-11 -3.3876e-11 2.98906e-12 -2.16338e-12 -3.8269e-11 -1.21297e-11 
4.24379e-11 5.12411e-12 -6.19163e-12 3.95483e-11 7.18743e-11 3.34268e-11 2.50246e-11 2.13504e-13 -2.66881e-14 
-7.82906e-12 -1.83252e-11 -7.84629e-12 2.16242e-11 1.49453e-11 1.16573e-11 -9.49794e-12 -3.00004e-11 -1.18495e-11 
-3.43403e-11 3.73633e-12 3.20924e-12 -4.49383e-11 -6.85527e-11 -3.40473e-11 -2.21945e-11 2.98906e-12 1.76141e-12 
-4.307e-11 -6.04796e-11 -3.10649e-11 8.47525e-12 8.99387e-12 4.93729e-13 -4.12357e-11 -1.32971e-10 -5.22619e-11 
3.27308e-11 5.47995e-12 2.39748e-12 -2.76635e-12 6.10531e-11 1.7486e-11 5.13612e-12 1.97278e-11 1.74362e-12 
4.71216e-12 1.61085e-12 1.8969e-12 4.3504e-11 -4.1387e-12 7.38643e-12 9.25608e-11 1.94483e-10 8.6113e-11 
4.49594e-11 1.64398e-11 -2.16707e-12 7.83762e-11 1.65686e-10 7.32187e-11 -1.2856e-11 4.29144e-11 5.17748e-12 
-3.62662e-11 -8.38968e-11 -3.60489e-11 -5.41278e-11 5.82867e-11 4.35015e-12 1.06875e-10 2.18419e-10 9.75882e-11 
5.02681e-11 7.84629e-12 -3.93871e-12 -1.37566e-12 5.79698e-12 1.3264e-12 -4.1339e-11 -1.27533e-11 2.59052e-12 
4.80522e-11 1.28561e-10 5.2984e-11 3.02232e-11 -1.98888e-11 -6.46672e-13 5.41996e-12 -5.1603e-13 1.47118e-12 
-2.0473e-11 -1.29526e-11 1.74362e-12 -1.26183e-11 -4.03575e-11 -1.58927e-11 -2.29384e-11 -8.54018e-12 4.27009e-13 
-5.27107e-11 -9.96781e-11 -4.57166e-11 -6.08654e-12 1.70804e-11 6.40513e-13 -6.43085e-11 -1.37687e-10 -6.05986e-11 
-4.45423e-12 1.99271e-12 3.23815e-12 -5.18469e-11 -1.42175e-10 -5.82066e-11 -5.48306e-11 -3.24527e-11 1.49453e-12 
1.94092e-11 4.60544e-11 1.96391e-11 8.07543e-12 7.97083e-12 -2.73997e-12 1.08766e-12 8.25316e-12 2.80225e-12 
2.15327e-14 -2.45103e-11 6.22721e-12 1.63894e-11 3.31888e-11 1.48735e-11 3.37618e-11 1.08066e-11 5.46079e-12 
2.75305e-11 8.03365e-13 8.50015e-12 1.06271e-12 -1.59417e-11 1.49453e-12 5.57559e-12 -3.97431e-12 4.80385e-13 
1.86039e-11 1.45183e-11 -1.28103e-12 2.00006e-11 7.2879e-12 8.18656e-12 2.03102e-11 1.02482e-11 -5.97812e-12 
1.50276e-11 5.59626e-11 2.12971e-11 -5.24768e-11 -3.6616e-11 2.42861e-12 6.37042e-11 8.21994e-11 4.37711e-11 
1.15782e-11 -2.59052e-11 -5.47995e-12 2.54457e-11 3.64585e-11 1.85712e-11 1.69739e-11 -1.71192e-11 -3.32873e-12 
7.04774e-11 1.27735e-10 5.94636e-11 5.32136e-11 -1.46464e-11 3.88578e-12 1.84045e-11 4.40233e-11 1.87283e-11 
1.6758e-11 -2.98906e-11 -2.49089e-13 3.76323e-11 9.36729e-11 3.93916e-11 2.3831e-11 -5.97812e-12 -1.70804e-12 
3.22943e-11 7.10552e-11 3.10048e-11 -4.86382e-12 -4.27009e-12 4.27009e-12 1.78603e-11 1.52997e-11 9.94797e-12 
-1.36932e-11 1.87884e-11 -1.60128e-12 -4.18965e-11 -1.31376e-10 -5.19817e-11 -9.04254e-12 -2.05498e-11 5.88472e-12 
-8.65804e-12 -2.42216e-11 -9.8639e-12 3.39201e-12 -7.97083e-13 2.5407e-12 -3.73106e-11 -8.78564e-11 -3.75501e-11 
-6.0964e-12 -1.58964e-11 1.05297e-12 4.9229e-12 5.26165e-11 1.72618e-11 2.10687e-11 -2.60796e-11 2.67147e-12 
-2.34902e-11 -5.07693e-11 -2.22779e-11 2.30741e-11 8.54018e-12 1.49453e-12 -1.16301e-11 -5.94936e-11 -2.13371e-11 
-5.87511e-12 3.52282e-12 -9.20738e-13 7.28493e-11 1.42067e-10 6.4475e-11 1.65599e-11 2.29161e-11 1.24544e-13 
-1.66757e-11 -2.8227e-11 -1.34708e-11 -1.30379e-11 -1.33974e-11 -3.6963e-12 1.30794e-11 2.50623e-11 1.14425e-11 
9.7988e-13 4.18469e-11 -2.11725e-12 -2.26157e-11 -1.04775e-11 -9.92796e-12 1.04616e-11 7.19243e-12 4.08994e-12 
-3.12729e-11 -7.09312e-11 -3.06612e-11 -7.04457e-12 -2.98906e-12 -3.98542e-12 -9.60315e-12 -4.77094e-11 -1.71938e-11 
7.05027e-13 3.9912e-11 6.59862e-12 3.71234e-11 6.50029e-11 3.06379e-11 3.18242e-11 3.98542e-11 -1.1209e-12 
2.92513e-11 5.9353e-11 2.65813e-11 2.6601e-12 4.61703e-12 3.72966e-12 -6.68146e-12 9.71723e-12 9.1073e-13 
1.54886e-11 1.49453e-11 -2.49088e-12 5.9212e-11 1.1297e-10 5.16547e-11 8.64289e-12 7.29829e-12 -3.46856e-12 
-6.97754e-12 -4.80614e-11 -1.65117e-11 -2.01049e-11 1.83942e-12 1.43705e-12 -5.15158e-12 -7.76988e-12 -3.87644e-12 
-9.57651e-12 9.96354e-12 -9.96354e-13 -1.26181e-11 -3.8623e-11 -1.53723e-11 -1.02798e-11 5.33761e-13 -1.18762e-12 
5.56426e-11 7.31273e-11 3.8631e-11 2.03573e-11 -5.23086e-12 4.63038e-12 4.91653e-11 1.02156e-10 4.53964e-11 
-1.79209e-12 4.98177e-12 -5.41767e-12 2.93534e-11 5.29793e-11 2.46998e-11 7.38926e-12 -1.1209e-12 4.16334e-12 
2.82349e-11 4.39696e-11 2.16614e-11 -2.87622e-12 -3.22819e-11 -3.73633e-12 9.18272e-12 2.09881e-11 9.05125e-12 
1.46638e-11 -2.36136e-11 -5.91274e-12 1.59936e-11 5.39291e-11 2.09768e-11 -9.44544e-12 -1.20096e-11 5.87137e-12 
-4.34566e-11 -7.69732e-11 -3.6129e-11 -1.92073e-11 2.4126e-11 -1.42781e-12 1.78089e-11 3.13238e-11 1.47398e-11 
1.03946e-11 6.12758e-12 -3.36269e-13 -4.08623e-11 -1.08684e-10 -4.4864e-11 -1.3017e-11 2.65653e-11 -1.20964e-12 
-1.48031e-11 -3.61711e-11 -1.52923e-11 -5.14227e-12 -2.60475e-11 -1.64132e-12 1.0946e-11 1.32734e-11 7.26582e-12 
-2.30222e-11 -2.94286e-11 -1.78727e-12 -3.05664e-11 -6.77457e-11 -2.94936e-11 -1.41301e-11 -4.98177e-13 -1.02749e-12 
1.02431e-11 2.20761e-11 9.69577e-12 3.37094e-11 1.13584e-11 -7.47265e-14 -3.05366e-11 -4.64585e-11 -2.30985e-11 
-2.53684e-11 -1.57643e-11 5.42101e-14 3.14693e-11 6.38071e-11 2.85829e-11 9.69419e-12 -1.11592e-11 2.69016e-12 
2.06229e-11 5.64029e-11 2.31077e-11 -6.96805e-13 1.35657e-11 2.60106e-12 3.9137e-11 7.57551e-11 3.44676e-11 
4.54879e-12 1.49453e-11 -3.73633e-13 6.25222e-12 3.49141e-11 1.23499e-11 -1.21e-11 -8.96719e-12 -3.62958e-12 
-1.1785e-11 -2.1842e-11 -1.00881e-11 -5.06644e-12 -2.98906e-12 2.72218e-12 2.02358e-11 2.98711e-11 1.5032e-11 
-1.14999e-11 -1.70804e-11 -2.02829e-12 -1.15917e-11 -3.1376e-11 -1.28903e-11 -8.94993e-14 8.26974e-12 2.49089e-13 
3.44104e-13 1.05775e-11 3.27647e-12 -5.59024e-12 -6.20805e-12 -1.58075e-12 -2.01503e-12 5.47187e-13 -4.40353e-13 
1.29533e-11 -8.11317e-12 -8.54018e-13 -3.06829e-11 -6.77293e-11 -2.95237e-11 -9.40188e-12 -1.44115e-12 -1.65466e-12 
-1.22354e-11 -3.70708e-11 -1.47919e-11 -7.13347e-12 1.3344e-12 -2.0016e-12 2.02538e-11 4.95688e-11 2.09468e-11 
2.20289e-12 -4.73268e-12 -2.50645e-12 -1.30856e-11 -1.9545e-11 -9.78918e-12 -2.15363e-11 -1.33511e-11 -9.839e-13 
-1.40359e-12 -3.20865e-13 -5.17338e-13 -7.54564e-13 -1.14964e-11 -5.46079e-13 1.46934e-11 2.77139e-11 1.27222e-11 
-1.00578e-12 1.21057e-11 1.8308e-12 -7.95386e-12 -2.37382e-11 -9.50762e-12 -2.21043e-12 -1.65466e-11 -1.52122e-12 
2.24765e-13 -7.2971e-12 -2.1217e-12 2.75263e-12 -7.25915e-12 4.27009e-13 -4.47117e-12 -1.4444e-11 -5.67455e-12 
-3.61569e-12 6.84993e-12 -4.20337e-13 -1.71899e-11 -3.0515e-11 -1.43115e-11 -1.77563e-12 -2.34855e-12 1.65466e-12 
2.7183e-12 2.46036e-11 8.19657e-12 -1.91249e-12 1.99271e-12 1.86816e-12 -1.8823e-11 -4.21414e-11 -1.82893e-11 
-2.23823e-12 2.49088e-12 -4.85723e-13 1.8692e-12 7.89344e-13 7.97562e-13 -1.04318e-12 2.2303e-11 5.60449e-13 
8.89409e-12 1.24341e-11 6.39846e-12 -6.11032e-12 1.18317e-11 2.0472e-12 -7.38953e-12 -1.76972e-11 -7.52603e-12 
-8.96591e-12 -8.96719e-12 2.08167e-12 -2.30433e-13 1.76444e-11 5.22419e-12 8.86653e-12 -2.98906e-12 1.01415e-12 
-1.06159e-11 -3.02502e-11 -1.22598e-11 -1.88075e-12 -1.10222e-11 -3.58065e-13 2.12853e-11 3.55602e-11 1.70537e-11 
-9.3405e-12 2.98906e-12 -6.93889e-13 7.79725e-12 1.69559e-11 7.42595e-12 7.29177e-12 -6.4763e-12 -5.44881e-13 
-7.88977e-12 -1.71748e-11 -7.51936e-12 -6.27847e-12 -2.08612e-12 8.38728e-13 4.80362e-12 4.67267e-13 1.58127e-12 
-5.38511e-12 -1.06752e-12 -2.13504e-13 1.11295e-11 1.61457e-11 8.18256e-12 -1.10426e-12 -9.11664e-12 -3.73633e-14 
-5.69161e-13 -2.6642e-12 -9.70008e-13 -5.24056e-12 -7.70258e-12 -5.60449e-13 9.22467e-12 8.45617e-12 5.30425e-12 
-2.75882e-12 5.33761e-13 -7.67282e-14 -3.00218e-12 -5.00424e-12 -2.40192e-12 1.81819e-12 -6.40513e-13 -9.34082e-13 
9.00161e-12 1.45506e-11 7.06566e-12 1.68644e-12 -6.19163e-12 -5.87137e-13 -9.72726e-14 -8.36809e-13 -2.80225e-13 
4.09829e-12 -2.49089e-13 7.02507e-13 7.20735e-13 1.77015e-12 7.47265e-13 1.68172e-12 8.46901e-13 2.36634e-13 
5.16828e-12 1.36571e-11 5.6476e-12 -1.20179e-12 3.44892e-12 3.08966e-13 6.21298e-12 3.40807e-12 2.88631e-12 
-1.32489e-12 -2.61543e-12 -6.21164e-13 -3.81012e-13 4.35086e-12 1.19095e-12 -1.5457e-12 1.99271e-12 4.67041e-13 
2.95398e-12 4.85227e-12 2.34188e-12 3.8396e-12 -7.47265e-13 -6.67201e-14 -3.97038e-12 -5.83748e-12 -2.94236e-12 
-3.37741e-12 -1.90553e-12 -4.18002e-13 3.92417e-13 -1.8784e-14 1.1209e-13 -1.28478e-12 1.6829e-30 -1.05863e-12 
5.61737e-12 1.09087e-11 4.95782e-12 2.16751e-12 8.62229e-13 4.16744e-13 3.76492e-12 8.84519e-12 3.78303e-12 
1.34887e-12 -1.01815e-12 3.14377e-13 3.79925e-13 -5.13366e-13 -4.00321e-14 5.05297e-13 -1.17427e-12 -9.47426e-13 
5.27372e-12 6.20214e-12 3.44276e-12 2.75359e-13 1.90486e-12 -6.70537e-13 1.55536e-12 4.20481e-12 1.72805e-12 
2.97114e-13 -2.58429e-12 -1.90708e-13 2.78084e-12 2.32548e-12 1.53189e-12 -1.93768e-13 1.32951e-12 4.82609e-13 
2.43994e-12 3.2364e-12 1.7029e-12 -1.01688e-13 -1.13527e-12 -3.09078e-13 3.2181e-12 2.38639e-12 1.68135e-12 
2.6349e-13 -1.1676e-13 -3.18172e-13 2.24091e-12 3.4303e-12 1.70136e-12 1.23424e-12 3.06913e-13 3.86977e-13 
2.40774e-12 1.66219e-12 1.22098e-12 -2.85649e-14 -4.73713e-13 5.02486e-14 3.24024e-12 3.29833e-12 1.96157e-12 
1.36499e-14 3.31794e-13 -5.64341e-13 2.87536e-12 3.22731e-12 1.8308e-12 -1.31907e-12 -8.21992e-13 -2.50451e-13 
1.66182e-12 5.65602e-13 6.68228e-13 2.85421e-13 6.32302e-13 -4.02374e-13 3.21912e-12 1.45129e-12 1.40112e-12 
1.92091e-12 -9.34082e-14 1.5568e-14 1.83557e-12 1.367e-12 9.6077e-13 -3.46108e-13 -1.86816e-13 -6.47185e-13 
5.52525e-13 -9.1578e-13 -1.08976e-13 3.25292e-13 2.47013e-12 -6.61641e-13 6.07854e-12 3.26228e-12 2.80225e-12 
-5.11528e-13 6.93889e-13 4.40353e-13 6.70509e-13 -2.87227e-12 -6.60529e-13 -1.10062e-12 5.15079e-12 -2.70217e-13 
-2.19557e-12 -3.13419e-12 -1.59893e-12 1.87917e-12 9.89028e-14 -3.24181e-13 -2.89016e-11 -1.61918e-10 -5.72459e-11 
-2.1742e-11 -3.92848e-11 -3.62958e-12 3.20351e-12 3.49075e-12 2.00828e-12 -1.80153e-12 2.93847e-12 4.07384e-13 
2.11965e-12 8.57734e-13 8.93216e-13 -1.72018e-12 1.30771e-12 -4.67041e-14 8.15846e-11 1.67874e-10 7.48375e-11 
6.05369e-12 -1.49453e-11 -3.82974e-12 -3.17351e-11 -4.5519e-11 -2.31762e-11 2.36776e-11 -1.02683e-10 -5.45064e-12 
-5.96643e-12 -5.17201e-13 -1.94509e-12 -6.27921e-13 1.47255e-12 -2.37367e-12 9.63211e-11 1.34514e-10 6.92505e-11 
-1.90856e-12 4.40887e-11 6.49187e-12 -3.01618e-11 3.40019e-11 1.15203e-12 3.40883e-13 2.65694e-11 6.14418e-12 
-1.01464e-10 -2.63347e-10 -1.09443e-10 4.80275e-11 -4.25111e-11 5.81206e-12 -8.12963e-12 2.46836e-11 4.9662e-12 
-3.20486e-11 -1.3949e-11 -5.89509e-12 2.5335e-11 8.00087e-11 3.16031e-11 -6.91195e-12 2.19198e-11 -1.32847e-12 
4.02789e-12 2.02063e-11 7.27027e-12 3.49818e-12 7.3066e-12 9.46536e-12 -8.04997e-11 -7.85537e-11 -4.7716e-11 
-4.33731e-11 2.39125e-11 3.57027e-12 -1.16858e-11 -6.631e-11 -2.33988e-11 6.77103e-14 3.85257e-11 5.39692e-12 
3.17372e-11 1.01888e-10 4.00877e-11 5.45518e-12 -3.15512e-11 6.55933e-12 1.0775e-10 1.50368e-10 7.74354e-11 
-6.7798e-12 4.68286e-11 6.22721e-12 5.27011e-11 1.03965e-10 4.69999e-11 -1.12091e-11 3.05549e-11 -3.40421e-12 
-1.11123e-11 -2.11135e-11 -9.66775e-12 4.21368e-11 4.38396e-11 4.89874e-12 3.35274e-11 3.78779e-11 2.14216e-11 
6.18601e-11 1.06278e-11 -9.2993e-12 1.14399e-10 1.75115e-10 8.6854e-11 -2.23219e-11 -1.54378e-25 1.22884e-11 
9.15744e-12 6.9513e-11 2.36011e-11 -1.55172e-11 2.32483e-12 5.0648e-12 1.00905e-10 1.16061e-10 6.50899e-11 
9.75491e-11 4.88213e-11 4.06845e-12 1.11074e-10 2.31682e-10 1.02827e-10 1.53138e-11 1.85986e-11 -4.98177e-13 
4.41186e-12 6.22712e-11 2.00049e-11 -7.17656e-11 2.65694e-11 1.16241e-12 -1.52777e-11 -6.81151e-11 -2.50178e-11 
5.49285e-11 5.81207e-11 4.81571e-12 4.56731e-11 6.51713e-11 3.32533e-11 1.86213e-11 8.00404e-11 2.15877e-12 
-1.67236e-11 -1.40492e-11 -9.23184e-12 3.22989e-11 5.31389e-11 -8.30295e-14 7.75363e-11 9.50094e-11 5.17637e-11 
5.45887e-11 7.6055e-11 -6.06115e-12 1.30157e-10 3.23495e-10 1.36096e-10 -3.14807e-11 2.55731e-11 -8.30295e-14 
5.8152e-11 1.37642e-10 5.87382e-11 4.98749e-11 2.32483e-12 -2.49088e-12 1.39719e-11 1.0885e-11 7.45709e-12 
4.77831e-11 3.32118e-13 -4.56662e-12 2.47902e-11 9.85086e-11 3.69896e-11 -2.50212e-11 9.2993e-12 2.57391e-12 
3.88631e-12 2.41361e-11 8.40674e-12 -1.12622e-11 3.88578e-11 -5.56298e-12 -2.88027e-11 -6.63699e-11 -2.85518e-11 
2.44706e-11 4.5168e-11 8.7181e-13 5.40436e-11 1.25663e-10 5.39121e-11 -2.12227e-11 4.5168e-11 -4.73268e-12 
5.56041e-11 5.37353e-11 3.28018e-11 1.96168e-11 3.0887e-11 2.40786e-12 -1.16082e-11 -6.06275e-11 -2.16707e-11 
4.16871e-12 2.72337e-11 -4.98177e-13 -2.08127e-12 -2.8484e-11 -9.16957e-12 -3.17442e-11 -1.1292e-11 6.64236e-13 
-1.13328e-10 -2.34565e-10 -1.04368e-10 -2.0593e-11 1.99271e-11 -2.90603e-12 -2.18477e-11 -8.56755e-11 -3.2257e-11 
-6.39192e-12 1.32847e-11 -1.02957e-11 2.84794e-11 5.81307e-11 2.5983e-11 -1.57435e-12 1.42811e-11 -4.73268e-12 
2.6265e-11 7.78851e-11 3.1245e-11 -1.66158e-11 1.85986e-11 -5.39692e-13 7.54747e-12 2.43151e-11 9.55877e-12 
1.73066e-11 5.87849e-11 6.78547e-26 1.6164e-14 -2.40947e-11 -7.22357e-12 1.82261e-11 1.21223e-11 1.7021e-12 
-4.37075e-12 -2.14203e-11 -7.73731e-12 3.07792e-12 -8.96719e-12 -4.81571e-12 1.87497e-11 5.85197e-11 2.31808e-11 
-6.20011e-12 -3.32118e-13 -3.73633e-12 2.58988e-11 2.96791e-11 1.66734e-11 1.20495e-11 -1.26205e-11 2.03422e-12 
4.88507e-12 -4.10667e-12 2.3352e-13 1.19967e-11 2.65694e-12 -2.44937e-12 1.22802e-11 2.92346e-11 1.24544e-11 
1.3974e-11 -9.96354e-13 -5.93661e-12 3.51437e-11 8.5768e-11 3.62735e-11 1.26458e-11 -2.15877e-12 -5.56298e-12 
1.39181e-11 9.07073e-12 6.89664e-12 4.79354e-12 1.3949e-11 1.24544e-12 2.99567e-11 5.11008e-11 2.43173e-11 
-7.83696e-12 1.4115e-11 7.51417e-12 -6.28637e-13 -9.02354e-12 -2.89565e-12 6.03205e-12 7.63871e-12 8.46901e-12 
1.35571e-12 -2.73024e-11 -7.78402e-12 1.49382e-11 -1.17902e-11 5.3554e-12 1.10433e-11 1.82246e-11 8.78037e-12 
4.56319e-12 2.65694e-12 2.98906e-12 2.2033e-11 3.66584e-11 1.76074e-11 -5.49984e-12 -9.46536e-12 2.07574e-13 
-1.15689e-13 6.18722e-12 1.82146e-12 2.22266e-11 9.96354e-12 -1.49453e-12 2.16995e-11 4.76301e-11 2.07989e-11 
-2.13431e-12 9.96354e-12 4.48359e-12 -2.80539e-12 1.97745e-11 5.09075e-12 3.0554e-12 6.31024e-12 4.15147e-13 
1.4944e-11 3.57559e-11 1.521e-11 -3.51222e-12 1.92628e-11 -3.32118e-13 4.04157e-12 3.64872e-11 1.21586e-11 
1.64486e-11 2.12556e-11 -1.32847e-12 2.26863e-11 5.82675e-11 2.42861e-11 -1.17929e-11 1.92628e-11 2.823e-12 
-1.83676e-12 -1.14999e-11 -4.00098e-12 -3.45252e-12 -7.14054e-12 -5.81207e-13 -1.08073e-11 -5.2399e-11 -1.89619e-11 
1.25805e-12 -1.32847e-12 -2.823e-12 -2.16376e-11 -2.58968e-11 -1.42603e-11 -1.2265e-11 1.82665e-12 -4.52511e-12 
-1.56862e-11 -4.38355e-11 -1.78565e-11 2.44613e-11 2.823e-12 -5.39692e-13 -8.51862e-12 -2.19947e-11 -9.154e-12 
3.20275e-12 -2.78979e-11 -1.95119e-12 7.16793e-13 -1.04728e-11 -2.92679e-12 -1.77806e-12 -2.47428e-11 -4.15148e-12 
5.51469e-12 -2.92002e-12 7.78402e-13 5.39969e-12 -2.823e-12 -2.57391e-12 2.82578e-12 2.39512e-11 8.0331e-12 
-1.42213e-12 -1.32847e-12 1.74362e-12 2.91648e-11 4.19811e-11 2.13438e-11 7.75903e-12 -1.46132e-11 -2.42338e-27 
1.85778e-11 2.7296e-11 1.37621e-11 -4.62109e-12 -2.98906e-12 -1.95119e-12 -1.34009e-12 -9.14239e-12 -3.14474e-12 
1.19208e-13 -9.2993e-12 -2.5324e-12 3.76315e-12 1.21162e-11 4.76382e-12 -2.82114e-12 -1.46962e-11 -1.4115e-12 
-3.94091e-13 7.57345e-13 1.08976e-13 -2.06852e-12 -1.52774e-11 1.24544e-13 2.19383e-11 1.98878e-11 1.25478e-11 
-2.53733e-13 -5.47995e-12 -1.78513e-12 -4.15718e-13 4.82666e-12 1.32328e-12 -1.14676e-14 -3.40421e-12 -2.32483e-12 
8.04158e-13 7.52645e-13 4.67041e-13 1.11965e-11 -3.23117e-27 -8.51052e-13 1.45342e-11 1.3592e-11 8.43787e-12 
4.46131e-13 -6.4763e-12 1.43226e-12 9.38378e-12 4.05662e-12 4.03212e-12 2.75615e-12 -6.4763e-12 -7.05751e-13 
-5.1135e-12 8.17522e-12 9.18514e-13 -6.12542e-12 -1.03787e-12 -3.82974e-12 -1.05391e-11 -1.06335e-11 -6.35176e-12 
-8.28757e-13 2.98906e-12 -1.47377e-12 -1.45098e-13 -4.6291e-12 -1.43226e-12 -3.88493e-12 4.73268e-12 2.49089e-13 
-1.92047e-12 -2.09645e-11 -6.8655e-12 2.28496e-13 -3.6533e-12 2.59467e-13 -7.18526e-12 -1.1185e-11 -5.51108e-12 
-3.09808e-12 -1.76438e-12 8.92567e-13 4.24635e-12 -1.96304e-12 6.84993e-13 -1.80942e-12 -2.2418e-12 -1.80589e-12 
-5.69155e-12 -6.65909e-12 -3.70519e-12 1.77519e-12 -8.30295e-13 -9.02946e-13 5.87539e-12 1.06786e-11 4.9662e-12 
-1.03525e-13 8.30295e-13 5.39692e-13 4.48809e-12 7.86255e-12 3.70519e-12 -1.51003e-12 1.31809e-12 -3.32118e-13 
-2.42226e-12 -4.31875e-13 -8.56242e-13 -8.42317e-13 2.25736e-13 -3.9439e-13 -4.00154e-12 -1.2397e-12 -1.57237e-12 
5.23773e-13 2.75035e-13 4.15147e-13 2.9808e-12 2.46801e-12 1.63464e-12 1.99363e-13 4.15147e-14 1.66059e-12 
2.31002e-12 5.11074e-12 2.22623e-12 -1.1748e-12 -6.331e-13 1.01192e-12 -2.81918e-12 -4.91295e-12 -2.31964e-12 
-2.57514e-12 1.24544e-12 -9.36677e-13 -6.26558e-13 -8.03965e-12 -2.59986e-12 6.19508e-13 -1.13128e-12 -1.1183e-12 
8.14421e-13 9.9859e-12 3.2401e-12 3.11555e-12 1.36609e-12 -6.36343e-13 6.57485e-12 6.39851e-12 3.89201e-12 
-1.63233e-12 -1.86816e-13 -2.2418e-12 1.61319e-12 2.03077e-13 5.44881e-13 -5.91514e-15 1.24544e-13 -1.49972e-12 
1.59396e-12 3.59539e-12 1.5568e-12 4.48014e-13 -2.60765e-13 -1.19355e-13 3.32013e-12 5.29418e-12 2.58429e-12 
-2.19508e-12 2.99685e-13 -8.45863e-13 8.12241e-12 6.87479e-12 4.49916e-12 -1.38619e-12 -1.86816e-13 -7.57644e-13 
4.809e-13 6.6285e-12 2.13282e-12 2.15925e-12 2.90603e-13 -1.22469e-12 2.00445e-12 -2.05634e-12 -1.5568e-14 
1.29036e-12 1.10014e-12 -1.11311e-12 1.32032e-12 2.57169e-12 1.1676e-12 -8.49084e-13 -8.7181e-13 7.78402e-13 
7.43086e-12 7.04741e-12 4.34348e-12 1.23658e-12 -3.42497e-12 -8.9127e-13 4.68855e-12 4.28901e-12 2.69327e-12 
7.21039e-13 1.20393e-12 -3.07631e-13 -6.39078e-13 -1.03104e-11 -3.28485e-12 -4.03853e-12 2.98906e-12 7.26346e-13 
-5.61364e-13 -4.4723e-12 -1.5101e-12 -5.20489e-12 -3.6533e-12 5.90288e-13 -1.09825e-11 -2.8249e-11 -1.17694e-11 
2.04515e-12 3.32118e-13 -1.79032e-13 9.40814e-13 -4.52146e-12 -1.07419e-12 6.77952e-12 2.15877e-12 -3.26929e-13 
3.57852e-12 3.3752e-12 2.08612e-12 8.95803e-12 4.56662e-13 -4.79366e-13 9.22022e-12 1.1122e-11 6.10267e-12 
-5.20472e-12 1.30356e-11 4.45635e-13 1.6818e-11 3.06127e-11 1.42292e-11 1.37434e-11 9.96354e-12 2.3352e-14 
9.89947e-12 1.78635e-11 8.3289e-12 1.76835e-12 1.49453e-12 1.47118e-12 1.11561e-11 2.16405e-11 9.839e-12 
-5.44097e-12 1.22884e-11 1.37907e-12 1.13922e-11 2.16639e-11 9.91684e-12 7.57831e-12 8.96719e-12 9.26298e-13 
1.42587e-11 3.02659e-11 1.33574e-11 3.12698e-12 2.32483e-12 8.38079e-13 2.55503e-11 5.38467e-11 2.38191e-11 
-4.47098e-12 -1.82665e-12 7.31697e-13 -1.30591e-11 -2.92859e-11 -1.27035e-11 8.04115e-12 4.98177e-12 -7.00561e-14 
9.87544e-12 1.10376e-11 6.27392e-12 -3.65133e-12 7.3066e-12 2.43899e-13 7.18599e-12 2.38463e-11 9.30968e-12 
-4.59618e-12 -5.31389e-12 -7.16129e-13 -2.4562e-11 -5.87269e-11 -2.49867e-11 -4.20683e-13 5.97812e-12 1.90189e-12 
6.36906e-12 9.97737e-12 4.90393e-12 -8.50008e-12 9.96354e-12 1.29734e-13 8.9978e-12 1.34721e-11 6.74096e-12 
3.5461e-12 1.76023e-11 8.30295e-13 -9.36737e-12 -1.70464e-11 -7.92413e-12 -3.45359e-12 -7.14054e-12 1.03787e-13 
-1.27148e-12 -1.51787e-11 -4.93507e-12 -1.27714e-11 -1.66059e-11 4.15147e-13 -3.35191e-11 -7.79999e-11 -3.34557e-11 
-3.12825e-12 1.46132e-11 1.03787e-14 -6.27144e-12 -3.6402e-12 -2.97349e-12 -1.40419e-11 4.31753e-12 2.57391e-12 
-3.80761e-12 -1.2954e-11 -5.02847e-12 -6.06789e-12 2.32483e-12 9.75597e-13 -1.58938e-11 -3.13811e-11 -1.41825e-11 
8.19542e-12 -5.14783e-12 1.35961e-12 -1.02397e-11 -1.33718e-11 -7.08345e-12 -1.13632e-11 6.64236e-13 -1.97195e-12 
2.37487e-11 2.8508e-11 1.5677e-11 -4.9366e-12 -4.81571e-12 1.68135e-12 -5.53914e-12 -1.48031e-11 -6.10267e-12 
-1.7407e-11 -1.07938e-11 2.68808e-12 -7.24235e-12 2.31248e-12 -1.47896e-12 -3.88843e-13 -4.31753e-12 2.823e-12 
3.60512e-11 6.93443e-11 3.16187e-11 4.99409e-12 1.36168e-11 -8.30295e-13 -1.37213e-11 -4.73572e-11 -1.83236e-11 
1.02558e-11 1.46132e-11 2.49089e-13 1.04625e-11 1.98951e-11 9.1073e-12 1.11137e-11 6.64236e-12 -1.16241e-12 
1.24483e-11 4.5361e-11 1.73428e-11 -7.85863e-12 6.64236e-12 -4.10996e-12 -3.88393e-12 -1.55761e-11 -5.83801e-12 
-8.90779e-12 -1.85986e-11 9.75597e-13 1.79676e-12 -4.39143e-12 -7.78402e-13 -5.41736e-13 -1.02957e-11 -8.09538e-13 
-4.82557e-12 -3.18112e-11 -1.0991e-11 1.42743e-11 2.65694e-12 6.84993e-13 1.26747e-12 -1.37738e-11 -3.7519e-12 
5.88607e-12 -9.96354e-12 2.65694e-12 1.09575e-11 2.69766e-11 1.13802e-11 6.74824e-12 1.99271e-12 8.30295e-13 
1.56707e-12 8.60404e-12 3.05133e-12 -8.94327e-12 -1.74362e-11 -8.7181e-13 3.29723e-11 7.35131e-11 3.19456e-11 
-6.32773e-12 6.14418e-12 1.36999e-12 1.10511e-11 4.0998e-11 1.56147e-11 2.20192e-11 -1.1292e-11 5.3554e-12 
3.14283e-12 -1.06674e-11 -2.25736e-12 -2.26166e-11 -1.59417e-11 2.40786e-12 -3.62751e-11 -7.04697e-11 -3.20234e-11 
-1.61976e-11 -3.05549e-11 -1.99271e-12 -5.83015e-11 -1.45432e-10 -6.11201e-11 -6.39365e-12 -4.31753e-12 1.7021e-12 
-4.63059e-11 -1.15654e-10 -4.85878e-11 1.70354e-12 -2.09234e-11 1.78513e-12 3.24884e-11 6.16463e-11 2.82404e-11 
1.76591e-11 -4.94856e-11 -1.07938e-12 3.0852e-11 7.54777e-11 3.18989e-11 1.93271e-11 -4.81571e-11 -2.40786e-12 
5.48652e-12 1.72947e-11 6.83437e-12 -1.8583e-11 -3.68651e-11 -1.66059e-13 4.09147e-11 5.46211e-11 2.86607e-11 
2.91177e-12 -1.32847e-11 4.85723e-12 -2.21568e-11 -5.16357e-11 -2.21377e-11 8.61148e-13 1.56095e-11 4.15148e-12 
7.22792e-12 2.39081e-11 9.34082e-12 -2.46724e-11 1.29526e-11 1.74362e-12 -9.01508e-12 -4.58363e-11 -1.64554e-11 
-3.85922e-11 1.52774e-11 4.2345e-12 -4.55567e-11 -1.12096e-10 -4.72957e-11 3.37559e-11 1.16241e-11 -3.32118e-13 
3.58537e-11 8.53694e-11 3.63669e-11 -1.55722e-11 -1.49453e-11 2.61543e-12 8.36806e-12 1.50878e-11 7.03675e-12 
3.92931e-11 -3.32118e-12 3.07209e-12 -8.59194e-12 -6.26059e-11 -2.13593e-11 1.00541e-11 -4.58323e-11 -9.96354e-13 
-3.63762e-11 -1.03165e-10 -4.18624e-11 4.89686e-12 -1.06278e-11 7.8878e-13 -4.27243e-11 -8.01075e-11 -3.68495e-11 
-1.45715e-11 -2.55731e-11 -1.99271e-12 1.4659e-11 2.90352e-11 1.31083e-11 -2.80214e-12 -7.63871e-11 -6.4763e-12 
7.24331e-11 1.06651e-10 5.37253e-11 6.08427e-11 -6.90805e-11 -9.88051e-12 9.74569e-11 2.21532e-10 9.56967e-11 
5.27913e-11 -3.18833e-11 -5.81206e-12 1.10699e-10 2.68953e-10 1.13896e-10 -2.16014e-11 -4.45038e-11 -4.98177e-12 
7.03871e-11 1.26081e-10 5.89406e-11 4.08656e-11 -6.44309e-11 -1.82665e-12 1.2444e-10 2.85466e-10 1.22972e-10 
9.65246e-12 -4.61644e-11 -6.43479e-12 3.93619e-11 3.18359e-11 2.13593e-11 3.32147e-11 -5.04819e-11 -9.46536e-12 
9.45939e-11 1.45984e-10 7.21734e-11 4.86265e-11 -4.84892e-11 -1.38659e-11 -1.79007e-11 -2.42368e-11 -1.26412e-11 
-5.70517e-12 1.79344e-11 -4.94026e-12 -6.29017e-11 -1.82139e-10 -7.35122e-11 -3.56761e-11 -3.85257e-11 3.15937e-26 
4.14021e-11 5.99458e-11 3.04044e-11 4.80873e-11 -4.71608e-11 -8.96719e-12 4.4571e-11 1.08099e-10 4.58011e-11 
-2.00562e-11 -6.17739e-11 -6.26873e-12 2.74372e-12 2.53825e-11 8.43787e-12 -5.21977e-11 -1.46132e-11 2.2418e-12 
-2.1414e-11 8.3369e-12 -3.92314e-12 -3.22806e-12 -2.19198e-11 -4.94026e-12 8.50809e-11 1.55808e-10 7.22668e-11 
2.94513e-11 -9.49857e-11 -1.71041e-11 4.93502e-11 1.40528e-10 5.69634e-11 -6.41446e-12 -3.25476e-11 -4.89874e-12 
5.8204e-12 -4.37545e-11 -1.13802e-11 8.00201e-11 -4.28432e-11 -4.48359e-12 -1.67037e-11 -8.63566e-11 -3.09181e-11 
-2.80084e-11 -3.32118e-12 -7.47265e-13 -4.29781e-11 -7.51425e-12 -1.51477e-11 -5.8827e-11 1.66059e-11 5.47995e-12 
-3.1829e-11 -1.00551e-10 -3.9714e-11 5.21862e-11 1.36168e-11 -6.79804e-12 1.01386e-10 1.82887e-10 8.52817e-11 
-1.73129e-11 4.41717e-11 3.33156e-12 -4.67876e-12 -1.3432e-11 -5.43324e-12 1.03729e-11 -3.45403e-11 2.65694e-12 
-1.03752e-11 -3.90291e-12 -4.28343e-12 3.75929e-12 -4.53697e-13 -1.86816e-13 5.87634e-11 1.12574e-10 5.14012e-11 
4.15371e-11 -1.43048e-11 -2.29517e-12 7.38532e-13 -3.2739e-12 -7.6061e-13 -1.17163e-12 1.53123e-12 -5.26516e-13 
3.87023e-12 5.85979e-12 2.91901e-12 3.53385e-12 -1.24544e-12 -7.47265e-13 1.12706e-10 2.44424e-10 1.07139e-10 
-3.68449e-11 3.18833e-11 8.7181e-12 -2.46784e-12 -2.72135e-13 -8.21992e-13 -1.30639e-12 -4.98177e-13 3.98542e-13 
3.17387e-11 1.10615e-10 4.27062e-11 -4.30846e-11 -1.36703e-11 1.13561e-11 1.45136e-11 4.79074e-12 5.79131e-12 
-1.48494e-13 1.57756e-12 7.05751e-13 2.38996e-12 -6.49735e-11 -1.8775e-11 5.98539e-11 -4.26621e-11 7.98215e-12 
6.96555e-12 1.78085e-12 2.62392e-12 -3.2435e-12 -6.24986e-12 3.39666e-13 8.63799e-12 3.44632e-11 1.29304e-11 
-3.09859e-11 2.92501e-11 1.74006e-11 -4.786e-12 2.62286e-12 -6.48941e-13 -1.33676e-12 -4.32627e-12 7.6693e-13 
-1.19e-11 -6.47496e-11 -2.29949e-11 1.89542e-11 -2.46158e-12 3.95611e-13 -8.73323e-11 -1.92951e-10 -8.40849e-11 
-1.33426e-11 -1.1209e-11 -4.48359e-12 2.30425e-11 6.09081e-11 2.51852e-11 4.39162e-11 3.54017e-11 -1.78877e-11 
3.99355e-11 4.09145e-11 2.4255e-11 -7.13482e-12 -8.05386e-12 -9.58731e-12 -9.47172e-11 -1.34333e-10 -6.87151e-11 
-2.41663e-11 -6.96024e-11 4.05658e-12 -6.64957e-11 -1.50036e-10 -6.49596e-11 4.14325e-11 -5.06272e-11 1.35442e-12 
8.08213e-11 9.73215e-11 5.34428e-11 2.69561e-11 -1.49453e-11 9.66108e-12 1.0406e-10 2.0226e-10 9.18961e-11 
1.60052e-11 -1.38244e-11 -2.38191e-12 -1.01491e-10 -9.4066e-11 -5.8667e-11 -3.55859e-12 1.70804e-12 -3.62958e-12 
9.84088e-12 8.97056e-11 2.98639e-11 3.35053e-11 8.28397e-11 6.19163e-12 7.98114e-11 2.11022e-10 8.72499e-11 
-7.08165e-11 3.15987e-11 -1.28103e-12 6.18987e-11 1.62047e-10 6.71838e-11 -2.62878e-11 3.81105e-11 5.23086e-12 
2.15292e-11 6.45398e-11 2.58207e-11 4.48212e-11 1.19562e-11 -3.20257e-12 1.16151e-10 2.91108e-10 1.22178e-10 
-6.74213e-11 2.30585e-11 9.34082e-12 -4.21323e-11 -8.77718e-11 -3.89712e-11 3.55097e-11 2.77556e-11 3.5762e-12 
2.39184e-11 5.48947e-11 2.36439e-11 1.81045e-11 3.54951e-12 -4.18002e-12 -3.19954e-12 -9.34385e-12 -3.76302e-12 
-4.13819e-13 1.06752e-12 2.66881e-12 -2.21464e-12 -3.36891e-11 -1.07711e-11 2.42602e-11 2.083e-11 -6.65533e-12 
-3.30725e-11 -1.03504e-10 -4.09728e-11 4.3781e-11 2.1991e-11 -1.64398e-11 3.67484e-11 1.1484e-10 4.54764e-11 
1.154e-11 3.18122e-11 8.75368e-12 -6.85972e-11 -1.91136e-10 -7.79199e-11 -3.41145e-11 3.00774e-11 1.63464e-11 
1.58419e-11 5.44144e-11 2.10769e-11 3.60364e-11 -1.53723e-11 2.02829e-12 4.41604e-11 1.02841e-10 4.41003e-11 
-6.00597e-12 -1.27035e-11 -5.88472e-12 6.58218e-11 1.43413e-10 6.27703e-11 1.93968e-13 3.43742e-11 1.49453e-12 
1.96727e-10 3.80827e-10 1.73266e-10 2.31658e-11 5.32427e-11 1.68135e-11 1.3154e-11 3.62189e-11 1.48119e-11 
3.50496e-11 2.13504e-11 2.13504e-13 6.75046e-11 2.3367e-10 9.03524e-11 -3.0452e-11 1.15292e-11 -1.249e-11 
-3.74479e-11 -1.18311e-12 -1.15893e-11 1.28159e-13 1.02482e-11 3.52282e-12 1.15959e-11 5.05205e-11 1.86349e-11 
-7.3285e-12 4.31279e-11 1.00347e-11 7.37577e-11 1.58829e-10 6.97759e-11 4.10276e-11 5.08141e-11 -1.3264e-11 
4.02488e-11 9.26577e-11 3.9872e-11 1.6684e-11 9.8212e-12 -2.77556e-12 -4.71305e-11 -1.26742e-10 -5.21618e-11 
-1.08295e-14 1.92154e-11 -3.41607e-12 5.59151e-11 1.00894e-10 4.70427e-11 1.28838e-11 3.10115e-11 7.75288e-12 
2.801e-12 -1.6879e-11 -4.22338e-12 -3.65966e-11 6.91754e-11 3.20257e-13 -1.31188e-11 -9.42339e-11 -3.22058e-11 
-1.6252e-11 1.23833e-11 -2.2418e-12 -1.05214e-10 -2.37594e-10 -1.02842e-10 -1.00567e-11 -8.54018e-13 -2.4553e-12 
-3.3608e-11 -1.07789e-10 -4.2419e-11 -1.88503e-11 -3.32533e-11 9.34082e-14 3.11224e-11 -3.90054e-12 8.16654e-12 
-9.94555e-12 1.06752e-11 4.6971e-12 -2.989e-12 1.49986e-11 3.60289e-12 -1.34316e-11 4.6971e-12 5.12411e-12 
-4.74526e-12 2.85643e-11 7.14573e-12 -1.89385e-11 -6.72539e-12 5.23086e-12 -5.73023e-12 -2.783e-11 -1.00681e-11 
-1.08388e-12 -2.94636e-11 -5.97812e-12 -8.72913e-12 4.08882e-11 9.64773e-12 -2.35719e-11 -2.00694e-11 -2.98906e-12 
3.30811e-11 8.81494e-11 3.63691e-11 1.90861e-11 1.17427e-11 2.4553e-12 1.29671e-11 3.9575e-11 1.57626e-11 
-2.97225e-12 -1.28903e-11 1.30771e-11 -1.41458e-11 -3.36926e-11 -1.43515e-11 4.81845e-11 1.75074e-11 -8.54018e-13 
-2.7672e-11 -4.41856e-11 -2.15573e-11 3.25194e-11 1.57993e-11 5.65787e-12 2.1171e-11 -1.34982e-11 2.30184e-12 
2.32972e-11 2.60475e-11 9.18069e-12 7.37518e-12 -4.16427e-12 9.63272e-13 6.68488e-12 -5.60449e-12 -1.40112e-12 
-2.54789e-11 -4.43104e-11 -2.09368e-11 8.60523e-13 -1.70804e-12 -3.94983e-12 1.68391e-11 4.44099e-11 1.83747e-11 
-1.14945e-11 -3.62958e-12 -7.17909e-12 1.91388e-11 1.35541e-11 9.80786e-12 -3.96555e-12 -8.78037e-12 -6.88885e-12 
5.95644e-12 1.1591e-11 5.26422e-12 4.63165e-12 -6.61864e-12 2.13504e-13 4.1882e-13 -3.15104e-11 -9.32747e-12 
2.27789e-11 1.38778e-11 -4.05658e-12 -2.2294e-11 -3.21746e-11 -1.63406e-11 -3.7444e-11 1.08353e-11 -2.19509e-12 
-4.96337e-12 -3.84369e-12 -2.64212e-12 8.60218e-12 -7.47266e-12 -1.06752e-12 3.66265e-11 3.10944e-11 2.03163e-11 
1.69142e-12 -5.32427e-12 1.01815e-11 -1.56014e-12 1.03672e-11 2.64212e-12 -3.31071e-11 7.47266e-12 2.77556e-12 
-6.2511e-12 -6.28126e-11 -2.07191e-11 4.09768e-12 6.16494e-12 -3.26929e-12 -1.15254e-12 -3.43426e-11 -1.06485e-11 
-1.1472e-12 2.2418e-12 -4.10996e-12 -1.00763e-11 -1.76543e-11 -8.31917e-12 2.65333e-11 1.30771e-11 2.75554e-12 
-1.2872e-11 -7.17359e-14 -3.88311e-12 -6.32562e-12 -4.48359e-12 -2.66881e-13 -8.59365e-12 -3.34925e-12 -3.58287e-12 
-2.01113e-12 -9.50095e-12 -5.87137e-13 1.33874e-12 -2.97699e-11 -8.52934e-12 7.37477e-12 2.61543e-12 -4.48359e-12 
-7.95601e-12 -3.30769e-11 -1.23099e-11 -3.43678e-14 -6.19163e-12 -6.83214e-12 -3.08175e-11 -1.0549e-11 -1.24099e-11 
-9.76312e-12 -1.38778e-11 -4.9106e-12 4.40401e-11 3.61158e-11 2.40468e-11 4.54302e-12 -2.70884e-12 1.26101e-12 
-8.29308e-12 3.84506e-11 9.04725e-12 2.08612e-12 1.43048e-11 1.28103e-12 3.7307e-11 5.29653e-11 2.70817e-11 
5.14424e-13 -1.22765e-11 6.245e-12 2.10934e-11 3.25496e-11 1.60929e-11 -3.60188e-12 2.66881e-12 1.65466e-12 
-2.57054e-11 -1.843e-11 -1.32406e-11 5.95857e-12 4.577e-12 2.19509e-12 2.50862e-12 -4.77711e-12 -6.80545e-13 
1.00387e-11 5.44436e-12 2.88231e-12 -5.4048e-12 1.80816e-11 3.80305e-12 2.02833e-12 1.32373e-11 -2.34855e-12 
5.25957e-12 3.32231e-12 2.57456e-12 -5.70243e-12 1.27969e-11 -1.96157e-12 5.31712e-13 1.04771e-11 3.30265e-12 
4.14266e-12 4.37684e-12 2.18842e-12 -2.77011e-12 2.05177e-11 5.32427e-12 5.12133e-12 -2.80225e-13 -3.4561e-12 
4.60038e-11 3.47275e-11 2.42194e-11 -4.95242e-12 4.80385e-13 4.43022e-12 -8.63058e-12 -7.84929e-12 -4.94396e-12 
2.96208e-12 -9.07394e-13 1.22765e-12 -9.84369e-12 -1.14067e-11 -6.37511e-12 2.39875e-12 -3.36269e-12 -3.10582e-12 
3.21294e-11 4.12627e-11 2.20176e-11 -2.00926e-12 1.06752e-12 1.22765e-12 5.12077e-12 -2.05164e-12 9.20738e-13 
5.40941e-12 -1.92154e-12 1.60128e-13 -1.9361e-11 -1.00626e-11 -8.82707e-12 -1.82025e-12 -2.56873e-12 -1.82146e-12 
1.87185e-12 6.13456e-12 2.40192e-12 -5.86137e-13 -8.80706e-13 1.38778e-12 -1.01033e-12 6.5481e-12 1.66133e-12 
7.92572e-13 6.27169e-13 1.41447e-12 4.30203e-12 3.46252e-12 2.32937e-12 -5.38311e-13 7.88132e-14 -2.21844e-12 
5.25588e-12 4.15166e-12 2.82226e-12 -1.32866e-12 -5.07073e-13 -1.06752e-12 1.32934e-11 9.92525e-12 6.96558e-12 
-1.73543e-12 -4.40353e-13 -6.00481e-13 9.44144e-12 1.04078e-11 5.95477e-12 -1.33116e-12 -1.97325e-12 4.77549e-12 
1.87995e-12 3.52438e-12 1.6213e-12 4.03741e-12 8.00642e-13 -2.0016e-12 7.52793e-12 1.22435e-11 5.93142e-12 
4.15349e-12 1.24544e-13 -1.36999e-12 9.27168e-12 2.34596e-12 3.48529e-12 7.53839e-13 1.26101e-12 -2.10168e-12 
1.90008e-11 5.28535e-12 7.28584e-12 6.23894e-13 -1.86816e-13 1.86816e-13 -8.8946e-12 -2.0475e-12 -3.28263e-12 
-1.03022e-12 -9.67442e-14 6.40513e-13 -1.39137e-13 1.39137e-13 -8.65493e-28 -2.78822e-12 -2.43945e-13 -3.60289e-13 
-5.57533e-12 -4.96201e-13 -1.82146e-12 -2.6698e-12 5.29313e-13 6.22721e-14 -1.57406e-11 -6.3438e-12 -6.62531e-12 
1.43907e-12 -1.92154e-12 -1.1209e-12 9.74645e-12 2.98042e-12 3.81806e-12 -1.6899e-12 -1.59962e-12 7.23913e-13 
-2.83966e-12 -6.26764e-12 -2.73219e-12 -5.11506e-12 -2.61543e-12 1.5568e-12 5.22256e-12 1.11586e-12 1.90152e-12 
-5.18811e-12 1.76141e-12 5.87137e-13 -3.26069e-12 -2.27708e-12 -1.66133e-12 -1.08841e-12 -1.06752e-13 -7.20577e-13 
-3.64357e-13 3.36676e-12 9.00722e-13 2.58955e-12 -3.46945e-12 -1.3344e-13 -1.59191e-12 5.1948e-12 1.08087e-12 
-4.86567e-13 -2.13504e-13 3.84308e-12 -2.64194e-12 1.53271e-12 -3.32767e-13 4.52098e-13 3.26929e-13 8.05646e-13 
-1.89024e-12 -1.64593e-12 -1.06085e-12 -1.22636e-12 4.37684e-12 5.07073e-13 -4.29984e-12 -5.50802e-12 -2.94236e-12 
4.06536e-12 2.07833e-12 -1.74557e-12 1.28774e-11 2.10609e-11 1.01815e-11 7.93874e-12 -3.61178e-12 -8.09538e-13 
1.60924e-11 2.94774e-11 1.3671e-11 4.31432e-12 -2.13504e-13 -6.40513e-13 1.43318e-11 3.22388e-11 1.39712e-11 
1.96341e-11 1.32373e-11 1.12757e-12 -1.65655e-12 -1.42228e-11 -4.76382e-12 4.11344e-12 2.66881e-12 2.72218e-12 
-7.33908e-12 -3.69714e-11 -1.32932e-11 2.25849e-12 3.73633e-13 3.50281e-13 9.11709e-12 1.87052e-11 8.34669e-12 
3.6439e-12 4.05658e-12 -1.44115e-12 6.81289e-13 1.0878e-11 3.46778e-12 3.09673e-12 1.49453e-12 -5.25421e-14 
7.49718e-12 -2.58041e-13 2.17174e-12 -7.19147e-12 -7.47266e-12 6.38289e-13 -1.27602e-12 1.26184e-11 3.40273e-12 
-1.16827e-11 -9.18069e-12 -2.20176e-13 -4.52229e-12 -1.7494e-12 -1.88151e-12 6.28006e-12 -2.77556e-12 -1.46117e-12 
-5.38699e-12 -5.27711e-12 -3.19923e-12 1.63201e-12 2.98906e-12 -3.01631e-13 -8.34355e-12 -3.12882e-11 -1.18895e-11 
-2.02262e-12 9.39419e-12 -5.98813e-13 -2.40706e-11 -5.69944e-11 -2.43195e-11 -4.83579e-12 -1.13157e-11 1.40696e-12 
3.1473e-11 7.09424e-11 3.07246e-11 2.22295e-11 6.40513e-13 6.50521e-14 3.69786e-11 7.68459e-11 3.41474e-11 
-3.64261e-11 2.498e-11 1.99827e-12 9.39286e-12 1.65613e-11 7.78624e-12 1.55554e-11 1.32373e-11 -7.67282e-14 
6.35354e-12 6.49009e-12 3.85309e-12 4.31249e-12 2.2885e-11 -1.04792e-12 -1.34069e-11 -2.90271e-11 -1.27302e-11 
1.91157e-11 1.51588e-11 1.14425e-12 -8.71102e-12 -2.42487e-11 -9.88792e-12 -1.6231e-11 2.98906e-12 2.15006e-12 
2.74966e-11 5.08884e-11 2.35155e-11 -7.46598e-12 8.21992e-12 3.91341e-12 -2.96733e-11 -6.91393e-11 -2.96438e-11 
1.77932e-11 3.20257e-12 -7.67282e-14 -8.33936e-12 -2.29524e-11 -9.38752e-12 -4.38345e-11 3.73633e-13 -1.2902e-12 
-9.67238e-12 -2.65233e-11 -1.08587e-11 5.82202e-14 2.49089e-13 -2.3352e-13 -2.5385e-11 -6.4954e-11 -2.71017e-11 
1.33599e-11 6.40513e-12 7.87298e-13 -3.05485e-11 -8.93058e-11 -3.59563e-11 3.04907e-11 1.13958e-11 -2.67381e-12 
-1.20786e-11 -1.94133e-11 -9.44757e-12 -1.62346e-11 -2.04964e-11 8.00642e-14 -1.70198e-11 -4.24112e-11 -1.78293e-11 
-9.55809e-12 -2.75554e-11 -1.68135e-12 2.65581e-11 3.36902e-11 1.80745e-11 -1.70586e-11 -1.62263e-11 -1.42781e-12 
-1.55964e-11 -3.30426e-11 -1.45917e-11 2.24092e-11 7.89966e-12 -2.25514e-12 3.15334e-11 7.16159e-11 3.09448e-11 
-1.1437e-11 2.12437e-11 -2.75554e-12 -1.02042e-11 -1.14548e-11 -6.49771e-12 -2.33386e-11 5.60449e-12 -4.67041e-14 
3.85493e-11 7.99457e-11 3.55485e-11 4.89913e-12 -1.249e-11 1.53123e-12 2.12386e-11 6.66318e-11 2.63611e-11 
-1.03644e-11 1.17961e-11 -1.76808e-12 2.5645e-11 3.2813e-11 1.75374e-11 1.80924e-11 1.89307e-11 -3.05133e-12 
2.39235e-11 6.38134e-11 2.63211e-11 1.76653e-11 5.97812e-12 -1.36109e-12 4.47195e-11 7.59522e-11 3.62015e-11 
-5.4405e-11 2.50334e-11 2.26515e-12 -1.10225e-11 -2.25483e-12 -3.98319e-12 9.50876e-12 -1.01415e-11 3.54951e-12 
-5.82868e-11 -1.26603e-10 -5.5467e-11 -1.21563e-11 4.96932e-11 2.35856e-12 -1.21841e-11 6.41548e-13 -3.46277e-12 
3.45069e-11 2.09234e-11 1.01415e-12 1.91243e-11 2.51278e-11 1.32756e-11 -4.2839e-11 1.00414e-11 3.2401e-12 
1.76706e-11 3.97755e-11 1.72338e-11 4.85152e-11 -3.23815e-11 -3.30042e-12 2.14119e-11 9.14786e-11 3.38671e-11 
2.18798e-12 7.04565e-12 -1.14091e-12 -4.61795e-12 -4.05099e-11 -1.35383e-11 2.56378e-11 1.44783e-11 -5.02069e-13 
7.09133e-11 1.48596e-10 6.58528e-11 -2.51522e-11 -2.14216e-11 -1.61908e-12 -5.0678e-11 -1.42744e-10 -5.80265e-11 
9.79686e-12 -4.48893e-11 -1.92154e-12 1.67941e-12 -1.84345e-11 -5.02653e-12 1.56716e-11 -2.57807e-11 -7.9397e-13 
-1.63729e-11 -6.12893e-11 -2.32987e-11 4.45873e-11 -1.49453e-11 3.20257e-12 -3.23584e-11 -5.61459e-11 -2.65513e-11 
-6.07463e-11 -2.46598e-11 4.62371e-12 3.50957e-11 5.12402e-11 2.59008e-11 1.53071e-13 -2.13504e-11 -1.28103e-12 
5.62326e-11 8.47554e-11 4.22964e-11 4.40458e-11 -4.10996e-12 1.21431e-12 -1.22094e-11 -2.64215e-11 -1.15893e-11 
-6.45201e-11 -2.34855e-11 4.16334e-12 5.40175e-11 1.11198e-10 4.95647e-11 -1.38052e-11 -5.82867e-11 4.67041e-12 
2.59813e-11 1.04245e-10 3.9068e-11 -4.97676e-11 -1.24544e-11 6.72539e-12 2.9043e-11 4.89528e-11 2.33988e-11 
-1.04088e-11 -2.17775e-11 4.77716e-12 -1.51714e-11 -2.64536e-11 -1.24875e-11 2.68457e-11 2.10168e-11 1.7514e-14 
-1.8179e-11 -2.29206e-11 -1.23299e-11 -3.76674e-11 7.25915e-12 -2.32186e-12 1.2023e-11 2.22461e-11 1.02807e-11 
5.92519e-11 -4.12864e-11 -3.9932e-12 8.85002e-11 1.43286e-10 6.95357e-11 2.80202e-11 -1.69736e-11 -1.28103e-12 
-3.18493e-11 -4.98851e-12 -1.10514e-11 1.5695e-11 4.10996e-12 -3.18755e-12 -5.71316e-11 -1.29351e-10 -5.59448e-11 
7.56983e-13 4.48359e-11 5.49774e-12 -1.42319e-10 -3.42878e-10 -1.45559e-10 8.71838e-12 -8.96719e-12 1.1209e-12 
5.02746e-11 1.92453e-10 7.28184e-11 -6.2504e-12 2.88231e-11 4.95063e-12 1.13593e-10 1.99791e-10 9.40153e-11 
3.54975e-11 -5.12811e-11 -5.6512e-12 2.45499e-11 3.38969e-11 1.75341e-11 -4.16162e-11 -1.05685e-11 -2.99573e-12 
-2.75763e-11 -6.35634e-11 -2.73419e-11 5.63357e-12 -6.83214e-12 2.13504e-12 -8.13435e-12 -7.64668e-11 -2.53803e-11 
-7.56165e-11 3.80038e-11 -3.49614e-12 -1.55897e-10 -3.5452e-10 -1.53125e-10 1.88731e-11 -5.9034e-11 -1.13024e-11 
-8.66004e-11 -1.69271e-10 -7.67615e-11 -3.21442e-11 -5.12411e-11 2.2418e-12 4.07021e-11 1.18425e-10 4.77383e-11 
-6.53698e-12 -6.49053e-11 1.22765e-12 -6.81906e-12 -9.94661e-11 -3.18856e-11 4.24516e-11 -1.70804e-12 2.66881e-13 
5.76876e-12 7.9583e-11 2.56055e-11 -6.67416e-12 3.96051e-11 1.02749e-12 -3.54806e-11 -6.55754e-11 -3.03168e-11 
-3.19995e-11 -2.61543e-11 -1.77476e-12 -1.26123e-10 -1.9777e-10 -9.71679e-11 -6.6693e-11 1.29526e-11 8.7181e-13 
-1.45257e-12 6.88192e-12 1.62881e-12 -8.04562e-13 1.49453e-12 -1.51788e-12 1.4846e-10 2.4427e-10 1.17819e-10 
-1.65189e-12 -9.96354e-12 4.48359e-12 -7.02166e-12 -6.47064e-12 -4.04769e-12 -2.37369e-12 9.25874e-13 -7.37924e-14 
3.72713e-11 9.62401e-11 4.00534e-11 -5.42304e-11 3.98542e-13 1.94289e-12 4.45391e-12 1.27907e-11 5.17338e-12 
1.11932e-12 -1.54842e-12 8.37081e-13 1.61292e-10 2.75392e-10 1.31005e-10 -5.66138e-11 4.996e-11 1.51588e-11 
-4.82503e-12 -1.76597e-11 -6.74541e-12 -6.50936e-12 -6.08488e-12 -2.13504e-12 -2.82128e-12 -1.13067e-11 -4.2384e-12 
-6.76854e-12 2.05498e-12 1.77476e-12 1.3096e-10 3.25923e-10 1.37065e-10 -3.09018e-12 2.09234e-11 2.70884e-12 
-1.06518e-10 -2.06866e-10 -9.40153e-11 -8.72502e-11 -3.98542e-11 -1.19562e-11 1.07016e-11 1.07156e-11 6.42515e-12 
3.85458e-12 1.79394e-12 1.50913e-12 5.64777e-11 8.39938e-11 4.21415e-11 -2.23441e-11 2.20731e-11 -2.98906e-12 
-1.93115e-13 -3.98278e-12 -1.25277e-12 7.23368e-13 -1.45057e-12 -1.12639e-13 5.9224e-11 2.31021e-10 8.70734e-11 
-1.89998e-11 -6.52159e-11 -1.03259e-11 2.75948e-11 1.17577e-10 4.35516e-11 -2.21746e-11 -3.58687e-11 -6.97448e-12 
1.35134e-11 6.44198e-12 5.98662e-12 -4.45141e-12 -2.17386e-12 -1.08693e-12 -6.36247e-11 -1.69896e-10 -7.00561e-11 
-3.87873e-11 1.5217e-11 7.33679e-12 1.45208e-11 2.15688e-11 1.08269e-11 -3.21831e-12 9.51065e-13 -2.51353e-12 
-1.03126e-11 -1.25364e-11 -6.85472e-12 -1.37415e-13 2.29928e-12 1.14964e-13 -4.42576e-12 -2.24928e-11 -8.07556e-12 
-1.47341e-12 -2.51353e-12 1.23978e-12 1.2931e-10 3.35099e-10 1.39323e-10 -1.13816e-11 6.54876e-11 3.73633e-13 
-1.35465e-11 -1.41646e-11 -8.31333e-12 2.80314e-13 2.67381e-12 2.94236e-12 1.28316e-11 1.12059e-13 3.88311e-12 
7.87555e-13 -2.13504e-13 -7.47265e-13 7.56796e-11 1.19143e-10 5.84468e-11 2.58821e-11 -1.98826e-12 -3.19589e-12 
9.31575e-12 2.27766e-11 9.62772e-12 -2.45686e-11 5.97812e-12 -4.27009e-13 7.82963e-11 1.96869e-10 8.25495e-11 
1.36965e-11 1.36999e-11 -1.03372e-11 9.94492e-11 2.2421e-10 9.70978e-11 5.10083e-11 1.99115e-11 3.90952e-12 
5.95967e-11 1.08772e-10 5.05105e-11 4.70699e-11 5.18104e-11 3.98542e-12 6.25349e-11 1.19845e-10 5.47138e-11 
9.13104e-12 -1.19562e-11 -9.96354e-13 -2.5798e-11 5.45989e-11 8.64026e-12 -8.48405e-11 -1.11467e-11 2.49088e-12 
1.00014e-11 -9.71978e-13 2.70884e-12 3.88906e-11 1.71871e-11 -8.59355e-12 4.48504e-11 4.06181e-11 2.56405e-11 
2.91436e-11 6.72539e-12 6.30505e-12 6.6813e-11 1.87024e-10 7.6151e-11 -1.50887e-11 1.59417e-11 1.49453e-11 
1.33975e-10 3.2785e-10 1.38548e-10 -3.91922e-13 -4.85723e-11 -2.55316e-12 1.58437e-10 3.43165e-10 1.50481e-10 
-9.18187e-13 2.88943e-11 6.52301e-12 1.49607e-10 2.58042e-10 1.22295e-10 6.1236e-11 5.57958e-11 1.59417e-11 
2.04453e-11 8.58912e-12 8.71031e-12 1.09858e-11 -3.18833e-11 -4.98177e-12 4.55225e-11 1.71729e-10 6.51756e-11 
-2.60754e-12 -3.36892e-11 -2.07055e-12 1.00478e-10 1.97182e-10 8.92982e-11 1.88003e-11 5.38031e-11 1.49453e-11 
1.92059e-10 3.8894e-10 1.743e-10 1.25673e-11 7.5972e-12 3.23815e-12 1.65028e-10 2.90882e-10 1.36773e-10 
1.15333e-10 -2.47843e-11 -7.16129e-13 7.30299e-11 1.86333e-10 7.7809e-11 5.25633e-11 3.48724e-12 2.55316e-12 
5.09775e-11 1.36617e-10 5.62784e-11 1.96216e-11 -4.72023e-11 -4.20337e-12 7.48546e-11 1.18345e-10 5.79598e-11 
2.20849e-12 -3.68028e-11 -3.56508e-12 7.31205e-11 1.72699e-10 7.37458e-11 5.01393e-11 4.7825e-11 6.97448e-12 
1.10899e-11 3.69374e-11 1.44082e-11 4.42756e-11 -4.2345e-11 -2.6777e-12 7.09712e-11 1.571e-10 6.84215e-11 
-2.54037e-11 -2.13593e-11 -6.52301e-12 6.71723e-11 1.73042e-10 7.20644e-11 3.77401e-12 -7.28584e-12 7.47266e-12 
9.5241e-11 2.02264e-10 8.92515e-11 8.09165e-12 1.63776e-11 1.88373e-12 1.05491e-10 2.14276e-10 9.59302e-11 
5.33623e-11 3.98542e-12 -1.49453e-12 1.11153e-10 2.71743e-10 1.14869e-10 1.40488e-11 -5.97812e-12 4.2345e-12 
5.55324e-11 1.55414e-10 6.3284e-11 2.04481e-11 -1.19562e-11 1.49453e-12 5.42682e-11 1.28734e-10 5.49007e-11 
3.61494e-11 2.12348e-11 -1.29215e-12 9.24476e-11 2.20626e-10 9.39219e-11 -2.05384e-11 -2.49088e-11 4.98177e-13 
2.85814e-11 1.21417e-10 4.49994e-11 -2.2347e-11 1.81835e-11 4.73268e-12 1.19847e-11 1.47923e-11 8.0331e-12 
2.31047e-11 5.97812e-12 -9.96354e-13 2.00016e-11 2.56906e-11 1.37077e-11 -1.29689e-11 1.32017e-11 2.47532e-12 
8.44082e-11 2.17612e-10 9.06059e-11 3.72137e-11 -1.33885e-11 3.73633e-12 1.58684e-11 7.645e-11 2.76955e-11 
-1.27496e-11 2.36634e-11 -1.93044e-12 7.62925e-12 3.89109e-12 3.4561e-12 -5.93471e-12 7.97083e-12 -1.49453e-12 
-4.71302e-11 -7.22766e-11 -3.5822e-11 3.34485e-12 4.35905e-11 6.1338e-12 7.14854e-12 3.86215e-11 1.3731e-11 
-1.32811e-11 2.06743e-11 -1.60351e-12 1.10001e-11 4.37993e-11 1.64398e-11 -2.46843e-11 -3.98542e-12 -3.98542e-12 
-5.41318e-11 -1.04662e-10 -4.76382e-11 -1.40005e-11 -9.96354e-12 -9.96354e-13 2.07786e-11 -8.40197e-12 3.71298e-12 
1.62353e-11 -8.12651e-12 -6.44516e-12 -1.38326e-11 -3.97215e-11 -1.60662e-11 -5.65741e-12 1.36999e-11 2.56094e-12 
-6.47424e-11 -9.24947e-11 -4.71711e-11 -4.46105e-11 -1.19562e-11 -9.96354e-13 -6.18965e-12 -5.33069e-12 -3.4561e-12 
-1.23974e-11 -9.46536e-12 -6.35176e-12 -6.64052e-12 2.57624e-13 -1.91487e-12 8.52953e-12 -1.51944e-11 4.04769e-13 
-3.54176e-11 -6.69422e-11 -3.07079e-11 -1.5872e-11 -8.96719e-12 -8.40674e-13 -1.08157e-11 -1.10574e-11 -6.56193e-12 
-4.40812e-12 -3.11361e-12 -1.65021e-12 -5.47309e-12 1.9173e-11 4.10996e-12 -1.68794e-11 9.58991e-12 -2.27293e-12 
-3.89955e-11 -5.26224e-11 -2.74854e-11 -1.1917e-11 -3.73633e-13 -6.75653e-12 1.28874e-11 2.26077e-11 1.06485e-11 
2.11828e-11 -1.3949e-11 -9.96279e-27 1.57851e-11 6.55504e-12 6.70204e-12 -1.60404e-11 -9.839e-12 -1.46339e-12 
1.52516e-11 1.93095e-11 1.03683e-11 -2.35692e-11 1.73117e-11 -1.36999e-12 -3.35173e-11 -7.74828e-11 -3.33e-11 
3.84593e-12 8.09538e-13 -2.02384e-12 -5.42727e-11 -9.53361e-11 -4.48826e-11 -1.52221e-11 1.99271e-12 2.49088e-12 
2.72705e-12 -6.43764e-11 -1.84948e-11 -2.6205e-11 1.19562e-11 -6.53857e-12 -9.03091e-11 -1.87502e-10 -8.33435e-11 
-1.22694e-11 1.22053e-11 1.33885e-12 -4.97401e-11 -1.04695e-10 -4.63305e-11 -1.86279e-11 1.99271e-12 5.97812e-12 
-1.04816e-11 7.7572e-12 -8.17322e-13 -1.06125e-11 -2.90806e-26 1.99271e-12 2.10579e-12 1.00782e-12 9.34082e-13 
-7.70071e-12 -5.60449e-12 1.21431e-12 2.37419e-11 5.7134e-11 2.42628e-11 1.08321e-12 -3.61178e-12 -7.78402e-13 
1.92489e-12 -9.7089e-12 -2.3352e-12 -6.021e-12 -1.10844e-11 -2.21066e-12 4.38601e-12 -2.94505e-11 -7.51936e-12 
6.15911e-12 -6.27392e-12 -4.92728e-12 7.74253e-12 2.50282e-11 9.83121e-12 1.53883e-11 3.98542e-12 -3.48724e-12 
2.12597e-12 1.80346e-11 6.04818e-12 -1.64801e-12 1.33262e-11 -4.04769e-13 6.50195e-12 1.51559e-12 2.40526e-12 
5.19893e-12 3.73633e-13 9.34082e-14 1.75363e-12 -2.22067e-12 -1.40112e-13 -4.26301e-12 2.2418e-12 4.98177e-13 
-5.63055e-12 -2.07563e-12 -2.31185e-12 3.55955e-12 4.79495e-12 -2.11725e-12 1.01177e-11 3.5808e-11 1.37777e-11 
1.19855e-11 -9.40309e-12 -1.1209e-12 -3.93911e-12 -9.60508e-12 -4.06326e-12 6.92078e-12 -1.61908e-11 9.34082e-13 
1.14262e-11 2.29792e-11 1.03216e-11 6.11811e-14 -1.61908e-12 -2.64657e-13 1.36443e-13 2.11139e-11 6.37511e-12 
8.11246e-13 -4.35905e-12 -4.68598e-12 -2.36855e-11 -3.5473e-11 -1.77476e-11 -7.65079e-12 -2.95793e-12 -3.89201e-12 
3.6787e-13 -1.7337e-11 -5.09075e-12 -1.31475e-12 -1.46339e-12 -4.04769e-13 1.01392e-11 -2.27738e-12 2.35856e-12 
-5.51656e-12 -9.154e-12 -7.78402e-14 5.2233e-12 6.99761e-12 3.66627e-12 2.58213e-12 -3.21869e-12 -2.65824e-12 
-1.0719e-11 -1.76149e-11 -8.50015e-12 2.05935e-12 -3.26929e-13 1.88373e-12 -3.24268e-13 1.33619e-12 3.03577e-13 
-4.1948e-12 1.33885e-12 -1.86816e-13 1.80127e-11 2.01289e-11 1.14425e-11 2.24944e-12 1.71248e-13 -1.82146e-12 
-6.78068e-12 -7.23055e-12 -4.20337e-12 -1.399e-12 4.04769e-13 -6.07153e-13 3.54418e-12 -2.9993e-12 1.63464e-13 
4.2323e-12 -1.83703e-12 -3.8453e-12 -2.60717e-12 -1.82972e-12 -1.33107e-12 2.8697e-13 -7.47265e-13 -2.73997e-12 
3.96186e-12 7.08553e-13 1.40112e-12 -2.29133e-12 -2.80225e-13 -1.74362e-12 -4.11688e-13 1.34577e-12 2.80225e-13 
1.68121e-12 -1.6541e-13 -1.24544e-13 -4.93347e-13 2.75071e-12 6.77209e-13 9.91691e-13 2.1406e-14 -2.11725e-12 
-3.33872e-12 1.31487e-12 -6.07153e-13 2.81226e-12 9.96354e-13 9.96354e-13 1.29504e-11 1.12578e-11 7.26249e-12 
1.80091e-12 -2.69265e-28 2.2418e-12 -3.56766e-13 -5.88991e-12 -1.874e-12 7.86922e-13 1.30771e-12 7.47265e-13 
8.05226e-12 3.70161e-12 3.52616e-12 4.25417e-13 1.12674e-12 1.67356e-12 2.47876e-12 4.29334e-12 2.03163e-12 
9.81226e-13 1.01946e-12 6.79155e-13 2.88473e-12 2.64192e-12 1.658e-12 1.25711e-12 -1.5568e-14 1.24544e-12 
1.60954e-13 1.31801e-12 4.43689e-13 -1.76821e-12 -1.86816e-13 7.47265e-13 1.01746e-11 7.65079e-12 5.34762e-12 
-3.05862e-12 1.80978e-13 -9.53542e-14 5.07243e-12 5.35815e-12 3.12917e-12 3.17448e-13 1.86816e-13 1.5568e-12 
1.67887e-12 2.9137e-12 1.37777e-12 -1.76662e-12 -6.61641e-13 2.85284e-12 -1.55737e-13 5.13751e-12 1.49453e-12 
2.4202e-12 -7.47265e-13 -4.98177e-13 7.09326e-12 7.85205e-12 4.48359e-12 2.5396e-12 -2.42083e-12 -3.26929e-13 
3.83485e-12 -1.42181e-12 7.23913e-13 -4.40477e-15 -5.47995e-12 3.73633e-13 1.22023e-11 2.67178e-11 1.1676e-11 
1.7919e-12 -9.92462e-12 -1.34274e-13 3.39791e-12 1.14696e-11 4.46024e-12 -5.31672e-12 -6.68647e-12 9.983e-13 
-1.21613e-11 -1.23584e-11 -7.35589e-12 3.91736e-13 2.55316e-12 1.34469e-12 1.35594e-12 -1.72353e-11 -4.76382e-12 
-3.28357e-12 2.98906e-12 1.24544e-13 -8.89312e-12 -2.14645e-11 -9.1073e-12 -2.2446e-12 4.48359e-12 -1.07614e-12 
-2.78308e-11 -6.42541e-11 -2.76255e-11 -9.91403e-12 5.47995e-12 6.22721e-13 -1.99453e-11 -5.36137e-11 -2.20677e-11 
-1.66761e-11 -1.09443e-11 1.13841e-12 -1.51743e-11 -2.9973e-11 -1.35442e-11 -5.80511e-12 -1.19874e-11 -7.3267e-13 
-2.54871e-11 -5.22753e-11 -2.33287e-11 -4.1457e-12 9.96354e-13 2.44418e-12 -8.59973e-12 -2.38596e-11 -9.7378e-12 
-1.14579e-11 -6.97448e-12 1.81076e-12 -1.69086e-11 -3.29091e-11 -1.49453e-11 -9.60022e-12 -9.96354e-13 -4.98177e-13 
8.29923e-12 1.79329e-11 7.86964e-12 -1.84846e-14 1.99271e-12 1.48675e-12 -1.89293e-12 5.24005e-12 1.00414e-12 
-4.54436e-12 -1.24544e-12 5.94504e-13 2.35094e-12 2.24163e-12 1.37777e-12 -1.38974e-11 -6.22721e-12 -5.34178e-13 
-2.1791e-12 2.41263e-12 7.00561e-14 -6.43476e-12 -1.19562e-11 1.81465e-12 3.21026e-11 5.50006e-11 2.61309e-11 
1.94354e-11 -2.27916e-11 1.38166e-13 -1.1376e-12 3.78416e-12 7.9397e-13 1.06768e-11 -2.24491e-11 -2.40623e-12 
1.19713e-11 1.78415e-11 8.94383e-12 -2.29806e-11 -7.22357e-12 -1.90708e-13 5.36101e-15 -1.32864e-12 -3.96985e-13 
7.98453e-12 1.46962e-11 1.42837e-12 -3.41083e-11 -8.99689e-11 -3.72232e-11 8.96935e-12 3.61178e-12 1.5568e-12 
-4.38098e-11 -9.17877e-11 -4.06793e-11 -2.18698e-11 -1.32017e-11 3.29653e-12 7.4589e-12 -3.02201e-12 1.33107e-12 
2.25064e-11 1.50699e-11 1.12479e-12 -3.98309e-11 -8.4869e-11 -3.741e-11 6.03031e-12 -7.09902e-12 -1.32328e-13 
-2.62619e-11 -5.70271e-11 -2.49867e-11 -2.63612e-11 -5.47995e-12 3.73633e-13 1.79351e-11 4.33251e-11 1.83781e-11 
1.11598e-11 7.5972e-12 -1.08976e-13 -1.31362e-11 -2.39157e-11 -1.11156e-11 -1.81692e-11 -1.99271e-12 -1.74362e-12 
1.86776e-11 4.8732e-11 2.02229e-11 -8.76662e-12 -9.58991e-12 2.68549e-12 -4.66206e-11 -1.38016e-10 -5.53911e-11 
-1.00352e-11 1.48208e-11 -1.06641e-12 -5.53652e-11 -1.16584e-10 -5.15847e-11 -1.98869e-11 -2.93924e-11 -1.63464e-12 
7.0594e-12 2.32204e-11 9.08395e-12 -1.28362e-11 -1.70626e-11 5.41767e-12 -3.35923e-11 -8.04435e-11 -3.42107e-11 
-1.74623e-11 -1.70626e-11 -5.60449e-13 -6.91286e-12 1.92894e-11 3.71298e-12 1.8543e-11 5.97812e-12 -3.73633e-12 
-5.04888e-11 -1.10329e-10 -4.82453e-11 -4.69845e-12 2.34143e-11 -3.42497e-12 -1.44217e-11 -3.60187e-11 -1.51321e-11 
-1.65139e-11 4.17223e-12 -4.83777e-12 -3.32656e-11 -8.47401e-11 -3.54017e-11 -1.54906e-11 1.02126e-11 -7.42206e-12 
8.74366e-12 -8.4323e-12 9.34082e-14 5.28367e-13 1.09599e-11 -9.96354e-13 -2.03579e-11 -2.5957e-11 -1.38945e-11 
4.68784e-12 -8.65583e-12 6.22721e-14 -5.52759e-11 -1.21966e-10 -5.31726e-11 -6.82945e-12 -2.69016e-11 1.86816e-13 
2.67118e-12 -1.25569e-11 -2.96571e-12 1.23629e-11 8.21992e-12 -2.84506e-12 1.35954e-11 3.7857e-11 1.54357e-11 
-2.85885e-11 4.98177e-12 -2.6777e-12 -6.52358e-13 2.50942e-11 7.33254e-12 3.75668e-13 2.44107e-11 -5.60449e-13 
6.02408e-11 1.28833e-10 5.67221e-11 5.1916e-11 3.3876e-11 9.96354e-13 1.24909e-11 2.23037e-11 1.04384e-11 
-2.92884e-11 1.10222e-11 -3.89201e-14 2.53082e-12 9.53441e-12 3.61957e-12 -2.12124e-11 2.78979e-11 7.47265e-13 
5.43002e-11 1.48551e-10 6.08554e-11 -2.50222e-12 1.6938e-11 -1.24544e-12 5.25878e-11 1.15158e-10 5.03237e-11 
4.89574e-11 7.97083e-12 1.74362e-12 3.50697e-11 8.16127e-11 3.50047e-11 -3.20951e-14 8.78037e-12 -2.3352e-13 
6.83162e-11 1.54696e-10 6.69036e-11 -6.66711e-12 -1.04617e-11 -1.00414e-12 1.09325e-10 2.58469e-10 1.10338e-10 
-4.3521e-12 -5.28068e-11 -2.86452e-12 4.94577e-11 1.33467e-10 5.48773e-11 -1.6223e-11 -4.303e-11 -7.47265e-13 
9.02237e-11 1.89612e-10 8.39506e-11 7.25939e-11 3.07624e-11 5.04404e-12 1.076e-11 1.7496e-11 8.47679e-12 
4.02273e-11 5.94076e-11 4.90393e-12 -2.43876e-11 -3.20465e-11 -1.69302e-11 -3.21253e-11 -4.33414e-11 -4.67041e-13 
-3.26212e-11 -9.20788e-11 -3.741e-11 -7.52226e-11 -3.30042e-12 -5.58114e-12 8.14932e-12 1.47357e-11 6.8655e-12 
1.77346e-11 1.87439e-11 -6.20386e-12 -9.37994e-12 2.44809e-11 4.5303e-12 -2.11974e-11 1.59417e-11 1.24544e-12 
-3.29018e-11 1.81122e-11 -4.43689e-12 -2.05296e-11 3.98542e-12 3.23815e-12 3.82791e-11 6.81284e-11 3.19222e-11 
4.78153e-12 4.67041e-12 4.40575e-12 -2.35596e-11 -1.0402e-10 -3.8274e-11 -1.65649e-11 5.10631e-11 9.71445e-12 
3.1068e-11 5.30773e-11 2.52436e-11 -1.65685e-11 1.54435e-11 4.9662e-12 9.56183e-11 2.11383e-10 9.21005e-11 
4.28286e-11 7.97083e-12 -4.48359e-12 3.0369e-11 3.17474e-11 1.86349e-11 3.22558e-11 -2.88943e-11 -1.08976e-12 
-9.73395e-11 -2.33559e-10 -9.92696e-11 -6.08555e-11 1.07108e-11 5.13745e-12 8.94338e-11 1.89234e-10 8.36003e-11 
-8.9081e-12 8.34446e-11 1.61908e-11 -9.08627e-11 -1.49975e-10 -7.22512e-11 -4.18411e-11 3.98542e-12 6.97448e-12 
-7.16107e-11 -1.10535e-10 -5.46438e-11 -3.04727e-11 7.97083e-12 -1.49453e-12 3.23447e-11 3.21069e-11 1.93355e-11 
-2.11825e-11 3.9356e-11 7.9397e-12 3.75949e-11 2.53778e-11 1.88918e-11 -1.03675e-11 -2.36011e-11 -1.92265e-12 
-1.07442e-10 -2.09834e-10 -9.51829e-11 -4.08323e-12 -2.78979e-11 -6.97448e-12 -1.25082e-10 -2.40923e-10 -1.09801e-10 
-4.80031e-11 4.38396e-11 -2.45975e-12 1.76286e-12 -3.14978e-11 -8.92048e-12 7.57938e-12 1.99271e-12 7.16129e-12 
-7.24961e-11 -1.37906e-10 -6.31206e-11 -6.42598e-11 -6.17739e-11 -7.81515e-12 -3.53995e-11 -4.29856e-11 -2.35155e-11 
-2.06438e-11 3.18833e-11 5.97812e-12 1.07416e-10 1.87754e-10 8.8551e-11 3.85769e-12 -1.99271e-11 1.19562e-11 
6.69965e-11 1.97115e-10 7.92335e-11 2.58297e-11 -3.51215e-11 7.06789e-12 1.16414e-10 2.4095e-10 1.07209e-10 
4.97915e-11 4.10996e-11 6.66312e-12 -6.51579e-11 -8.46288e-11 -4.4936e-11 -7.81428e-11 3.62958e-12 1.24633e-11 
4.70892e-12 -1.28821e-11 -2.45196e-12 1.05603e-11 -2.40993e-11 1.27035e-11 2.32825e-11 5.7182e-11 2.41393e-11 
1.979e-12 -6.49053e-11 -1.49453e-11 1.15692e-11 8.12432e-12 5.90807e-12 1.88981e-12 3.26929e-12 1.24544e-12 
-4.63581e-11 -6.93902e-11 -3.47245e-11 -2.56581e-11 -3.98542e-12 -8.46901e-12 4.80818e-12 -8.26483e-11 -2.3352e-11 
-2.58474e-11 -9.96354e-11 -4.98177e-13 -4.01168e-11 -9.07265e-11 -3.9253e-11 3.21611e-12 1.74359e-25 1.37957e-12 
1.1366e-11 1.52195e-11 7.97562e-12 4.5947e-12 4.22492e-12 1.37957e-12 5.14138e-11 8.98024e-11 4.23649e-11 
2.96414e-11 -2.82602e-11 7.06506e-12 -1.18565e-10 -1.91125e-10 -9.29072e-11 -2.64835e-11 -2.82602e-11 -2.98906e-12 
-4.85987e-11 -1.57678e-10 -6.18829e-11 -5.98812e-11 9.58991e-12 6.84993e-12 -2.9612e-11 -1.08217e-10 -4.13487e-11 
4.3253e-11 -1.06278e-10 -1.72701e-11 -2.32364e-11 -5.82388e-12 -8.7181e-12 -5.01438e-11 7.97083e-11 4.64965e-12 
-7.99012e-13 -6.02277e-11 -1.8308e-11 -2.11727e-11 -1.59417e-11 2.10026e-26 3.51407e-11 9.45529e-11 3.89081e-11 
5.2543e-11 -3.4949e-11 1.08066e-11 -3.84355e-12 -4.24454e-11 -1.38867e-11 -8.98102e-12 2.823e-11 7.72174e-12 
5.77083e-11 1.2221e-10 5.39756e-11 1.79823e-11 -1.14964e-10 -1.73596e-11 -1.53945e-12 6.83212e-13 -2.56873e-13 
-4.09608e-12 -2.49088e-11 -4.98177e-12 5.87637e-11 1.44493e-10 6.09769e-11 -3.58175e-11 -2.15212e-11 8.96719e-13 
8.78361e-12 3.6699e-11 1.36448e-11 -8.4483e-12 -5.15038e-11 -5.51827e-12 3.93347e-11 1.05108e-10 4.33329e-11 
-1.26675e-11 7.39113e-11 1.9293e-11 -2.94555e-11 -1.6099e-11 -1.36663e-11 4.81733e-12 -9.01317e-11 -1.08066e-11 
1.06998e-11 -2.82917e-11 -5.27756e-12 1.02546e-11 1.58794e-11 6.12213e-12 2.97977e-11 -2.27921e-11 2.10168e-12 
-1.55557e-11 6.4489e-11 -5.7446e-13 -5.38547e-11 -1.79594e-10 -7.00346e-11 -1.0162e-11 -9.74894e-11 -1.37957e-12 
-1.58999e-11 -7.81876e-11 -2.82263e-11 -5.85453e-11 -1.79344e-11 -8.15199e-12 -1.10198e-10 -2.52082e-10 -1.08684e-10 
-8.34951e-13 -1.65548e-11 -3.21899e-12 -4.49004e-11 -1.04553e-10 -4.48359e-11 2.60916e-11 3.67228e-11 2.13504e-12 
1.68591e-10 3.59525e-10 1.58435e-10 2.59693e-11 -1.04847e-10 -1.19562e-11 1.07506e-10 2.02049e-10 9.28664e-11 
-2.12408e-11 7.17375e-12 -2.98906e-13 2.49491e-11 8.93202e-11 3.42808e-11 1.87016e-11 -3.98542e-11 -1.14581e-11 
5.45364e-11 1.92486e-10 7.41067e-11 1.41855e-11 4.99989e-11 1.27714e-11 1.03277e-11 -5.74219e-12 1.37565e-12 
6.70772e-11 -1.73909e-11 -5.97812e-12 2.89084e-11 1.04071e-10 3.98938e-11 -9.91051e-11 1.08693e-11 -2.71733e-12 
-4.21748e-11 -5.41691e-11 -2.89032e-11 -2.10627e-11 -2.04964e-11 -8.11317e-12 -1.52243e-11 -6.3833e-11 -2.37172e-11 
-6.95355e-11 -4.7825e-11 4.34773e-12 8.12518e-11 1.52476e-10 7.01184e-11 -4.24729e-11 -3.45403e-11 -1.99271e-12 
4.78115e-11 1.38849e-10 5.59982e-11 4.00057e-11 1.09599e-11 -3.98542e-12 1.32427e-11 -3.9397e-11 -7.84629e-12 
3.20276e-11 3.826e-11 -5.97812e-12 -2.60483e-11 -2.8553e-11 -1.63804e-11 5.14817e-11 -3.36949e-11 -3.66839e-12 
-4.44543e-11 -6.96594e-11 -3.42341e-11 -3.84383e-11 5.57958e-11 -9.96354e-12 -1.32173e-10 -3.02279e-10 -1.30336e-10 
2.29551e-11 5.31389e-12 -1.99271e-11 2.70698e-11 5.75071e-11 2.53731e-11 -7.1027e-12 -5.43466e-12 1.019e-12 
-1.20085e-10 -2.77834e-10 -1.19376e-10 -2.41291e-11 -3.91567e-11 7.43529e-12 -5.02103e-11 -9.55065e-11 -4.3715e-11 
-2.04371e-11 2.39125e-11 7.06506e-12 2.21458e-11 -2.58821e-11 -1.1209e-12 9.57908e-13 1.87496e-11 1.15826e-11 
-1.11284e-11 -3.81689e-12 -4.48359e-12 -1.18277e-11 7.98507e-11 1.60128e-12 -5.55384e-11 -8.86994e-11 -4.32713e-11 
-4.53098e-11 -4.7825e-11 6.97448e-12 -1.39505e-11 -1.84027e-11 -9.70596e-12 1.11921e-11 3.80426e-11 -2.71733e-13 
3.7095e-11 9.2649e-11 3.89232e-11 -3.4026e-12 -4.7825e-11 4.7825e-12 1.67132e-11 2.23848e-11 1.17294e-11 
1.38341e-11 1.70804e-12 6.72539e-12 1.65977e-11 2.50964e-11 1.25082e-11 2.02881e-11 -3.26079e-11 -1.08693e-12 
-5.39859e-11 -8.66358e-11 -4.21865e-11 -1.70652e-11 -2.17386e-11 -2.37766e-12 -1.02553e-10 -2.44739e-10 -1.04187e-10 
9.77601e-12 6.27703e-12 6.53857e-12 -2.60095e-11 -4.43014e-11 -2.10933e-11 -2.83373e-11 -9.98727e-27 -1.08693e-12 
2.29932e-11 5.7168e-11 2.40484e-11 -5.57827e-12 9.23892e-12 2.71733e-13 5.76315e-11 1.10114e-10 5.03237e-11 
-7.02208e-12 -1.46962e-11 -6.86625e-27 5.38829e-12 1.04649e-12 1.93044e-12 2.59551e-12 2.65694e-12 -3.32118e-12 
-1.15975e-12 4.18857e-11 1.22178e-11 3.59167e-11 2.39125e-11 -1.34508e-12 5.41288e-12 4.16026e-11 1.41046e-11 
-1.58273e-14 -1.99271e-11 -5.60449e-12 2.54723e-12 2.77585e-11 9.09173e-12 3.5906e-11 1.32847e-11 -8.30295e-13 
-2.46162e-11 -5.37748e-11 -2.35173e-11 -6.38523e-12 -1.74745e-11 -2.93158e-12 -6.71987e-11 -1.01247e-10 -5.05338e-11 
9.69433e-13 -1.99271e-12 -2.49088e-12 -3.8887e-11 -6.99336e-11 -3.26462e-11 1.64145e-12 1.64398e-11 -1.24544e-12 
4.02751e-11 8.83408e-11 3.85848e-11 8.95995e-12 5.51827e-12 4.02374e-13 4.52468e-11 1.14108e-10 4.78063e-11 
-1.36238e-12 2.98906e-11 -2.39125e-12 4.9396e-11 5.99694e-11 3.28096e-11 1.39363e-11 -3.17588e-12 -7.37925e-12 
-1.12575e-12 2.51963e-11 7.22117e-12 2.75386e-11 3.21899e-12 -1.20712e-12 -5.56681e-11 -9.30844e-11 -4.46258e-11 
-6.85412e-13 1.59417e-11 -3.98542e-12 1.55457e-11 1.15426e-11 8.12651e-12 3.2763e-11 3.32118e-13 -4.81571e-12 
-1.7071e-12 1.59339e-11 4.26804e-12 1.64682e-11 -2.20731e-11 4.02374e-13 -2.11686e-11 -4.12281e-11 -1.8719e-11 
1.4541e-11 1.43475e-11 -1.19562e-12 7.90619e-12 1.41525e-11 6.61761e-12 2.15199e-11 -3.67885e-12 -1.03468e-12 
2.41378e-11 3.19071e-11 1.68135e-11 7.38808e-12 1.85986e-11 -3.98542e-12 1.88532e-11 4.63323e-11 1.95557e-11 
-1.0404e-11 -2.39125e-11 7.47265e-13 9.32372e-13 8.07331e-11 2.44996e-11 4.96142e-12 3.88578e-11 1.38778e-12 
1.51373e-11 3.94546e-11 1.63776e-11 -5.38504e-11 3.32118e-12 -7.47265e-13 1.71396e-11 3.40014e-11 1.53423e-11 
-3.7845e-11 -1.84325e-11 -8.7181e-13 -1.67129e-11 7.22241e-11 1.66533e-11 -6.38034e-12 -2.17775e-11 -2.66881e-14 
-1.2567e-11 -5.51899e-11 -2.03271e-11 2.83297e-11 6.43798e-12 -1.0203e-12 -8.06273e-13 5.57095e-11 1.6471e-11 
3.75709e-11 7.3066e-12 -1.32847e-12 1.15043e-11 5.30921e-12 5.04404e-12 -2.79577e-12 1.86242e-11 -6.39487e-13 
-4.84099e-12 -9.63728e-12 -4.34348e-12 4.56523e-12 9.26609e-12 5.23086e-13 1.16636e-12 1.3694e-11 4.45812e-12 
-2.92295e-12 7.81232e-12 2.37766e-13 2.35631e-11 3.88767e-11 1.87319e-11 5.04999e-12 8.2774e-12 -2.27772e-12 
3.7352e-12 4.77327e-11 1.54404e-11 -2.20515e-13 4.7825e-12 2.98906e-12 -2.17139e-11 -4.63892e-11 -2.04309e-11 
-1.18509e-11 -7.13299e-12 2.12291e-13 -1.97574e-11 1.26999e-11 -2.11725e-12 2.45031e-11 2.65694e-12 -2.98906e-12 
2.22252e-11 6.90813e-11 2.7392e-11 -1.25428e-13 -4.2345e-12 2.1406e-14 9.17362e-12 2.69442e-11 1.08353e-11 
9.29679e-13 -1.44199e-11 2.50256e-12 2.85563e-11 4.76988e-11 2.28765e-11 5.99967e-12 2.17386e-12 4.43689e-13 
-1.27704e-11 6.4186e-12 -1.90553e-12 -5.61407e-12 -1.22552e-11 1.15826e-12 5.53114e-12 1.75095e-11 6.91221e-12 
1.19176e-11 -4.98177e-13 2.88009e-13 1.93453e-11 1.98861e-11 1.17694e-11 5.57939e-12 9.23892e-12 8.15199e-13 
1.7069e-11 1.97194e-11 1.10365e-11 -1.98824e-12 1.37957e-12 -1.14964e-13 4.08323e-12 2.05765e-11 7.39793e-12 
1.57803e-11 -8.21992e-13 1.71871e-12 3.21638e-11 5.25263e-11 2.5407e-11 -2.89192e-12 -6.64236e-12 -1.32847e-12 
4.47147e-13 -1.23028e-11 -3.5567e-12 4.56377e-12 1.37957e-11 -1.71009e-12 4.41193e-12 7.99802e-12 3.72298e-12 
-6.63112e-12 8.21992e-12 -6.13825e-13 -7.49041e-12 -1.31443e-11 -6.19042e-12 -1.45134e-12 1.6304e-12 1.9361e-12 
1.20157e-11 4.95505e-14 3.61957e-12 -4.65977e-12 -7.11459e-12 2.71468e-13 2.62478e-12 3.44676e-12 1.82146e-12 
-3.01591e-12 1.19562e-12 1.8308e-12 1.28218e-11 1.63895e-11 8.76339e-12 1.52097e-12 -1.1209e-12 3.65141e-12 
-3.93902e-12 8.52451e-12 1.37565e-12 6.27816e-12 4.34773e-12 3.39666e-13 1.74945e-11 1.88413e-11 1.09007e-11 
4.34652e-12 4.18469e-12 -2.39125e-12 -1.09248e-11 -2.3222e-12 -3.97409e-12 -3.23079e-12 -4.61946e-12 -8.83132e-13 
1.5161e-12 3.9846e-12 1.65021e-12 9.60632e-14 3.06171e-12 -6.39327e-12 -2.36741e-12 -4.03773e-12 -1.92154e-12 
-5.52036e-12 -8.54018e-13 -2.34855e-12 -3.51874e-12 -1.4319e-12 -1.48519e-12 1.64679e-12 8.96719e-13 1.19562e-12 
1.23212e-11 1.21805e-11 7.35051e-12 -3.91196e-13 -1.37957e-12 -5.31708e-12 -7.30209e-12 -5.04854e-12 -3.70519e-12 
2.52647e-12 1.16241e-12 -3.32118e-13 9.86298e-12 -5.51202e-14 2.94236e-12 -1.20397e-12 2.88231e-12 -1.28103e-12 
2.75901e-12 1.44436e-12 1.26101e-12 -5.24165e-13 -7.26249e-13 -1.27035e-12 7.04452e-12 -1.44003e-12 1.68135e-12 
1.49266e-12 1.08693e-12 3.39666e-12 1.7401e-11 8.13057e-12 7.65947e-12 -7.54193e-13 -4.83906e-13 1.34923e-12 
7.53922e-12 3.93664e-12 3.44276e-12 9.41495e-13 7.76456e-13 1.60128e-12 3.59109e-13 -3.47271e-12 -9.34082e-13 
4.0726e-12 -1.66578e-12 4.98177e-13 2.72914e-12 2.56399e-12 1.58794e-12 -2.55865e-12 6.72539e-13 -1.79344e-12 
1.55128e-11 1.08283e-11 7.90233e-12 -3.79763e-13 -2.98906e-13 1.34508e-12 -2.33194e-12 4.01329e-12 5.04404e-13 
-3.47537e-12 2.69016e-12 8.96719e-13 1.02563e-11 1.24731e-11 6.8188e-12 1.05487e-12 -2.49089e-13 1.1209e-12 
5.19775e-11 1.23837e-10 5.27445e-11 -4.99554e-11 4.7825e-11 1.19562e-11 2.57624e-11 -2.9858e-11 -1.22868e-12 
8.14004e-11 4.59856e-12 1.03468e-12 6.31227e-12 3.2833e-12 2.87867e-12 6.66579e-12 3.94013e-12 -1.15486e-12 
2.44001e-12 8.85389e-12 3.38817e-12 -3.90434e-12 -2.41163e-12 -4.55153e-12 1.94136e-11 2.19779e-11 1.24175e-11 
-3.90131e-11 2.83961e-11 6.44516e-12 8.50439e-11 1.39019e-10 6.72189e-11 -6.74234e-12 -1.38244e-11 -4.90393e-12 
-1.18589e-10 -2.2743e-10 -1.03806e-10 -4.66473e-11 6.72539e-11 4.67041e-12 1.04792e-10 2.07834e-10 9.37877e-11 
-2.675e-11 -5.97812e-12 -9.57434e-12 -8.02168e-11 -1.69767e-10 -7.49951e-11 5.72515e-11 1.45717e-11 1.86816e-13 
-2.57391e-12 -6.76691e-12 -2.80225e-12 -8.28753e-13 -2.12971e-11 -2.45196e-12 -7.48315e-11 -1.22318e-10 -5.91449e-11 
-1.08479e-11 4.48359e-12 1.35442e-12 1.87905e-11 2.13751e-11 1.20497e-11 2.89305e-11 -3.73633e-12 -6.07153e-13 
-8.06264e-12 1.18573e-11 1.13841e-12 -1.20062e-11 1.40112e-12 -1.26101e-12 3.20421e-11 7.09404e-11 3.08948e-11 
1.38769e-11 -1.52255e-11 -4.86014e-13 -2.38671e-12 1.39425e-12 -2.97739e-13 1.99406e-11 -1.86816e-12 5.25421e-13 
3.66535e-11 6.97735e-11 3.19281e-11 -1.49248e-11 -4.67041e-12 -4.20337e-13 8.00081e-12 6.76936e-12 4.43105e-12 
6.24077e-12 -1.86816e-12 -4.25007e-12 -1.0857e-11 4.02657e-12 -2.04914e-12 1.64603e-11 8.87378e-12 -9.34082e-14 
2.65947e-11 6.41864e-11 2.72343e-11 -2.67904e-11 9.34082e-14 -1.65945e-12 7.56089e-11 1.47753e-10 6.70087e-11 
-3.99705e-11 1.19562e-11 -3.96985e-12 -1.34188e-12 4.05733e-11 1.17694e-11 4.11756e-11 -3.77369e-11 -9.94797e-12 
-7.84972e-12 -2.89881e-11 -1.10514e-11 7.43326e-12 -4.67041e-12 -1.39237e-12 -5.80634e-13 -2.51351e-12 -9.28244e-13 
3.68898e-11 -2.9517e-11 -1.58794e-12 1.12508e-10 2.05547e-10 9.54165e-11 -1.03299e-11 -2.2418e-12 -1.43849e-11 
-2.77758e-11 -6.16042e-11 -2.6814e-11 -4.46729e-11 -2.05498e-11 3.24593e-12 1.19623e-10 2.81274e-10 1.20269e-10 
-4.89392e-12 -6.80012e-11 -3.61957e-12 -5.2274e-11 -1.50247e-10 -6.07562e-11 -5.76385e-12 5.60449e-12 -5.23086e-12 
-9.4582e-12 -3.2809e-11 -1.26802e-11 -1.09935e-11 2.98906e-12 1.07419e-12 -2.16602e-12 -9.62676e-12 -3.53784e-12 
3.12824e-11 -8.59355e-12 -2.79349e-12 9.69906e-12 4.96151e-11 1.77943e-11 -1.84438e-11 6.35176e-12 3.03577e-13 
7.60183e-11 1.60013e-10 7.08092e-11 -3.65957e-12 -1.19562e-11 -1.68135e-12 2.83932e-12 7.31882e-12 3.04744e-12 
-1.22768e-11 -7.84629e-12 -1.77476e-12 -4.71679e-12 -1.43735e-11 -5.72709e-12 4.34875e-12 1.72805e-12 -6.07153e-13 
-1.18283e-11 -2.53323e-12 -4.30845e-12 2.94746e-12 2.70884e-12 -2.80225e-13 3.5803e-11 1.443e-10 5.40308e-11 
-1.17324e-11 8.07047e-11 8.50015e-12 -1.48526e-10 -2.79108e-10 -1.2829e-10 -2.08727e-11 2.98906e-12 -9.34082e-13 
6.4432e-11 1.19932e-10 5.53093e-11 4.55941e-11 -3.96051e-11 -3.37437e-12 -4.99441e-11 -1.26831e-10 -5.30325e-11 
-1.65637e-11 -3.92314e-11 -4.46024e-12 3.54746e-12 4.85927e-12 2.52202e-12 6.17813e-12 -1.03683e-11 -2.59208e-12 
-3.54846e-11 -1.30899e-10 -4.9915e-11 4.84057e-12 3.32533e-11 1.40112e-12 2.94259e-12 -1.12326e-11 -2.48699e-12 
1.19762e-11 -2.57807e-11 -2.85187e-12 -2.63046e-11 -5.06987e-11 -2.3101e-11 4.8848e-12 1.86816e-11 -1.36609e-12 
-9.96096e-13 2.82596e-11 8.17905e-12 -1.00442e-11 -1.10222e-11 -3.9465e-12 -2.42438e-12 -1.02441e-11 -3.80055e-12 
9.69315e-13 -1.40112e-12 1.86816e-13 -1.88042e-11 -6.24083e-12 -7.51352e-12 -3.30322e-13 -3.96985e-12 -1.37777e-12 
2.61814e-11 5.91119e-11 2.5588e-11 -6.90289e-12 5.97812e-12 1.40112e-12 1.16959e-12 -1.5823e-11 -4.39602e-12 
7.29348e-12 9.34082e-13 5.13745e-12 -2.54982e-11 -6.91944e-11 -2.84078e-11 -1.28202e-11 -9.52763e-12 -9.3992e-13 
2.6826e-12 1.79256e-11 6.18245e-12 4.12285e-12 1.8308e-11 1.69302e-13 -3.00138e-11 -8.41777e-11 -3.42575e-11 
-1.81521e-11 2.9517e-11 -3.03932e-26 2.03501e-11 1.19341e-11 9.68526e-12 -4.09576e-12 -1.49453e-12 4.20337e-13 
1.3466e-11 3.35884e-11 1.41163e-11 -4.83405e-12 -9.34082e-14 -5.60449e-13 -4.81306e-13 1.29863e-12 2.45196e-13 
-3.89049e-13 3.61957e-13 5.48773e-12 1.53469e-11 6.83757e-12 6.65533e-12 -1.69274e-12 6.85966e-14 9.34082e-14 
-1.33633e-11 -2.16578e-12 -4.65873e-12 1.48582e-12 2.26515e-12 -1.1209e-12 -1.71065e-12 -9.38157e-12 -3.32767e-12 
1.00741e-12 -1.1209e-12 -2.14839e-12 -5.37403e-11 -8.96996e-11 -4.3032e-11 -2.81834e-11 1.8308e-11 3.4561e-12 
-3.03677e-11 -1.54607e-11 -1.37485e-11 4.3525e-11 7.84629e-12 2.80225e-12 -5.09693e-13 6.26454e-13 3.50281e-14 
-2.9e-13 4.43689e-13 -3.33934e-12 2.73206e-11 5.12007e-11 2.35564e-11 -2.68832e-11 1.49453e-11 6.53857e-12 
1.0994e-10 2.10684e-10 9.61871e-11 1.28762e-11 8.14519e-11 6.35176e-12 5.00527e-11 3.72256e-11 2.61835e-11 
1.87417e-11 5.23086e-12 3.54951e-12 -1.11649e-11 4.68473e-12 -1.94406e-12 4.82235e-12 9.34082e-12 -9.34082e-13 
-9.35422e-12 -1.44065e-11 -7.12821e-12 6.55079e-12 7.47265e-13 -2.47532e-12 5.814e-11 1.80635e-10 7.16324e-11 
-2.30274e-11 2.98906e-12 -2.05498e-12 4.90207e-11 1.02301e-10 4.53964e-11 4.8404e-12 -6.53857e-12 -6.07153e-13 
-2.20813e-12 2.26651e-12 1.7514e-14 7.85418e-13 2.30601e-13 -1.58794e-12 2.87897e-11 2.43195e-11 1.59328e-11 
1.19017e-11 -4.8252e-11 -1.27035e-11 3.83216e-11 7.35348e-11 3.35569e-11 7.09216e-11 1.56926e-11 5.93142e-12 
-6.78547e-11 -1.81253e-10 -7.47324e-11 3.35408e-11 3.43742e-11 1.68135e-12 -7.96323e-11 -1.51728e-10 -6.94081e-11 
4.34636e-12 6.12758e-11 3.68962e-12 1.15018e-11 1.41271e-11 7.68866e-12 -1.96556e-11 -6.35176e-12 -7.47265e-13 
-8.01937e-11 -1.63251e-10 -7.30335e-11 1.40463e-12 4.85723e-11 -2.66213e-12 4.45553e-11 9.30466e-11 4.12806e-11 
3.69333e-12 7.09902e-12 -3.64292e-12 7.72286e-11 1.54832e-10 6.96183e-11 1.51082e-11 -3.43742e-11 -9.76116e-12 
2.45686e-13 -5.87426e-11 -1.75491e-11 6.08383e-12 5.23086e-12 -7.9397e-13 -3.84192e-11 -9.09511e-11 -3.88111e-11 
1.94158e-11 1.17694e-11 -2.12723e-12 -6.35544e-12 1.94326e-11 3.92314e-12 -1.54366e-11 -1.86816e-11 2.75554e-12 
3.39788e-13 -2.45675e-11 -7.26832e-12 3.98147e-11 -1.1209e-12 5.60449e-13 5.79163e-11 1.02921e-10 4.82512e-11 
-3.9595e-12 -1.34508e-11 9.34082e-14 4.66375e-11 7.59767e-12 1.62705e-11 6.73152e-12 -2.46598e-11 2.3352e-12 
2.1391e-12 1.07629e-11 3.8706e-12 8.88181e-12 4.67041e-13 -1.30188e-12 2.59942e-11 6.1576e-11 2.62711e-11 
3.05759e-11 -1.71871e-11 -3.12917e-12 3.48785e-11 8.82451e-11 3.69371e-11 3.54973e-12 -4.48359e-11 -5.41767e-12 
3.86032e-11 7.85073e-11 3.51332e-11 -5.58037e-12 -5.60449e-12 -2.32937e-12 5.68695e-12 -1.95814e-11 -4.16834e-12 
2.06965e-11 -1.73739e-11 2.60375e-12 6.33135e-11 1.0704e-10 5.1106e-11 5.06312e-11 -6.53857e-12 1.40112e-13 
-7.35008e-14 1.05819e-11 3.15253e-12 -3.05068e-11 3.73633e-12 3.73633e-12 -3.41937e-11 -4.8998e-11 -2.49575e-11 
4.97293e-11 -2.16707e-11 -1.30771e-11 -8.84571e-12 -1.72109e-12 -3.17004e-12 1.82606e-11 -2.31652e-11 3.26929e-13 
-2.88023e-11 -2.6834e-11 -1.66909e-11 -6.24911e-12 -5.60449e-12 -1.1209e-12 5.97323e-11 1.15875e-10 5.26822e-11 
-3.13032e-13 -2.01762e-11 1.60545e-13 2.27051e-11 1.25565e-11 1.05785e-11 5.85085e-12 -4.7825e-11 -1.33574e-11 
1.48761e-10 2.61827e-10 1.23176e-10 -2.60593e-11 -4.76382e-11 -8.87378e-13 -5.647e-12 -2.20252e-11 -8.30165e-12 
4.71879e-12 -7.00561e-12 9.92462e-14 2.72042e-11 7.16917e-11 2.96688e-11 -8.3896e-12 1.53189e-11 -8.87378e-13 
-2.57863e-11 -1.74166e-10 -5.99856e-11 9.49532e-11 -2.83961e-11 -3.92314e-12 1.69981e-11 3.36174e-11 1.51847e-11 
-6.84301e-12 2.00828e-12 9.34082e-14 1.29258e-11 3.77095e-12 5.00901e-12 -3.03341e-12 6.35176e-12 -3.50281e-12 
7.40626e-11 1.32953e-10 6.21048e-11 1.12652e-11 3.4561e-11 6.39846e-12 -1.08417e-11 -2.91487e-11 -1.19971e-11 
-4.31035e-11 -1.38244e-11 -1.63464e-12 -1.04537e-11 -4.54161e-11 -1.67609e-11 5.07063e-11 -8.4441e-11 -3.78303e-12 
-1.19172e-12 -9.31671e-12 -3.15253e-12 -4.42233e-14 -2.2418e-12 -1.34274e-12 -1.41608e-11 -4.05379e-12 -5.46438e-12 
-1.76169e-12 2.39125e-11 -1.68135e-12 -9.31654e-12 -1.22841e-11 -6.48019e-12 -8.85756e-12 -5.97767e-26 -2.82268e-12 
-2.56969e-12 -1.50027e-11 -5.27172e-12 -1.87381e-11 2.2418e-12 -1.24933e-12 1.64679e-11 3.19876e-11 1.45366e-11 
-3.16041e-11 1.45717e-11 -3.26929e-13 -2.02871e-12 -8.59647e-12 -3.18755e-12 4.35801e-12 -3.08247e-12 -1.09755e-12 
-2.63535e-12 1.96823e-11 5.1141e-12 -6.73377e-12 -2.89565e-12 3.66627e-12 5.23165e-11 1.27027e-10 5.38031e-11 
2.2035e-11 1.38244e-11 4.67041e-13 -4.3245e-12 -6.55565e-11 -2.09643e-11 1.33884e-11 5.4924e-11 1.45717e-11 
8.91259e-12 8.95173e-12 5.35929e-12 3.30085e-12 -3.92314e-12 7.9397e-13 6.20524e-12 8.44817e-12 4.39602e-12 
4.59151e-12 1.26101e-11 -7.91051e-13 3.35708e-12 3.57576e-11 1.17344e-11 2.71301e-12 -2.0363e-11 -1.40112e-12 
8.13478e-11 1.84865e-10 7.9864e-11 3.97219e-12 -9.71445e-12 -1.40112e-12 -3.58675e-12 1.13479e-12 -7.35589e-13 
6.52564e-13 3.92314e-12 1.68135e-12 -6.50962e-12 -9.01949e-12 -4.65873e-12 -2.21419e-11 -7.47266e-12 1.51461e-26 
7.64934e-13 1.92055e-12 8.05646e-13 -2.07518e-12 2.91901e-13 1.68135e-12 2.72121e-12 5.48077e-13 9.80786e-13 
-3.47059e-12 2.53954e-13 -4.67041e-14 1.23913e-11 4.48058e-12 5.06156e-12 7.66465e-13 6.07153e-13 -1.63464e-12 
1.19863e-12 5.86536e-12 2.1192e-12 -1.25333e-12 1.1209e-12 -2.05498e-12 -1.75278e-11 -4.43552e-11 -1.85649e-11 
-2.03149e-11 2.98906e-11 -7.28584e-12 -9.68064e-12 -5.84847e-12 -4.65873e-12 -3.1985e-12 4.20337e-13 -1.35442e-12 
5.76762e-11 5.70407e-11 3.44151e-11 -3.58179e-12 2.83961e-11 3.36269e-12 7.16956e-11 1.83542e-10 7.65714e-11 
9.72939e-13 1.34508e-11 8.40674e-12 -7.39833e-12 -3.00233e-11 -1.12265e-11 -3.89053e-11 2.09234e-11 -2.80225e-12 
4.35229e-11 5.87007e-11 3.06671e-11 -1.15748e-11 2.31652e-11 2.42861e-12 -6.0039e-12 -1.29696e-11 -5.69206e-12 
8.20385e-12 -8.31333e-12 -1.77476e-12 -5.95606e-11 -1.15229e-10 -5.2437e-11 -9.61952e-12 9.154e-12 2.98906e-12 
-3.34155e-12 -2.04192e-11 -7.12821e-12 1.4808e-11 1.8308e-11 -1.86816e-12 8.86584e-12 5.61243e-12 4.34348e-12 
1.9202e-12 -4.67041e-14 -1.40112e-12 7.07747e-11 1.6368e-10 7.03364e-11 -2.55054e-11 -1.04617e-11 -3.73633e-12 
1.03791e-11 2.30143e-11 1.0018e-11 -1.80514e-11 -1.86816e-12 -1.86816e-13 -2.23565e-11 -5.99011e-11 -2.46773e-11 
1.20954e-11 -2.05498e-12 -7.9397e-13 1.65928e-11 4.82675e-11 1.94581e-11 -7.61096e-12 -2.70884e-11 -1.93822e-12 
1.07169e-10 2.44104e-10 1.05382e-10 -2.99382e-11 -5.52976e-11 -8.12651e-12 7.37886e-12 2.16944e-11 8.72199e-12 
-1.39833e-11 3.36269e-12 7.15156e-14 -7.88166e-11 -1.65913e-10 -7.34188e-11 5.74839e-11 -2.42861e-12 -6.30505e-13 
-2.00553e-11 -1.60236e-11 -1.08237e-11 -5.24177e-12 2.14839e-12 -5.46438e-12 1.71026e-11 4.12776e-11 1.7514e-11 
1.43739e-12 -4.67041e-12 -3.73633e-13 5.47146e-11 3.18631e-11 2.59733e-11 1.61673e-11 -7.47266e-12 3.82974e-12 
3.05665e-11 3.85555e-11 2.07366e-11 5.26264e-12 5.60449e-13 3.08247e-12 1.089e-11 1.15863e-11 6.7429e-12 
1.26325e-11 -3.73633e-12 -1.37522e-12 5.23865e-12 -1.11934e-11 -1.78643e-12 9.07413e-12 2.05498e-11 -6.07153e-13 
7.23266e-11 1.58392e-10 6.92155e-11 1.95088e-11 1.56926e-11 -2.17174e-12 8.62676e-12 -8.622e-13 2.32937e-12 
1.29051e-12 -2.56873e-13 7.00561e-13 4.32574e-12 5.30698e-12 2.88982e-12 2.66801e-12 -6.07153e-13 -1.79811e-12 
2.43661e-12 2.64246e-12 1.52372e-12 -2.95229e-12 4.43689e-13 -5.60449e-13 -1.5483e-11 -3.78765e-11 -1.60078e-11 
2.67961e-12 5.32427e-12 -7.00561e-13 3.74802e-12 -5.37118e-13 9.63272e-13 -1.16017e-12 -2.70884e-12 5.13745e-13 
-2.96905e-11 -7.91885e-11 -3.26637e-11 -7.5094e-12 1.04617e-11 -1.54124e-12 1.97799e-12 -1.95504e-11 -5.27172e-12 
-1.57125e-11 -2.98906e-12 1.86816e-13 5.08755e-11 1.9239e-11 2.10344e-11 -2.42397e-12 -9.34082e-12 -1.86816e-12 
-4.2594e-11 -7.34073e-11 -3.48004e-11 1.17746e-11 -6.35176e-12 2.42861e-12 -8.69558e-12 1.22293e-12 -2.2418e-12 
9.01607e-14 9.57434e-13 -3.21855e-28 4.76553e-12 7.93602e-11 2.52377e-11 1.03398e-11 5.23086e-12 2.61543e-12 
-3.21783e-11 6.27111e-11 9.15984e-12 -1.18617e-10 -6.87484e-11 -2.98906e-12 -5.61131e-12 -1.46466e-11 -6.07737e-12 
5.0392e-12 1.86816e-12 4.64706e-12 -2.91341e-11 -8.51157e-11 -3.4275e-11 8.87729e-12 8.78037e-12 -4.62371e-12 
-2.29587e-11 -8.64457e-11 -3.28213e-11 -1.23639e-11 1.49453e-11 -4.10996e-12 5.68545e-11 1.45374e-10 6.06686e-11 
5.60183e-11 5.38031e-11 3.73633e-12 -4.76852e-12 -7.02426e-12 -3.53784e-12 2.07406e-11 8.21992e-12 5.6979e-12 
7.09969e-11 7.40777e-11 4.35224e-11 9.52525e-11 2.01762e-11 -2.0363e-11 -5.152e-12 -1.29458e-11 -5.42935e-12 
-5.79686e-13 4.85723e-12 -3.73633e-13 5.02387e-11 9.39018e-11 4.32422e-11 -3.22851e-11 2.69016e-11 1.1209e-12 
-6.04307e-12 -4.29021e-12 -3.09998e-12 1.60399e-12 3.2506e-11 2.98906e-12 3.34591e-11 2.91827e-11 1.87926e-11 
5.99377e-11 2.46598e-11 1.06485e-11 -4.07494e-11 -6.5444e-11 -3.1858e-11 -4.97171e-11 5.23086e-12 4.85723e-12 
-4.81897e-11 -7.73859e-11 -3.76727e-11 9.60135e-12 -3.36269e-12 -2.89565e-12 2.5851e-12 2.07086e-11 6.9881e-12 
-1.64834e-11 2.50334e-11 8.12651e-12 1.85578e-11 1.89222e-11 1.1244e-11 -4.95199e-12 -3.73633e-13 1.68135e-12 
-5.53286e-12 -3.38153e-11 -1.18045e-11 -3.19836e-11 2.80225e-11 2.80225e-12 1.56448e-11 4.83982e-11 1.92129e-11 
2.83751e-11 1.27035e-11 3.26929e-12 1.10865e-12 1.10979e-12 6.65533e-13 -1.58924e-12 -2.48115e-14 -1.40112e-13 
2.79666e-12 -1.52898e-12 3.80305e-13 -2.01406e-12 3.53617e-13 1.65466e-12 -7.75293e-11 -1.57984e-10 -7.0654e-11 
3.44431e-12 -3.22819e-11 -2.11725e-13 -1.3567e-11 -4.77088e-11 -1.83827e-11 -6.27712e-11 2.07242e-11 3.28797e-12 
1.71068e-11 1.75979e-11 1.04114e-11 1.31307e-12 -6.32302e-13 8.62229e-13 1.00614e-11 5.81796e-12 4.76382e-12 
-1.24112e-12 -8.46512e-13 -2.69716e-12 -1.49762e-11 -2.21324e-11 -1.11326e-11 -1.12164e-12 1.97006e-12 -2.10593e-12 
2.86449e-11 4.18358e-11 2.11442e-11 9.86246e-12 -5.86943e-11 1.05976e-11 -3.53255e-12 -8.32311e-12 -3.5567e-12 
-2.76999e-12 1.16401e-12 1.17838e-12 1.19254e-10 1.73425e-10 8.78037e-11 5.87111e-11 1.79344e-11 6.97448e-12 
0 0 0 0 0 0 0 0 0 
0 0 0 0 0 0 0 0 0 
0 0 0 0 0 0 0 0 0 
0 0 0 0 0 0 0 0 0 
0 0 0 0 0 0 0 0 0 
0 0 0 0 0 0 0 0 0 
0 0 0 0 0 0 0 0 0 
0 0 0 0 0 0 0 0 0 
0 0 0 0 0 0 0 0 0 
0 0 0 0 0 0 0 0 0 
0 0 0 0 0 0 0 0 0 
0 0 0 0 0 0 0 0 0 
0 0 0 0 0 0 0 0 0 
0 0 0 0 0 0 0 0 0 
0 0 0 0 0 0 0 0 0 
0 0 0 0 0 0 0 0 0 
0 0 0 0 0 0 0 0 0 
0 0 0 0 0 0 0 0 0 
0 0 0 0 0 0 0 0 0 
0 0 0 0 0 0 0 0 0 
0 0 0 0 0 0 0 0 0 
0 0 0 0 0 0 0 0 0 
0 0 0 0 0 0 0 0 0 
0 0 0 0 0 0 0 0 0 
0 0 0 0 0 0 0 0 0 
0 0 0 0 0 0 0 0 0 
0 0 0 0 0 0 0 0 0 
0 0 0 0 0 0 0 0 0 
0 0 0 0 0 0 0 0 0 
0 0 0 0 0 0 0 0 0 
0 0 0 0 0 0 0 0 0 
0 0 0 0 0 0 0 0 0 
0 0 0 0 0 0 0 0 0 
0 0 0 0 0 0 0 0 0 
0 0 0 0 0 0 0 0 0 
0 0 0 0 0 0 0 0 0 
0 0 0 0 0 0 0 0 0 
0 0 0 0 0 0 0 0 0 
0 0 0 0 0 0 0 0 0 
0 0 0 0 0 0 0 0 0 
0 0 0 0 0 0 0 0 0 
0 0 0 0 0 0 0 0 0 
0 0 0 0 0 0 0 0 0 
0 0 0 0 0 0 0 0 0 
0 0 0 0 0 0 0 0 0 
0 0 0 0 0 0 0 0 0 
0 0 0 0 0 0 0 0 0 
0 0 0 0 0 0 0 0 0 
0 0 0 0 0 0 0 0 0 
0 0 0 0 0 0 0 0 0 
0 0 0 0 0 0 0 0 0 
0 0 0 0 0 0 0 0 0 
0 0 0 0 0 0 0 0 0 
0 0 0 0 0 0 0 0 0 
0 0 0 0 0 0 0 0 0 
0 0 0 0 0 0 0 0 0 
0 0 0 0 0 0 0 0 0 
0 0 0 0 0 0 0 0 0 
0 0 0 0 0 0 0 0 0 
0 0 0 0 0 0 0 0 0 
0 0 0 0 0 0 0 0 0 
0 0 0 0 0 0 0 0 0 
0 0 0 0 0 0 0 0 0 
0 0 0 0 0 0 0 0 0 
0 0 0 0 0 0 0 0 0 
0 0 0 0 0 0 0 0 0 
0 0 0 0 0 0 0 0 0 
0 0 0 0 0 0 0 0 0 
0 0 0 0 0 0 0 0 0 
0 0 0 0 0 0 0 0 0 
0 0 0 0 0 0 0 0 0 
0 0 0 0 0 0 0 0 0 
0 0 0 0 0 0 0 0 0 
0 0 0 0 0 0 0 0 0 
0 0 0 0 0 0 0 0 0 
0 0 0 0 0 0 0 0 0 
0 0 0 0 0 0 0 0 0 
0 0 0 0 0 0 0 0 0 
0 0 0 0 0 0 0 0 0 
0 0 0 0 0 0 0 0 0 
0 0 0 0 0 0 0 0 0 
0 0 0 0 0 0 0 0 0 
0 0 0 0 0 0 0 0 0 
0 0 0 0 0 0 0 0 0 
0 0 0 0 0 0 0 0 0 
0 0 0 0 0 0 0 0 0 
0 0 0 0 0 0 0 0 0 
0 0 0 0 0 0 0 0 0 
0 0 0 0 0 0 0 0 0 
0 0 0 0 0 0 0 0 0 
0 0 0 0 0 0 0 0 0 
0 0 0 0 0 0 0 0 0 
0 0 0 0 0 0 0 0 0 
0 0 0 0 0 0 0 0 0 
0 0 0 0 0 0 0 0 0 
0 0 0 0 0 0 0 0 0 
0 0 0 0 0 0 0 0 0 
0 0 0 0 0 0 0 0 0 
0 0 0 0 0 0 0 0 0 
0 0 0 0 0 0 0 0 0 
0 0 0 0 0 0 0 0 0 
0 0 0 0 0 0 0 0 0 
0 0 0 0 0 0 0 0 0 
0 0 0 0 0 0 0 0 0 
0 0 0 0 0 0 0 0 0 
0 0 0 0 0 0 0 0 0 
0 0 0 0 0 0 0 0 0 
0 0 0 0 0 0 0 0 0 
0 0 0 0 0 0 0 0 0 
0 0 0 0 0 0 0 0 0 
0 0 0 0 0 0 0 0 0 
0 0 0 0 0 0 0 0 0 
0 0 0 0 0 0 0 0 0 
0 0 0 0 0 0 0 0 0 
0 0 0 0 0 0 0 0 0 
0 0 0 0 0 0 0 0 0 
0 0 0 0 0 0 0 0 0 
0 0 0 0 0 0 0 0 0 
0 0 0 0 0 0 0 0 0 
0 0 0 0 0 0 0 0 0 
0 0 0 0 0 0 0 0 0 
0 0 0 0 0 0 0 0 0 
0 0 0 0 0 0 0 0 0 
0 0 0 0 0 0 0 0 0 
0 0 0 0 0 0 0 0 0 
0 0 0 0 0 0 0 0 0 
0 0 0 0 0 0 0 0 0 
0 0 0 0 0 0 0 0 0 
0 0 0 0 0 0 0 0 0 
0 0 0 0 0 0 0 0 0 
0 0 0 0 0 0 0 0 0 
0 0 0 0 0 0 0 0 0 
0 0 0 0 0 0 0 0 0 
0 0 0 0 0 0 0 0 0 
0 0 0 0 0 0 0 0 0 
0 0 0 0 0 0 0 0 0 
0 0 0 0 0 0 0 0 0 
0 0 0 0 0 0 0 0 0 
0 0 0 0 0 0 0 0 0 
0 0 0 0 0 0 0 0 0 
0 0 0 0 0 0 0 0 0 
0 0 0 0 0 0 0 0 0 
0 0 0 0 0 0 0 0 0 
0 0 0 0 0 0 0 0 0 
0 0 0 0 0 0 0 0 0 
0 0 0 0 0 0 0 0 0 
0 0 0 0 0 0 0 0 0 
0 0 0 0 0 0 0 0 0 
0 0 0 0 0 0 0 0 0 
0 0 0 0 0 0 0 0 0 
0 0 0 0 0 0 0 0 0 
0 0 0 0 0 0 0 0 0 
0 0 0 0 0 0 0 0 0 
0 0 0 0 0 0 0 0 0 
0 0 0 0 0 0 0 0 0 
0 0 0 0 0 0 0 0 0 
0 0 0 0 0 0 0 0 0 
0 0 0 0 0 0 0 0 0 
0 0 0 0 0 0 0 0 0 
0 0 0 0 0 0 0 0 0 
0 0 0 0 0 0 0 0 0 
0 0 0 0 0 0 0 0 0 
0 0 0 0 0 0 0 0 0 
0 0 0 0 0 0 0 0 0 
0 0 0 0 0 0 0 0 0 
0 0 0 0 0 0 0 0 0 
0 0 0 0 0 0 0 0 0 
0 0 0 0 0 0 0 0 0 
0 0 0 0 0 0 0 0 0 
0 0 0 0 0 0 0 0 0 
0 0 0 0 0 0 0 0 0 
0 0 0 0 0 0 0 0 0 
0 0 0 0 0 0 0 0 0 
0 0 0 0 0 0 0 0 0 
0 0 0 0 0 0 0 0 0 
0 0 0 0 0 0 0 0 0 
0 0 0 0 0 0 0 0 0 
0 0 0 0 0 0 0 0 0 
0 0 0 0 0 0 0 0 0 
0 0 0 0 0 0 0 0 0 
0 0 0 0 0 0 0 0 0 
0 0 0 0 0 0 0 0 0 
0 0 0 0 0 0 0 0 0 
0 0 0 0 0 0 0 0 0 
0 0 0 0 0 0 0 0 0 
0 0 0 0 0 0 0 0 0 
0 0 0 0 0 0 0 0 0 
0 0 0 0 0 0 0 0 0 
0 0 0 0 0 0 0 0 0 
0 0 0 0 0 0 0 0 0 
0 0 0 0 0 0 0 0 0 
0 0 0 0 0 0 0 0 0 
0 0 0 0 0 0 0 0 0 
0 0 0 0 0 0 0 0 0 
0 0 0 0 0 0 0 0 0 
0 0 0 0 0 0 0 0 0 
0 0 0 0 0 0 0 0 0 
0 0 0 0 0 0 0 0 0 
0 0 0 0 0 0 0 0 0 
0 0 0 0 0 0 0 0 0 
0 0 0 0 0 0 0 0 0 
0 0 0 0 0 0 0 0 0 
0 0 0 0 0 0 0 0 0 
0 0 0 0 0 0 0 0 0 
0 0 0 0 0 0 0 0 0 
0 0 0 0 0 0 0 0 0 
0 0 0 0 0 0 0 0 0 
0 0 0 0 0 0 0 0 0 
0 0 0 0 0 0 0 0 0 
0 0 0 0 0 0 0 0 0 
0 0 0 0 0 0 0 0 0 
0 0 0 0 0 0 0 0 0 
0 0 0 0 0 0 0 0 0 
0 0 0 0 0 0 0 0 0 
0 0 0 0 0 0 0 0 0 
0 0 0 0 0 0 0 0 0 
0 0 0 0 0 0 0 0 0 
0 0 0 0 0 0 0 0 0 
0 0 0 0 0 0 0 0 0 
0 0 0 0 0 0 0 0 0 
0 0 0 0 0 0 0 0 0 
0 0 0 0 0 0 0 0 0 
0 0 0 0 0 0 0 0 0 
0 0 0 0 0 0 0 0 0 
0 0 0 0 0 0 0 0 0 
0 0 0 0 0 0 0 0 0 
0 0 0 0 0 0 0 0 0 
0 0 0 0 0 0 0 0 0 
0 0 0 0 0 0 0 0 0 
0 0 0 0 0 0 0 0 0 
0 0 0 0 0 0 0 0 0 
0 0 0 0 0 0 0 0 0 
0 0 0 0 0 0 0 0 0 
0 0 0 0 0 0 0 0 0 
0 0 0 0 0 0 0 0 0 
0 0 0 0 0 0 0 0 0 
0 0 0 0 0 0 0 0 0 
0 0 0 0 0 0 0 0 0 
0 0 0 0 0 0 0 0 0 
0 0 0 0 0 0 0 0 0 
0 0 0 0 0 0 0 0 0 
0 0 0 0 0 0 0 0 0 
0 0 0 0 0 0 0 0 0 
0 0 0 0 0 0 0 0 0 
0 0 0 0 0 0 0 0 0 
0 0 0 0 0 0 0 0 0 
0 0 0 0 0 0 0 0 0 
0 0 0 0 0 0 0 0 0 
0 0 0 0 0 0 0 0 0 
0 0 0 0 0 0 0 0 0 
0 0 0 0 0 0 0 0 0 
0 0 0 0 0 0 0 0 0 
0 0 0 0 0 0 0 0 0 
0 0 0 0 0 0 0 0 0 
0 0 0 0 0 0 0 0 0 
0 0 0 0 0 0 0 0 0 
0 0 0 0 0 0 0 0 0 
0 0 0 0 0 0 0 0 0 
0 0 0 0 0 0 0 0 0 
0 0 0 0 0 0 0 0 0 
0 0 0 0 0 0 0 0 0 
0 0 0 0 0 0 0 0 0 
0 0 0 0 0 0 0 0 0 
0 0 0 0 0 0 0 0 0 
0 0 0 0 0 0 0 0 0 
0 0 0 0 0 0 0 0 0 
0 0 0 0 0 0 0 0 0 
0 0 0 0 0 0 0 0 0 
0 0 0 0 0 0 0 0 0 
0 0 0 0 0 0 0 0 0 
0 0 0 0 0 0 0 0 0 
0 0 0 0 0 0 0 0 0 
0 0 0 0 0 0 0 0 0 
0 0 0 0 0 0 0 0 0 
0 0 0 0 0 0 0 0 0 
0 0 0 0 0 0 0 0 0 
0 0 0 0 0 0 0 0 0 
0 0 0 0 0 0 0 0 0 
0 0 0 0 0 0 0 0 0 
0 0 0 0 0 0 0 0 0 
0 0 0 0 0 0 0 0 0 
0 0 0 0 0 0 0 0 0 
0 0 0 0 0 0 0 0 0 
0 0 0 0 0 0 0 0 0 
0 0 0 0 0 0 0 0 0 
0 0 0 0 0 0 0 0 0 
0 0 0 0 0 0 0 0 0 
0 0 0 0 0 0 0 0 0 
0 0 0 0 0 0 0 0 0 
0 0 0 0 0 0 0 0 0 
0 0 0 0 0 0 0 0 0 
0 0 0 0 0 0 0 0 0 
0 0 0 0 0 0 0 0 0 
0 0 0 0 0 0 0 0 0 
0 0 0 0 0 0 0 0 0 
0 0 0 0 0 0 0 0 0 
0 0 0 0 0 0 0 0 0 
0 0 0 0 0 0 0 0 0 
0 0 0 0 0 0 0 0 0 
0 0 0 0 0 0 0 0 0 
0 0 0 0 0 0 0 0 0 
0 0 0 0 0 0 0 0 0 
0 0 0 0 0 0 0 0 0 
0 0 0 0 0 0 0 0 0 
0 0 0 0 0 0 0 0 0 
0 0 0 0 0 0 0 0 0 
0 0 0 0 0 0 0 0 0 
0 0 0 0 0 0 0 0 0 
0 0 0 0 0 0 0 0 0 
0 0 0 0 0 0 0 0 0 
0 0 0 0 0 0 0 0 0 
0 0 0 0 0 0 0 0 0 
0 0 0 0 0 0 0 0 0 
0 0 0 0 0 0 0 0 0 
0 0 0 0 0 0 0 0 0 
0 0 0 0 0 0 0 0 0 
0 0 0 0 0 0 0 0 0 
0 0 0 0 0 0 0 0 0 
0 0 0 0 0 0 0 0 0 
0 0 0 0 0 0 0 0 0 
0 0 0 0 0 0 0 0 0 
0 0 0 0 0 0 0 0 0 
0 0 0 0 0 0 0 0 0 
0 0 0 0 0 0 0 0 0 
0 0 0 0 0 0 0 0 0 
0 0 0 0 0 0 0 0 0 
0 0 0 0 0 0 0 0 0 
0 0 0 0 0 0 0 0 0 
0 0 0 0 0 0 0 0 0 
0 0 0 0 0 0 0 0 0 
0 0 0 0 0 0 0 0 0 
0 0 0 0 0 0 0 0 0 
0 0 0 0 0 0 0 0 0 
0 0 0 0 0 0 0 0 0 
0 0 0 0 0 0 0 0 0 
0 0 0 0 0 0 0 0 0 
0 0 0 0 0 0 0 0 0 
0 0 0 0 0 0 0 0 0 
0 0 0 0 0 0 0 0 0 
0 0 0 0 0 0 0 0 0 
0 0 0 0 0 0 0 0 0 
0 0 0 0 0 0 0 0 0 
0 0 0 0 0 0 0 0 0 
0 0 0 0 0 0 0 0 0 
0 0 0 0 0 0 0 0 0 
0 0 0 0 0 0 0 0 0 
0 0 0 0 0 0 0 0 0 
0 0 0 0 0 0 0 0 0 
0 0 0 0 0 0 0 0 0 
0 0 0 0 0 0 0 0 0 
0 0 0 0 0 0 0 0 0 
0 0 0 0 0 0 0 0 0 
0 0 0 0 0 0 0 0 0 
0 0 0 0 0 0 0 0 0 
0 0 0 0 0 0 0 0 0 
0 0 0 0 0 0 0 0 0 
0 0 0 0 0 0 0 0 0 
0 0 0 0 0 0 0 0 0 
0 0 0 0 0 0 0 0 0 
0 0 0 0 0 0 0 0 0 
0 0 0 0 0 0 0 0 0 
0 0 0 0 0 0 0 0 0 
0 0 0 0 0 0 0 0 0 
0 0 0 0 0 0 0 0 0 
0 0 0 0 0 0 0 0 0 
0 0 0 0 0 0 0 0 0 
0 0 0 0 0 0 0 0 0 
0 0 0 0 0 0 0 0 0 
0 0 0 0 0 0 0 0 0 
0 0 0 0 0 0 0 0 0 
0 0 0 0 0 0 0 0 0 
0 0 0 0 0 0 0 0 0 
0 0 0 0 0 0 0 0 0 
0 0 0 0 0 0 0 0 0 
0 0 0 0 0 0 0 0 0 
0 0 0 0 0 0 0 0 0 
0 0 0 0 0 0 0 0 0 
0 0 0 0 0 0 0 0 0 
0 0 0 0 0 0 0 0 0 
0 0 0 0 0 0 0 0 0 
0 0 0 0 0 0 0 0 0 
0 0 0 0 0 0 0 0 0 
0 0 0 0 0 0 0 0 0 
0 0 0 0 0 0 0 0 0 
0 0 0 0 0 0 0 0 0 
0 0 0 0 0 0 0 0 0 
0 0 0 0 0 0 0 0 0 
0 0 0 0 0 0 0 0 0 
0 0 0 0 0 0 0 0 0 
0 0 0 0 0 0 0 0 0 
0 0 0 0 0 0 0 0 0 
0 0 0 0 0 0 0 0 0 
0 0 0 0 0 0 0 0 0 
0 0 0 0 0 0 0 0 0 
0 0 0 0 0 0 0 0 0 
0 0 0 0 0 0 0 0 0 
0 0 0 0 0 0 0 0 0 
0 0 0 0 0 0 0 0 0 
0 0 0 0 0 0 0 0 0 
0 0 0 0 0 0 0 0 0 
0 0 0 0 0 0 0 0 0 
0 0 0 0 0 0 0 0 0 
0 0 0 0 0 0 0 0 0 
0 0 0 0 0 0 0 0 0 
0 0 0 0 0 0 0 0 0 
0 0 0 0 0 0 0 0 0 
0 0 0 0 0 0 0 0 0 
0 0 0 0 0 0 0 0 0 
0 0 0 0 0 0 0 0 0 
0 0 0 0 0 0 0 0 0 
0 0 0 0 0 0 0 0 0 
0 0 0 0 0 0 0 0 0 
0 0 0 0 0 0 0 0 0 
0 0 0 0 0 0 0 0 0 
0 0 0 0 0 0 0 0 0 
0 0 0 0 0 0 0 0 0 
0 0 0 0 0 0 0 0 0 
0 0 0 0 0 0 0 0 0 
0 0 0 0 0 0 0 0 0 
0 0 0 0 0 0 0 0 0 
0 0 0 0 0 0 0 0 0 
0 0 0 0 0 0 0 0 0 
0 0 0 0 0 0 0 0 0 
0 0 0 0 0 0 0 0 0 
0 0 0 0 0 0 0 0 0 
0 0 0 0 0 0 0 0 0 
0 0 0 0 0 0 0 0 0 
0 0 0 0 0 0 0 0 0 
0 0 0 0 0 0 0 0 0 
0 0 0 0 0 0 0 0 0 
0 0 0 0 0 0 0 0 0 
0 0 0 0 0 0 0 0 0 
0 0 0 0 0 0 0 0 0 
0 0 0 0 0 0 0 0 0 
0 0 0 0 0 0 0 0 0 
0 0 0 0 0 0 0 0 0 
0 0 0 0 0 0 0 0 0 
0 0 0 0 0 0 0 0 0 
0 0 0 0 0 0 0 0 0 
0 0 0 0 0 0 0 0 0 
0 0 0 0 0 0 0 0 0 
0 0 0 0 0 0 0 0 0 
0 0 0 0 0 0 0 0 0 
0 0 0 0 0 0 0 0 0 
0 0 0 0 0 0 0 0 0 
0 0 0 0 0 0 0 0 0 
0 0 0 0 0 0 0 0 0 
0 0 0 0 0 0 0 0 0 
0 0 0 0 0 0 0 0 0 
0 0 0 0 0 0 0 0 0 
0 0 0 0 0 0 0 0 0 
0 0 0 0 0 0 0 0 0 
0 0 0 0 0 0 0 0 0 
0 0 0 0 0 0 0 0 0 
0 0 0 0 0 0 0 0 0 
0 0 0 0 0 0 0 0 0 
0 0 0 0 0 0 0 0 0 
0 0 0 0 0 0 0 0 0 
0 0 0 0 0 0 0 0 0 
0 0 0 0 0 0 0 0 0 
0 0 0 0 0 0 0 0 0 
0 0 0 0 0 0 0 0 0 
0 0 0 0 0 0 0 0 0 
0 0 0 0 0 0 0 0 0 
0 0 0 0 0 0 0 0 0 
0 0 0 0 0 0 0 0 0 
0 0 0 0 0 0 0 0 0 
0 0 0 0 0 0 0 0 0 
0 0 0 0 0 0 0 0 0 
0 0 0 0 0 0 0 0 0 
0 0 0 0 0 0 0 0 0 
0 0 0 0 0 0 0 0 0 
0 0 0 0 0 0 0 0 0 
0 0 0 0 0 0 0 0 0 
0 0 0 0 0 0 0 0 0 
0 0 0 0 0 0 0 0 0 
0 0 0 0 0 0 0 0 0 
0 0 0 0 0 0 0 0 0 
0 0 0 0 0 0 0 0 0 
0 0 0 0 0 0 0 0 0 
0 0 0 0 0 0 0 0 0 
0 0 0 0 0 0 0 0 0 
0 0 0 0 0 0 0 0 0 
0 0 0 0 0 0 0 0 0 
0 0 0 0 0 0 0 0 0 
0 0 0 0 0 0 0 0 0 
0 0 0 0 0 0 0 0 0 
0 0 0 0 0 0 0 0 0 
0 0 0 0 0 0 0 0 0 
0 0 0 0 0 0 0 0 0 
0 0 0 0 0 0 0 0 0 
0 0 0 0 0 0 0 0 0 
0 0 0 0 0 0 0 0 0 
0 0 0 0 0 0 0 0 0 
0 0 0 0 0 0 0 0 0 
0 0 0 0 0 0 0 0 0 
0 0 0 0 0 0 0 0 0 
0 0 0 0 0 0 0 0 0 
0 0 0 0 0 0 0 0 0 
0 0 0 0 0 0 0 0 0 
0 0 0 0 0 0 0 0 0 
0 0 0 0 0 0 0 0 0 
0 0 0 0 0 0 0 0 0 
0 0 0 0 0 0 0 0 0 
0 0 0 0 0 0 0 0 0 
0 0 0 0 0 0 0 0 0 
0 0 0 0 0 0 0 0 0 
0 0 0 0 0 0 0 0 0 
0 0 0 0 0 0 0 0 0 
0 0 0 0 0 0 0 0 0 
0 0 0 0 0 0 0 0 0 
0 0 0 0 0 0 0 0 0 
0 0 0 0 0 0 0 0 0 
0 0 0 0 0 0 0 0 0 
0 0 0 0 0 0 0 0 0 
0 0 0 0 0 0 0 0 0 
0 0 0 0 0 0 0 0 0 
0 0 0 0 0 0 0 0 0 
0 0 0 0 0 0 0 0 0 
0 0 0 0 0 0 0 0 0 
0 0 0 0 0 0 0 0 0 
0 0 0 0 0 0 0 0 0 
0 0 0 0 0 0 0 0 0 
0 0 0 0 0 0 0 0 0 
0 0 0 0 0 0 0 0 0 
0 0 0 0 0 0 0 0 0 
0 0 0 0 0 0 0 0 0 
0 0 0 0 0 0 0 0 0 
0 0 0 0 0 0 0 0 0 
0 0 0 0 0 0 0 0 0 
0 0 0 0 0 0 0 0 0 
0 0 0 0 0 0 0 0 0 
0 0 0 0 0 0 0 0 0 
0 0 0 0 0 0 0 0 0 
0 0 0 0 0 0 0 0 0 
0 0 0 0 0 0 0 0 0 
0 0 0 0 0 0 0 0 0 
0 0 0 0 0 0 0 0 0 
0 0 0 0 0 0 0 0 0 
0 0 0 0 0 0 0 0 0 
0 0 0 0 0 0 0 0 0 
0 0 0 0 0 0 0 0 0 
0 0 0 0 0 0 0 0 0 
0 0 0 0 0 0 0 0 0 
0 0 0 0 0 0 0 0 0 
0 0 0 0 0 0 0 0 0 
0 0 0 0 0 0 0 0 0 
0 0 0 0 0 0 0 0 0 
0 0 0 0 0 0 0 0 0 
0 0 0 0 0 0 0 0 0 
0 0 0 0 0 0 0 0 0 
0 0 0 0 0 0 0 0 0 
0 0 0 0 0 0 0 0 0 
0 0 0 0 0 0 0 0 0 
0 0 0 0 0 0 0 0 0 
0 0 0 0 0 0 0 0 0 
0 0 0 0 0 0 0 0 0 
0 0 0 0 0 0 0 0 0 
0 0 0 0 0 0 0 0 0 
0 0 0 0 0 0 0 0 0 
0 0 0 0 0 0 0 0 0 
0 0 0 0 0 0 0 0 0 
0 0 0 0 0 0 0 0 0 
0 0 0 0 0 0 0 0 0 
0 0 0 0 0 0 0 0 0 
0 0 0 0 0 0 0 0 0 
0 0 0 0 0 0 0 0 0 
0 0 0 0 0 0 0 0 0 
0 0 0 0 0 0 0 0 0 
0 0 0 0 0 0 0 0 0 
0 0 0 0 0 0 0 0 0 
0 0 0 0 0 0 0 0 0 
0 0 0 0 0 0 0 0 0 
0 0 0 0 0 0 0 0 0 
0 0 0 0 0 0 0 0 0 
0 0 0 0 0 0 0 0 0 
0 0 0 0 0 0 0 0 0 
0 0 0 0 0 0 0 0 0 
0 0 0 0 0 0 0 0 0 
0 0 0 0 0 0 0 0 0 
0 0 0 0 0 0 0 0 0 
0 0 0 0 0 0 0 0 0 
0 0 0 0 0 0 0 0 0 
0 0 0 0 0 0 0 0 0 
0 0 0 0 0 0 0 0 0 
0 0 0 0 0 0 0 0 0 
0 0 0 0 0 0 0 0 0 
0 0 0 0 0 0 0 0 0 
0 0 0 0 0 0 0 0 0 
0 0 0 0 0 0 0 0 0 
0 0 0 0 0 0 0 0 0 
0 0 0 0 0 0 0 0 0 
0 0 0 0 0 0 0 0 0 
0 0 0 0 0 0 0 0 0 
0 0 0 0 0 0 0 0 0 
0 0 0 0 0 0 0 0 0 
0 0 0 0 0 0 0 0 0 
0 0 0 0 0 0 0 0 0 
0 0 0 0 0 0 0 0 0 
0 0 0 0 0 0 0 0 0 
0 0 0 0 0 0 0 0 0 
0 0 0 0 0 0 0 0 0 
0 0 0 0 0 0 0 0 0 
0 0 0 0 0 0 0 0 0 
0 0 0 0 0 0 0 0 0 
0 0 0 0 0 0 0 0 0 
0 0 0 0 0 0 0 0 0 
0 0 0 0 0 0 0 0 0 
0 0 0 0 0 0 0 0 0 
0 0 0 0 0 0 0 0 0 
0 0 0 0 0 0 0 0 0 
0 0 0 0 0 0 0 0 0 
0 0 0 0 0 0 0 0 0 
0 0 0 0 0 0 0 0 0 
0 0 0 0 0 0 0 0 0 
0 0 0 0 0 0 0 0 0 
0 0 0 0 0 0 0 0 0 
0 0 0 0 0 0 0 0 0 
0 0 0 0 0 0 1.25732e-10 2.63179e-10 1.16674e-10 
-1.06727e-10 2.43723e-25 -9.22339e-11 -3.59279e-10 -5.52452e-10 -2.73519e-10 -7.25408e-11 1.78383e-10 1.02802e-10 
-1.78138e-10 1.40945e-10 -1.1158e-11 1.88292e-11 -2.93472e-11 3.26079e-11 2.16505e-12 -3.31766e-11 -9.30346e-12 
-8.30783e-11 9.32587e-11 7.41287e-11 -2.35351e-10 -3.5312e-10 -1.76541e-10 9.80196e-13 -1.32438e-10 1.06227e-10 
5.82936e-12 -1.42739e-10 -4.10729e-11 2.96304e-11 -1.33227e-10 -1.02482e-10 -3.38511e-11 -8.2267e-11 -3.48354e-11 
-3.21115e-11 1.28903e-11 -3.64292e-12 2.44283e-10 5.92933e-11 9.1073e-11 -4.39915e-11 2.01762e-11 1.502e-10 
-1.20175e-11 6.36255e-11 1.54824e-11 -1.23021e-11 6.12758e-11 8.96719e-11 1.66007e-10 2.04824e-10 1.11249e-10 
-9.75333e-12 5.38031e-11 2.98906e-11 6.27481e-10 4.0865e-10 3.10839e-10 1.41589e-10 1.46277e-10 1.4609e-10 
2.27892e-11 1.12419e-10 4.05625e-11 7.42894e-11 2.13531e-10 5.04404e-11 3.8012e-11 -5.78622e-12 9.66775e-12 
7.66437e-11 -1.77849e-10 1.73366e-10 -1.53702e-10 -7.1645e-11 -6.76042e-11 -1.31347e-10 -5.07206e-11 -9.3595e-11 
3.26434e-11 -1.2395e-10 -2.7392e-11 9.70877e-11 6.70671e-11 6.1556e-11 -5.25292e-11 4.27213e-11 -2.94236e-12 
3.27935e-11 2.25674e-10 5.52042e-11 3.36768e-10 4.23574e-10 2.28103e-10 6.70802e-11 -2.61543e-12 -5.55779e-11 
5.05987e-10 4.50512e-10 2.8695e-10 -1.78657e-11 5.71658e-11 -1.49453e-10 -2.97689e-11 2.95382e-10 7.96839e-11 
2.1161e-11 3.63812e-10 -3.84308e-11 -9.73544e-11 -1.59251e-10 -7.69817e-11 1.3762e-10 4.50921e-10 6.66134e-11 
2.80589e-10 4.73041e-12 8.55959e-11 9.79887e-11 8.88567e-11 1.2228e-10 -4.26302e-11 2.16603e-10 5.21918e-11 
-1.8704e-10 2.18949e-10 -3.13852e-11 5.41953e-11 1.92216e-10 7.39232e-11 7.76568e-11 2.96515e-10 -2.15212e-10 
3.98865e-10 4.02068e-10 2.4028e-10 1.19102e-10 2.08691e-10 6.84767e-11 7.77987e-11 -2.56342e-10 -5.35629e-11 
-1.24769e-10 5.95677e-11 -6.40513e-13 -3.57085e-10 -7.42608e-11 -1.29404e-10 -2.14197e-10 -3.02643e-11 1.88551e-11 
5.76848e-11 3.912e-11 2.90415e-11 1.33894e-10 3.26079e-12 6.52159e-12 -1.56682e-10 -5.45058e-11 -6.33562e-11 
-2.01181e-10 -3.04884e-10 3.58687e-11 1.12101e-10 4.16719e-11 4.6132e-11 1.10662e-10 9.82187e-11 -2.59138e-10 
-1.2837e-10 4.51787e-11 -2.49575e-11 -8.8695e-11 2.60048e-10 1.70377e-10 1.81272e-10 4.6177e-11 6.82347e-11 
-9.30447e-11 1.14332e-10 -3.06379e-11 1.86335e-12 -1.26964e-10 -3.75301e-11 5.86318e-11 -2.88231e-11 1.90232e-10 
1.35707e-10 4.82889e-10 1.85579e-10 1.5508e-10 1.25541e-10 3.73633e-11 -4.2024e-10 -4.35445e-10 -2.56706e-10 
-1.18671e-10 -1.69096e-10 6.02082e-11 3.657e-10 -5.34051e-11 9.36884e-11 -1.33335e-10 1.31519e-10 -5.97812e-11 
-6.48456e-11 1.29017e-10 1.92514e-11 -7.97224e-11 1.31718e-12 2.14993e-10 -5.36957e-10 -9.95248e-10 -4.59662e-10 
-2.55118e-10 -6.94957e-10 -2.88943e-11 7.49002e-10 9.22818e-10 5.01546e-10 6.59735e-12 -4.54719e-10 3.13899e-11 
2.30048e-10 5.62988e-10 2.37911e-10 2.00383e-10 1.37497e-10 6.57594e-11 -1.98955e-11 1.62577e-10 4.28043e-11 
-1.75013e-10 7.17375e-11 2.69016e-11 4.19913e-11 -3.05833e-10 -7.91527e-11 -1.12134e-10 1.87966e-11 6.97975e-11 
3.98778e-10 2.66755e-10 1.9966e-10 2.1043e-10 5.95677e-11 9.09529e-11 -8.50752e-11 -7.77762e-10 -2.58851e-10 
2.80802e-11 9.42574e-11 2.68506e-11 -1.4689e-11 -3.34658e-10 -1.04804e-10 1.18388e-10 -1.07606e-10 1.49453e-11 
4.56975e-13 5.97913e-11 1.80745e-11 1.4392e-11 2.49575e-12 -3.37758e-11 3.83029e-10 2.91378e-10 2.02322e-10 
1.99069e-10 -1.12837e-10 4.10996e-11 -1.02057e-11 -6.04109e-11 -2.1185e-11 4.38939e-11 2.8695e-11 3.94556e-11 
7.04792e-11 1.91624e-10 7.8631e-11 6.66028e-11 -2.5407e-11 -4.93195e-11 8.7779e-10 7.11363e-10 4.76746e-10 
1.85084e-10 -1.29127e-10 -1.07606e-11 3.16707e-10 1.73126e-10 1.4695e-10 1.22641e-10 -9.91995e-12 -1.86816e-13 
3.75699e-10 7.48002e-10 3.3711e-10 -9.90535e-12 -1.00432e-10 1.29127e-10 -2.30259e-10 -4.25747e-10 -1.96802e-10 
7.12925e-12 2.08487e-11 -7.39793e-12 -6.06939e-11 1.30563e-10 2.09608e-11 3.94114e-11 -2.51081e-11 3.58687e-11 
-4.13602e-10 -4.44446e-10 -2.57414e-10 -2.11795e-10 8.48894e-11 2.63037e-11 1.19308e-10 5.61127e-11 5.26262e-11 
-5.70218e-11 -2.8695e-11 -1.43475e-11 5.59143e-10 6.41619e-10 3.60229e-10 7.13595e-11 -7.17375e-11 -7.89112e-11 
5.83412e-10 8.01832e-10 4.15573e-10 3.67063e-12 3.826e-11 7.652e-11 -1.35676e-10 -4.12386e-11 -5.30745e-11 
1.39007e-10 -7.53244e-11 1.42279e-10 -6.08921e-10 -4.97406e-10 -3.31898e-10 -7.15415e-11 -1.43475e-10 1.43475e-10 
-1.51081e-10 -9.43476e-10 -3.28367e-10 -4.15112e-11 -1.67387e-10 -9.565e-12 2.18173e-10 -4.03121e-10 -5.54845e-11 
1.02582e-10 2.8695e-11 -5.739e-11 4.37054e-11 -1.08437e-10 -1.94196e-11 -6.99761e-11 2.00865e-10 -2.15212e-11 
6.72248e-10 7.68853e-10 4.3233e-10 8.47769e-11 -5.61944e-11 2.45103e-11 2.28056e-10 5.9898e-10 2.48111e-10 
2.38037e-11 -3.16841e-11 7.59222e-11 -1.77346e-10 1.39796e-10 -1.1265e-11 -3.5817e-12 9.41555e-11 -2.21938e-11 
-7.93017e-11 4.21253e-11 -1.11529e-11 7.1395e-11 -8.96719e-12 1.13584e-10 1.16376e-10 -1.22821e-10 -1.93355e-12 
1.88469e-11 -1.43206e-24 -1.1478e-10 -4.63126e-10 -4.22814e-10 -2.65782e-10 3.42184e-11 -1.94864e-11 2.53495e-11 
-2.85963e-10 -7.20244e-10 -3.01862e-10 1.3173e-10 -8.27863e-11 4.81986e-11 -2.85481e-11 -5.90964e-10 -1.85854e-10 
2.21953e-10 2.96607e-11 -1.1071e-10 2.54442e-10 3.30827e-10 1.75581e-10 1.5432e-10 -1.46037e-10 -1.47318e-10 
-7.10335e-10 -1.75344e-09 -7.39132e-10 -1.52478e-10 1.46037e-10 -4.996e-11 3.35305e-10 3.53284e-10 2.06576e-10 
1.17863e-10 -1.26356e-10 -6.35855e-11 -5.38023e-10 -5.52362e-10 -3.27115e-10 4.40572e-11 -6.87484e-11 9.96354e-13 
2.6729e-10 3.71787e-10 1.91723e-10 1.23864e-10 4.21985e-12 -1.68794e-11 2.86348e-10 2.76202e-10 1.68765e-10 
2.28245e-10 -1.25541e-10 2.83961e-11 2.43641e-10 5.83884e-10 2.48257e-10 -4.2713e-10 1.25668e-24 -4.41461e-11 
-4.25133e-10 -6.67743e-10 -3.27863e-10 -1.96265e-10 -5.48378e-11 2.79362e-11 -2.37973e-10 -4.19354e-10 -1.97198e-10 
7.95075e-11 -9.38352e-11 -9.28744e-12 -4.00957e-11 -5.42211e-10 -1.74692e-10 4.4412e-10 1.61409e-10 -4.48359e-12 
3.9632e-10 7.28081e-10 3.3732e-10 2.23899e-10 5.92675e-11 4.16133e-11 1.06743e-10 6.62474e-10 2.30765e-10 
-8.87438e-12 5.00668e-11 -4.48359e-12 1.17436e-10 5.99939e-10 2.15212e-10 2.59304e-11 -5.20097e-11 9.63973e-11 
-4.62733e-10 -1.80663e-10 -1.93019e-10 -2.33532e-10 -2.01425e-10 1.10408e-11 -3.59558e-10 -3.72015e-10 -2.19472e-10 
-3.40513e-10 2.51081e-11 6.12758e-11 -2.13441e-10 1.31802e-10 -2.44916e-11 -6.03489e-11 -1.01628e-10 3.67655e-11 
6.79423e-10 1.60497e-09 6.85317e-10 1.43786e-10 -1.43475e-10 -5.739e-11 2.18078e-10 2.64672e-10 1.44825e-10 
-5.58667e-12 -9.78238e-11 -2.60864e-11 3.32991e-10 7.24657e-10 3.17294e-10 1.53347e-10 3.45877e-11 1.01842e-10 
-1.64417e-10 9.73275e-12 -4.64052e-11 1.66782e-11 -2.8695e-11 -8.96719e-11 -1.04906e-11 1.41996e-10 3.94516e-11 
4.61811e-11 -4.19524e-11 -8.13208e-11 -3.25299e-10 -5.87299e-10 -2.73779e-10 9.66893e-11 -1.49453e-12 -5.60449e-11 
1.55372e-10 5.28656e-10 2.05208e-10 8.64014e-11 8.6085e-11 -2.51081e-11 1.49159e-10 1.52974e-10 9.06399e-11 
8.19715e-11 -6.52159e-12 -1.95648e-11 -1.15866e-10 -3.71325e-10 -1.46157e-10 -2.92347e-11 5.25221e-11 2.40192e-12 
-2.24291e-11 5.45328e-10 1.5687e-10 -1.22611e-10 4.81986e-11 -1.10072e-10 -1.31922e-10 1.58743e-10 8.04645e-12 
-8.04993e-11 -2.04964e-11 -3.07446e-11 8.77397e-11 4.32544e-10 1.56085e-10 8.74545e-11 -6.18736e-11 -8.38432e-11 
4.26017e-10 3.88316e-10 2.443e-10 3.99533e-11 -5.38031e-11 5.02162e-11 -3.24863e-10 -4.57804e-10 -2.348e-10 
1.97187e-10 1.98399e-11 2.93675e-11 -9.46008e-11 -2.38306e-10 -9.9872e-11 3.25182e-11 3.04137e-11 -1.42728e-11 
-1.36336e-10 -2.87177e-10 -1.27054e-10 -3.57524e-11 5.97812e-11 3.22819e-11 6.15718e-11 -5.82789e-10 -1.56365e-10 
6.37e-11 -5.739e-11 -1.29127e-10 1.61505e-10 2.00416e-10 1.08576e-10 -5.67906e-11 -9.93288e-11 -6.62192e-11 
9.20676e-12 -3.55484e-10 -1.03883e-10 -4.71548e-12 -8.40674e-12 -2.33787e-11 -5.18075e-10 -1.30537e-10 -1.94584e-10 
-1.92164e-11 4.72502e-11 -9.20861e-11 -4.76753e-11 -1.43524e-10 -5.73598e-11 -4.0486e-11 -3.24198e-11 -2.48322e-11 
-3.50651e-10 -2.88461e-10 -1.91734e-10 5.87145e-11 4.09929e-11 2.17775e-11 1.10742e-10 1.20043e-10 6.92355e-11 
-4.49789e-12 2.3699e-11 -9.31947e-11 -1.8786e-10 -4.78581e-11 -7.07155e-11 -1.02187e-10 -4.43084e-11 3.37588e-11 
-2.039e-10 -1.95795e-11 -6.70437e-11 -6.23623e-11 -1.19562e-11 1.79344e-11 -6.76122e-11 -1.94598e-10 -7.8663e-11 
7.28926e-11 5.60149e-11 -3.53984e-11 -5.10555e-10 -1.03208e-09 -4.62791e-10 -6.58055e-11 -7.84629e-12 -9.52763e-12 
-1.70365e-10 -5.37802e-10 -2.1245e-10 6.71379e-11 -1.8735e-11 -2.0016e-11 2.66712e-10 2.65715e-10 1.59728e-10 
-9.69612e-12 5.10009e-11 5.07206e-11 -3.66047e-10 -4.94242e-10 -2.58087e-10 -1.27491e-11 -2.19198e-11 1.29526e-10 
3.81904e-10 9.05883e-10 3.86336e-10 1.94148e-13 -7.17375e-11 -4.98177e-11 1.02225e-10 2.44176e-10 1.0392e-10 
1.91873e-10 -4.41461e-11 -1.10365e-11 -3.17862e-11 -1.74933e-10 -6.20159e-11 -5.29626e-11 2.04176e-10 3.5179e-11 
-1.29351e-10 -6.03323e-13 -3.89862e-11 -2.34981e-11 -3.36269e-12 1.00881e-11 -1.55091e-10 -3.12581e-11 -5.59048e-11 
-7.7895e-11 -1.45717e-11 9.52763e-12 2.44565e-10 2.52746e-11 8.09519e-11 -1.27459e-10 -3.16489e-12 -6.46165e-11 
-4.19203e-11 -5.79519e-10 -1.86432e-10 -2.96293e-11 -1.39255e-10 -2.47916e-11 1.49859e-10 3.39333e-10 1.46758e-10 
7.18323e-11 5.89272e-11 -7.42995e-11 -2.86217e-10 -3.20269e-10 -1.81946e-10 -1.43408e-10 1.40913e-10 3.07446e-11 
-8.67331e-11 1.90121e-11 -2.03163e-11 -3.55549e-11 -8.36937e-11 -3.58687e-11 5.11179e-11 2.86086e-10 1.01161e-10 
2.11909e-11 -1.09474e-10 1.27035e-11 2.80174e-10 8.36863e-11 1.09158e-10 -6.13944e-11 5.03542e-11 -6.20805e-12 
-2.71719e-10 -3.98664e-10 -2.01115e-10 -1.12339e-10 6.0701e-11 -1.03468e-11 7.11828e-11 2.28658e-10 8.99521e-11 
-1.40636e-11 -6.2023e-11 -9.19137e-11 -6.09154e-11 -2.65947e-10 -9.80586e-11 1.41311e-10 1.82546e-11 -2.78623e-11 
1.90445e-10 2.99301e-10 1.46924e-10 -2.15673e-10 5.75969e-11 -6.44948e-11 -1.73084e-10 -4.41901e-10 -1.84496e-10 
-2.23646e-10 3.03505e-10 2.25904e-10 1.86695e-10 3.01457e-10 1.46445e-10 1.39967e-10 -2.69016e-11 1.55132e-10 
2.41775e-10 2.1275e-10 1.36357e-10 -6.60846e-11 -7.17375e-11 7.17375e-12 2.03393e-10 4.23232e-10 1.87988e-10 
6.77475e-11 -1.07606e-10 -4.89746e-11 7.49751e-11 -6.88055e-12 2.04284e-11 -1.86469e-10 -1.79344e-11 -7.89112e-11 
4.39978e-10 1.32501e-09 5.29495e-10 1.55799e-10 7.72558e-11 -1.10365e-11 -3.79039e-10 -3.69161e-10 -2.2446e-10 
-1.30537e-10 -1.07606e-10 -4.30425e-11 1.24144e-10 6.11152e-11 5.55779e-11 -6.75061e-13 -1.37497e-10 -7.57229e-11 
1.30209e-10 -5.29721e-11 2.31711e-11 -3.38512e-11 3.00401e-10 7.51002e-11 -7.8111e-11 -2.84429e-10 -1.08762e-10 
-3.97851e-11 -1.16643e-11 -3.90563e-12 1.54253e-10 1.6783e-10 9.66249e-11 -9.2828e-11 1.24472e-10 3.46077e-11 
2.23119e-10 5.36523e-10 2.27893e-10 1.25541e-10 -1.19936e-10 -2.87697e-11 1.71948e-10 1.74362e-10 1.03893e-10 
2.10555e-11 1.1209e-10 3.88578e-11 2.36117e-11 7.68021e-11 3.01241e-11 -4.13201e-11 6.65066e-11 -1.56926e-11 
-6.76935e-12 -7.00589e-11 -2.30485e-11 -1.59591e-10 1.94289e-10 6.12758e-11 -6.61446e-11 2.46762e-10 5.41852e-11 
-7.3705e-11 1.2391e-10 -1.30432e-11 2.63884e-10 9.75982e-10 3.7196e-10 -1.01236e-10 -3.26079e-11 7.17375e-11 
-1.15484e-10 7.85879e-11 -1.10689e-11 -3.44261e-11 -2.36136e-10 2.69016e-11 3.20329e-10 7.03892e-10 3.07266e-10 
6.26638e-11 3.70644e-10 1.19562e-11 -1.50358e-10 -3.82334e-11 -5.65773e-11 -8.42394e-11 -8.6085e-11 -7.71178e-11 
-7.07933e-11 -3.99424e-10 -1.41065e-10 -9.06011e-12 3.58687e-11 -9.68456e-11 2.06431e-10 2.23013e-10 1.28833e-10 
2.47848e-11 -5.30559e-11 -5.67922e-11 2.25674e-11 -3.72381e-10 -1.04944e-10 1.08931e-10 1.19562e-11 7.47266e-11 
1.84092e-10 9.03279e-11 8.2326e-11 -7.11539e-11 9.8639e-11 -6.78944e-11 -1.40318e-10 5.52502e-11 -2.55205e-11 
-1.88386e-12 -1.02482e-11 -1.47318e-11 9.7847e-11 3.92546e-10 1.47118e-10 -1.73407e-11 2.09234e-11 -1.33013e-10 
4.34987e-10 7.68811e-10 3.61139e-10 7.68218e-11 -7.47266e-11 -1.37497e-10 1.31912e-10 1.90813e-10 9.68176e-11 
1.74768e-10 -1.47959e-10 -1.37497e-10 -2.83192e-10 -2.40027e-10 -1.56966e-10 -7.59809e-11 -5.12411e-11 -8.71098e-11 
3.72725e-10 5.89464e-10 2.88657e-10 1.08721e-10 3.26079e-12 5.86943e-11 -7.93289e-10 -1.19101e-09 -5.9529e-10 
1.14228e-10 3.58687e-10 3.98542e-12 2.97419e-10 2.8805e-10 1.75641e-10 -2.34531e-11 -3.07446e-11 -4.48359e-12 
2.0273e-10 -8.64368e-11 3.4888e-11 1.59947e-10 1.53723e-11 -4.48359e-12 -1.75985e-10 -2.21934e-10 -1.19376e-10 
-1.89693e-10 4.09929e-11 6.14893e-11 -1.79647e-10 -7.74717e-10 -2.86309e-10 -3.56221e-10 1.02482e-10 -9.22339e-11 
-4.48902e-10 -8.79614e-11 -1.61059e-10 -5.22525e-11 4.03523e-11 -4.48359e-11 4.28104e-10 8.54391e-10 3.84748e-10 
-5.04591e-12 -2.39125e-11 -4.7825e-11 4.18083e-10 6.08048e-10 3.07839e-10 2.08232e-10 2.41299e-10 5.21727e-11 
2.91101e-10 2.80324e-10 1.71427e-10 2.42641e-11 1.40486e-10 6.57594e-11 -5.0785e-11 -5.0018e-10 -1.65289e-10 
8.58425e-11 -7.31171e-11 7.17375e-11 -1.96516e-10 -6.37044e-10 -2.50068e-10 1.56846e-11 -5.4148e-11 1.2623e-10 
1.02673e-10 2.10963e-10 9.40908e-11 -1.54286e-10 8.00149e-11 6.24254e-11 -4.28968e-10 -6.65632e-10 -3.2838e-10 
-6.74608e-11 3.96626e-11 -6.20805e-11 -6.03875e-11 -4.03276e-10 -1.39099e-10 1.18296e-10 2.5522e-11 4.41461e-11 
-1.86028e-10 -4.8996e-10 -2.02796e-10 1.79057e-10 2.03486e-11 1.24506e-10 1.88706e-10 -2.07863e-11 5.03758e-11 
5.05838e-11 -1.75895e-11 -1.96588e-11 1.19445e-10 -1.67946e-10 -1.45501e-11 -3.9731e-12 -2.30388e-10 6.89784e-13 
1.86816e-10 3.75573e-10 1.68717e-10 6.36098e-11 1.64858e-10 -7.76006e-11 -5.44816e-11 2.49345e-10 5.84592e-11 
5.37121e-11 1.22437e-10 1.21402e-10 -2.92115e-10 -3.21793e-10 -1.84172e-10 -7.63377e-11 -1.24851e-10 7.07028e-11 
2.66222e-10 2.73911e-10 1.6204e-10 2.59496e-11 1.01628e-10 7.7342e-11 -3.14006e-10 -6.00604e-10 -2.74383e-10 
-4.45044e-10 2.37286e-10 -6.20805e-11 -3.90202e-11 6.06093e-10 1.70122e-10 -9.45962e-11 2.18473e-10 -1.95648e-11 
1.53243e-10 6.55321e-11 6.56326e-11 -1.19702e-10 8.32667e-11 -6.66134e-11 -1.92569e-10 -2.77189e-10 -1.40927e-10 
-3.583e-11 1.03123e-10 2.83791e-11 4.59171e-10 5.14842e-10 2.92204e-10 8.36218e-12 -5.43636e-11 -4.38551e-11 
6.35402e-10 1.37402e-09 6.02828e-10 3.35015e-10 -2.31767e-10 -1.43475e-10 2.91249e-10 9.49284e-10 3.7216e-10 
7.62037e-11 -1.22092e-10 -8.17394e-11 -1.5004e-10 -8.70733e-11 -7.11339e-11 -4.36405e-11 -4.27666e-11 7.13926e-11 
-8.68071e-11 -4.31608e-10 -1.55525e-10 -9.76867e-11 6.13907e-11 8.76025e-11 -5.4798e-10 -1.06676e-09 -4.84422e-10 
-5.2842e-11 7.86353e-11 -1.51752e-11 -1.74654e-10 -4.45504e-10 -1.86048e-10 -1.28418e-10 2.50047e-11 -2.94667e-11 
3.45425e-11 5.53449e-11 2.69662e-11 1.14615e-11 -4.29175e-11 -1.57465e-11 2.85157e-10 3.8264e-10 2.00339e-10 
1.61634e-10 1.86242e-11 -9.93288e-11 8.7607e-12 1.43039e-11 6.91939e-12 -6.96216e-11 -1.01032e-10 -4.07403e-12 
-1.53279e-10 -2.68352e-10 -1.26489e-10 1.21499e-11 4.62155e-11 -1.22437e-10 -2.44952e-10 -4.16378e-10 -1.98399e-10 
1.12247e-11 1.40716e-10 -1.01053e-10 3.19909e-10 1.47132e-10 1.40112e-10 9.81269e-13 3.06379e-11 9.34082e-12 
3.30661e-10 2.85833e-10 1.84948e-10 6.41689e-11 -7.54451e-12 6.7685e-12 -3.01749e-10 -4.24033e-10 -2.17734e-10 
1.57407e-10 1.30432e-11 -6.52159e-11 -8.0227e-11 3.17882e-11 -1.45316e-11 -8.65157e-11 4.29144e-11 7.65413e-11 
-1.40903e-10 -3.46488e-10 -1.46217e-10 -2.23757e-11 -8.15053e-11 4.62771e-11 -3.80441e-10 -8.35733e-10 -3.64852e-10 
-1.89611e-10 1.21954e-10 3.58687e-12 -6.80634e-11 -4.40311e-10 -1.52512e-10 -8.45984e-11 -1.54684e-10 7.99574e-11 
3.48307e-10 1.49474e-10 1.49334e-10 3.46571e-11 3.91295e-11 -3.91295e-11 1.77052e-10 1.49282e-10 9.79003e-11 
1.75082e-10 4.89119e-11 1.11275e-10 -3.3862e-11 1.80675e-11 -4.73834e-12 1.25991e-10 7.82591e-11 -1.04345e-10 
-4.46717e-10 -4.75221e-10 -2.76582e-10 1.47213e-10 1.19562e-10 5.18104e-11 8.34255e-11 1.20827e-10 6.12758e-11 
-5.99654e-11 6.4763e-11 -9.06682e-11 1.53928e-10 3.46655e-10 1.50175e-10 3.09067e-11 -4.89119e-12 -4.23903e-11 
-2.2772e-10 -4.34233e-10 -1.98586e-10 -3.78406e-10 2.04253e-10 2.33147e-10 6.40026e-10 1.19544e-09 5.50641e-10 
-1.03108e-10 -2.69016e-11 -1.55431e-10 -4.29708e-10 -4.38676e-10 -2.60515e-10 9.99716e-11 1.77351e-10 8.96719e-11 
-3.0159e-10 -2.91467e-10 -1.77917e-10 -4.84402e-11 -4.56511e-11 -1.12497e-10 -6.90065e-11 7.99607e-11 3.28627e-12 
-1.59575e-10 -8.15199e-13 1.01085e-10 1.76337e-10 -3.53166e-12 5.18415e-11 1.02537e-11 -1.99271e-11 -7.14884e-11 
7.31149e-10 9.4148e-10 5.01789e-10 9.66799e-11 -5.18104e-11 -1.71373e-10 -3.39627e-10 -2.61582e-10 -1.80363e-10 
-2.06783e-10 -1.59779e-10 -1.13313e-10 1.97717e-10 3.72072e-10 1.70937e-10 2.8384e-10 -9.96354e-11 1.6938e-11 
-7.96949e-11 -3.64305e-10 -1.332e-10 3.1591e-10 2.39125e-10 6.97448e-11 3.89219e-10 6.95504e-10 3.25417e-10 
-1.94313e-11 -8.47807e-11 -3.26079e-12 -5.78711e-11 -1.41088e-10 -5.96878e-11 1.59642e-12 3.1589e-11 -3.43402e-11 
-1.61774e-10 1.50877e-10 -3.26929e-12 1.40263e-10 -1.07606e-10 9.16646e-11 -3.40853e-11 -1.53354e-10 -5.62317e-11 
3.03428e-10 -1.913e-10 6.37667e-11 -1.75969e-10 -6.40903e-11 -7.20177e-11 -2.10728e-10 9.36573e-11 1.27533e-10 
5.9526e-10 1.53572e-09 6.39294e-10 9.47464e-11 -8.47807e-11 2.4456e-11 -1.75658e-10 -9.56761e-10 -3.39726e-10 
-7.99168e-11 2.63037e-10 1.4746e-10 -1.70677e-11 4.86288e-10 1.40766e-10 1.60507e-10 2.03256e-10 7.57229e-11 
-1.58292e-11 5.56351e-10 1.62157e-10 -3.01642e-10 -2.78979e-11 1.79344e-11 8.90611e-10 9.27113e-10 5.45317e-10 
2.645e-10 2.55067e-10 2.78979e-11 -1.63081e-10 -5.83951e-10 -2.2411e-10 -1.00754e-10 1.50761e-10 7.65947e-12 
3.65225e-10 5.1662e-10 2.64554e-10 1.40116e-10 8.55332e-11 -1.44855e-10 3.55465e-10 3.36043e-10 2.07452e-10 
9.6202e-11 -1.34163e-10 -3.10403e-12 2.65981e-10 2.28723e-10 1.48411e-10 4.2137e-11 -1.79344e-11 4.69053e-11 
-1.85777e-10 -5.15345e-10 -2.10337e-10 -2.33333e-10 -7.39793e-12 1.72618e-11 -6.34234e-10 -4.10357e-10 -3.13377e-10 
-1.23442e-10 6.07441e-11 4.3715e-11 -1.83764e-10 -2.0388e-10 -1.16293e-10 4.95672e-11 4.7825e-11 1.10595e-10 
3.93577e-10 -1.27618e-10 7.97876e-11 1.59037e-11 7.82591e-11 -5.86943e-11 8.57057e-11 2.07129e-10 8.78504e-11 
7.55644e-11 1.34508e-11 3.28797e-11 1.25013e-10 9.22886e-11 6.51904e-11 -1.39132e-10 8.55959e-11 2.36408e-11 
3.70214e-10 -1.31222e-10 7.16975e-11 1.7726e-10 7.17375e-11 -6.14893e-11 6.07384e-11 -1.89124e-12 1.76541e-11 
1.77104e-10 5.54335e-11 1.27579e-10 -1.59515e-10 -1.53317e-10 -9.38498e-11 -1.54686e-10 6.11399e-11 -1.54888e-11 
-1.62049e-10 1.89052e-10 8.10104e-12 -9.28434e-11 -1.8505e-10 -1.94017e-10 6.47544e-11 -2.05412e-11 1.3264e-11 
-1.72712e-11 6.87484e-11 -3.58687e-11 -3.6496e-10 -1.94866e-10 -1.67948e-10 -1.3105e-10 1.87315e-10 1.11592e-10 
-4.08334e-10 -4.79723e-10 -2.66417e-10 -8.53693e-11 6.84767e-11 -1.37769e-10 2.1041e-10 3.01637e-10 1.53614e-10 
-3.47212e-10 -8.47807e-11 -7.74439e-11 2.53742e-11 -5.36514e-11 -8.48316e-12 -5.12685e-11 -1.04345e-10 -8.80415e-11 
1.88543e-10 1.92817e-10 1.14408e-10 2.37374e-11 -2.81244e-11 8.66149e-12 5.17473e-10 9.51413e-10 4.40666e-10 
1.44778e-10 -8.96719e-11 -1.89126e-10 -2.43559e-10 -1.06977e-10 -1.05161e-10 1.33429e-10 -7.17375e-11 -7.58135e-11 
6.75345e-10 1.2856e-09 5.88285e-10 -1.17708e-10 -1.13584e-10 1.21555e-10 3.65864e-10 4.83216e-10 2.54724e-10 
-8.97723e-12 -7.72401e-11 -1.09848e-10 1.7386e-10 5.12435e-10 2.05889e-10 2.00005e-10 3.26079e-11 -1.46736e-11 
1.07819e-10 5.91468e-10 2.09786e-10 2.24493e-10 -3.91295e-11 6.60311e-11 2.19669e-10 3.11123e-10 1.59238e-10 
3.37164e-11 3.88578e-11 5.97812e-12 -6.74415e-11 -1.41326e-10 -6.26302e-11 2.57336e-10 1.27035e-10 -3.36269e-11 
3.91645e-10 2.8348e-10 2.02538e-10 1.65326e-10 1.37267e-10 9.38106e-11 6.45134e-11 -3.24422e-10 -7.79725e-11 
2.38974e-11 2.04564e-10 -5.43636e-11 -3.14729e-10 -8.14144e-10 -3.38662e-10 -2.61815e-10 -6.89784e-12 -1.21402e-10 
3.8359e-11 -7.31869e-11 -1.04484e-11 3.17639e-11 -4.7398e-11 1.05044e-10 -1.84636e-10 -3.8422e-10 -1.70657e-10 
-2.50274e-11 2.51081e-11 7.08408e-11 6.09964e-11 -4.29258e-10 -1.10479e-10 1.27226e-10 1.913e-10 3.81105e-11 
-3.14215e-10 -4.04761e-10 -2.15693e-10 -1.02828e-10 -7.52603e-11 -1.71337e-11 -3.08993e-10 -3.8036e-10 -2.06806e-10 
-3.37507e-10 9.565e-11 -1.99271e-11 -1.54117e-10 -2.84961e-11 -5.47839e-11 1.85889e-10 4.7825e-11 1.19562e-11 
-1.90876e-11 -1.9832e-10 -6.52223e-11 -1.49261e-10 -6.27703e-11 -1.36002e-10 -3.73957e-11 1.30103e-10 2.78123e-11 
1.67831e-10 1.2853e-10 -9.565e-11 -5.30848e-11 1.82922e-10 3.89512e-11 9.51782e-11 -8.96719e-12 1.04617e-11 
-6.51611e-10 -7.61655e-10 -4.2398e-10 -4.50054e-11 1.65893e-10 -4.59568e-11 1.52344e-10 4.55277e-10 1.82286e-10 
-4.36667e-11 5.38031e-11 5.38031e-11 1.53049e-11 -5.96738e-11 -1.33107e-11 -3.39933e-12 -1.10408e-10 -2.59675e-11 
9.40596e-11 1.73755e-10 8.03444e-11 2.27163e-11 8.45478e-11 -8.19857e-11 -5.86243e-10 -1.54146e-09 -6.38312e-10 
-1.43907e-11 -3.78223e-10 5.25221e-11 -1.17629e-10 -7.43253e-11 -5.75861e-11 3.01392e-11 4.48359e-11 -2.88231e-11 
2.08008e-10 4.33306e-10 1.92394e-10 -1.88375e-10 2.10088e-10 6.66134e-11 -1.68595e-10 -1.17999e-10 -8.5978e-11 
-1.05246e-10 -1.95648e-11 -2.60864e-11 -2.34608e-10 -3.8367e-10 -1.85483e-10 1.14496e-10 -3.91295e-11 -3.42383e-11 
-2.71497e-10 -1.80095e-10 -1.35478e-10 -2.43085e-11 -1.44855e-11 1.40716e-10 1.47632e-10 -2.79338e-10 -3.95117e-11 
-2.86985e-10 -8.82923e-11 6.89784e-11 5.49829e-11 -2.17046e-10 -4.8619e-11 1.21367e-10 -1.43849e-11 4.44623e-11 
-4.03575e-11 4.54156e-10 1.24139e-10 -7.11303e-12 8.78037e-11 2.29784e-11 -2.80471e-11 2.186e-10 5.71658e-11 
1.59689e-10 2.75913e-12 -9.65697e-12 7.73866e-10 1.59166e-09 7.09658e-10 -1.24633e-10 -7.03579e-11 1.22781e-10 
2.37724e-10 2.65279e-10 1.50901e-10 6.97791e-11 -8.51883e-11 -4.03523e-11 3.27356e-10 2.71324e-10 1.79604e-10 
2.29337e-10 -3.58687e-11 -6.66134e-11 -8.96085e-11 -4.04708e-10 -1.48295e-10 4.45328e-11 -1.05813e-10 -7.20364e-11 
5.12714e-10 5.09546e-10 3.06678e-10 1.16494e-10 1.00432e-10 2.8695e-11 -1.07506e-10 -4.17607e-11 -4.47799e-11 
-2.82975e-11 3.88578e-10 1.12389e-10 3.57944e-10 4.82449e-10 2.52118e-10 4.31166e-11 -1.79344e-11 -1.70377e-10 
5.55003e-10 2.80416e-10 2.50626e-10 2.50092e-10 -5.60449e-11 4.20337e-12 1.44424e-11 8.31108e-11 2.9266e-11 
-5.67731e-11 -9.83588e-11 2.9984e-11 -2.65323e-10 -3.72188e-10 -1.91253e-10 -7.85768e-11 -1.76355e-10 -4.18469e-11 
5.39735e-10 9.56384e-10 4.48836e-10 1.31284e-10 6.09769e-10 9.68456e-11 5.98818e-10 6.25764e-10 3.67374e-10 
1.24606e-10 9.565e-11 -1.94289e-11 8.06322e-11 6.18153e-11 4.27342e-11 1.17633e-10 8.96719e-11 -1.19562e-11 
3.78436e-10 -1.50592e-10 6.83532e-11 9.3253e-11 -1.09546e-10 1.40112e-12 -1.65757e-10 -1.60812e-10 -9.79708e-11 
5.06437e-11 6.62192e-11 5.51827e-11 2.22989e-10 1.67112e-11 7.19099e-11 1.58078e-10 -8.98443e-11 7.93251e-12 
5.89754e-10 6.84836e-10 3.82377e-10 1.39985e-10 -1.08641e-10 8.62229e-12 4.16916e-10 4.91479e-10 2.72518e-10 
-1.23133e-10 -7.47266e-11 -1.04617e-10 6.49139e-10 1.29258e-09 5.82517e-10 -9.95501e-12 5.39899e-11 6.22099e-11 
-1.92086e-10 -5.27876e-11 -7.34619e-11 -2.1269e-11 -1.62099e-11 7.93251e-12 -2.98342e-10 -2.38611e-10 -1.61086e-10 
-1.00652e-10 -8.76025e-11 -2.5522e-11 1.75933e-10 9.47176e-11 8.11951e-11 1.45312e-10 -8.96719e-12 4.7825e-11 
9.72447e-11 4.83054e-10 1.7409e-10 -2.88265e-10 -1.56926e-10 -4.93195e-11 5.38802e-10 5.07837e-10 3.13992e-10 
6.58816e-11 -7.17375e-12 -1.29127e-10 9.47405e-11 6.82322e-10 2.33119e-10 -1.64286e-10 1.86517e-10 9.32587e-11 
1.43436e-10 -9.19761e-11 1.54378e-11 1.00056e-11 -2.60864e-11 1.95648e-11 9.39684e-11 1.73519e-10 8.02461e-11 
-1.57249e-10 3.26079e-11 -9.78238e-11 -3.76408e-10 -1.07073e-10 -1.45044e-10 -1.1991e-11 1.33611e-10 8.21992e-11 
-2.9336e-11 -1.66448e-10 -5.87351e-11 -3.90248e-11 -1.96082e-10 2.17305e-10 3.8515e-10 3.30263e-10 2.14624e-10 
-1.26395e-10 5.739e-11 -5.29064e-11 -2.90881e-10 -6.092e-10 -2.70024e-10 -3.38217e-11 -1.36301e-10 1.1478e-10 
-1.29079e-10 -1.34077e-10 -7.89469e-11 1.05993e-10 -5.68687e-25 5.86943e-11 2.95569e-11 1.23548e-10 4.59314e-11 
-1.07502e-10 1.43475e-10 1.95648e-11 -1.11421e-10 -2.22981e-10 -1.0032e-10 6.66045e-11 6.87484e-11 1.07606e-10 
-2.45481e-11 1.63026e-10 4.15433e-11 -7.69172e-11 4.76755e-10 -1.49453e-10 -3.0327e-11 -1.58424e-10 -5.66254e-11 
1.94725e-10 -3.29224e-10 1.01842e-10 -2.64999e-11 1.54603e-10 3.84308e-11 -1.63862e-11 -1.39472e-10 8.72699e-11 
-1.73052e-10 -1.36876e-10 -9.29785e-11 -2.97982e-11 5.38031e-11 1.43475e-10 1.67384e-10 5.7381e-10 2.22358e-10 
-6.336e-11 -3.94556e-11 -6.45637e-11 -9.36853e-11 -5.22862e-11 -4.37915e-11 -6.91646e-12 -2.4456e-12 -2.038e-11 
-1.32864e-10 2.05977e-10 2.19339e-11 1.70261e-10 -2.60864e-11 6.52159e-11 -5.89996e-10 -3.1618e-10 -2.71853e-10 
-2.47513e-10 -8.96719e-12 -1.47959e-10 2.60199e-11 -9.51777e-12 4.95063e-12 -1.16236e-10 -3.18833e-11 1.59417e-11 
1.38248e-11 -2.35202e-10 -6.64132e-11 8.25908e-11 2.5407e-11 -7.47266e-12 1.32646e-10 3.07307e-10 1.31986e-10 
-2.84987e-11 1.03123e-11 -4.28183e-11 8.40768e-10 1.30255e-09 6.42995e-10 3.5964e-10 1.14972e-10 2.06566e-11 
4.61475e-10 9.83316e-10 4.33437e-10 -1.34454e-11 2.45103e-10 8.96719e-11 1.37829e-10 5.1743e-10 1.96578e-10 
1.55676e-10 1.61409e-10 1.2853e-10 -2.02222e-10 -4.3704e-10 -1.91779e-10 -1.01338e-10 2.55565e-10 7.84629e-11 
4.83366e-10 5.65608e-10 3.14692e-10 -2.35135e-11 -1.55431e-10 -7.17375e-11 -2.49307e-12 -6.6629e-11 -2.07366e-11 
-2.42312e-11 -9.8639e-11 -2.98906e-12 1.77587e-10 5.19892e-10 2.09244e-10 -8.4704e-11 -8.89993e-11 -2.95917e-11 
2.35845e-10 3.5723e-10 1.77923e-10 1.25661e-10 -1.30505e-10 -4.03523e-11 -2.75916e-13 -2.00085e-10 -6.01082e-11 
-5.0277e-11 9.565e-11 6.57594e-11 -4.09926e-10 -5.60818e-10 -2.91223e-10 -1.68109e-10 -1.94289e-11 -5.67922e-11 
-3.80486e-11 3.92162e-11 3.50281e-13 -7.74287e-11 -6.35176e-11 6.2023e-11 4.06515e-10 5.45047e-10 2.85469e-10 
2.23318e-12 -3.01041e-11 2.0016e-11 1.40983e-10 4.37401e-10 1.73515e-10 -5.38886e-11 -9.565e-12 -3.826e-11 
3.25954e-14 4.1881e-10 1.25653e-10 7.07825e-11 -6.21725e-11 -9.565e-11 3.96835e-10 -2.27875e-12 1.18367e-10 
1.33029e-10 -6.93462e-11 2.39125e-11 2.1394e-11 -2.46134e-10 -6.7422e-11 1.14855e-10 4.7825e-12 5.49987e-11 
-1.68494e-10 -2.07941e-10 -1.1293e-10 -1.15613e-10 3.58687e-11 3.34775e-11 -3.39737e-10 -2.82362e-10 -1.8663e-10 
-9.42749e-11 -9.565e-12 -4.06512e-11 2.43706e-10 4.45834e-10 2.06862e-10 -4.65159e-11 4.7825e-11 1.913e-11 
-1.51755e-10 -4.67728e-10 -1.85845e-10 -7.84676e-11 6.6955e-11 4.30425e-11 -6.90414e-11 -2.19216e-10 -8.64773e-11 
1.9117e-10 4.30425e-11 -1.43475e-11 7.38302e-11 3.82936e-10 1.3703e-10 -1.60436e-10 -9.32587e-11 -5.02162e-11 
-1.50461e-10 -9.10418e-11 -7.24508e-11 -2.24867e-10 2.038e-12 1.18204e-11 3.03142e-10 5.6428e-10 2.60227e-10 
1.33899e-10 3.91295e-11 -5.86943e-11 3.18478e-10 5.86648e-10 2.71538e-10 6.86673e-11 2.31652e-11 -3.36269e-11 
-4.03314e-10 -3.33276e-10 -2.20977e-10 -2.95616e-10 -6.66134e-11 -2.56205e-11 -2.26979e-10 -2.99282e-10 -1.57879e-10 
-1.10016e-10 1.43475e-11 3.34775e-11 9.87466e-11 -6.48734e-10 -1.64996e-10 9.34489e-11 -3.10862e-11 -5.26075e-11 
-2.14575e-10 -6.35065e-10 -2.54892e-10 1.04637e-10 7.652e-11 1.913e-11 -4.21725e-12 -5.83662e-11 -1.8775e-11 
-1.79396e-11 -9.565e-12 1.67387e-11 -7.79979e-11 3.81574e-10 9.1073e-11 -7.14337e-11 -3.34775e-11 1.07606e-11 
-4.1454e-11 -8.93174e-11 -3.92314e-11 -1.52312e-11 6.93462e-11 5.26075e-11 3.12077e-10 1.69068e-11 9.86951e-11 
1.88541e-10 1.19562e-11 -2.27169e-11 -1.8872e-10 -4.42533e-10 -1.89376e-10 1.06803e-10 1.43475e-11 -5.739e-11 
-2.39692e-10 -5.63618e-10 -2.40993e-10 -8.4942e-11 7.89112e-11 3.22819e-11 -1.89534e-10 -2.33231e-10 -1.2683e-10 
-1.97533e-10 1.19562e-11 1.19562e-12 1.68873e-10 1.20778e-10 8.68951e-11 6.76035e-11 -9.88428e-12 -3.81105e-11 
3.28708e-10 5.2948e-10 2.57456e-10 1.42952e-11 -1.37497e-10 -4.7825e-11 3.03747e-11 -3.05929e-10 -8.26662e-11 
7.62669e-11 -7.53244e-11 3.67655e-11 3.30158e-10 3.12116e-10 1.92682e-10 -1.26073e-10 -2.21191e-10 1.1478e-10 
3.22489e-10 3.88008e-10 2.13149e-10 -5.32965e-11 1.07606e-10 -4.89119e-11 -2.1586e-11 1.00558e-10 2.36917e-11 
9.10145e-11 -1.98908e-10 -8.47807e-11 -1.93569e-10 -5.04596e-11 -7.32087e-11 -1.03009e-10 7.0243e-11 -1.12837e-10 
-1.08837e-11 -5.38015e-11 -1.94056e-11 -9.56796e-11 1.15079e-10 -1.4198e-11 2.95452e-10 6.00146e-10 2.68679e-10 
2.35399e-10 -2.39125e-12 5.14119e-11 -9.61391e-11 -2.36768e-10 -9.9872e-11 -1.61813e-11 1.43475e-11 2.38676e-25 
-3.04647e-11 -6.83612e-11 -2.96478e-11 -4.03139e-11 8.36937e-11 4.42381e-11 -3.89477e-10 -5.24616e-10 -2.74228e-10 
3.31192e-11 8.84762e-11 -1.07606e-11 1.99366e-10 8.60745e-10 3.18033e-10 1.52927e-10 2.62118e-10 8.2774e-11 
-4.08316e-10 -5.68159e-10 -2.92942e-10 -1.04588e-10 3.86279e-11 1.55201e-11 -1.92187e-10 -1.78356e-10 -1.11163e-10 
-1.63773e-10 -1.13125e-10 -1.6003e-10 -5.55532e-10 -9.3634e-10 -4.47562e-10 4.19629e-11 1.73825e-10 2.89709e-11 
-7.48235e-10 -2.21894e-09 -8.90153e-10 2.77229e-11 3.02322e-10 -6.21298e-11 4.09328e-11 -2.53203e-11 4.68375e-12 
4.08613e-11 -3.07446e-11 -1.53723e-11 -2.2187e-11 4.12773e-11 5.72709e-12 6.68868e-11 -8.74301e-11 8.18256e-11 
6.75361e-11 2.32469e-10 9.00015e-11 4.15662e-12 1.05496e-11 -1.382e-10 1.73872e-10 3.60356e-10 1.60268e-10 
8.89273e-11 2.30585e-11 7.94236e-11 -7.82442e-12 3.51463e-11 8.19657e-12 9.21376e-11 -4.93195e-11 6.72539e-11 
3.12831e-10 4.59538e-10 2.31711e-10 4.39519e-12 1.19936e-10 -9.07928e-11 -8.66091e-11 -4.36185e-10 -1.56838e-10 
-2.59573e-11 -9.52763e-11 -9.75181e-11 2.75226e-10 3.96437e-10 2.01499e-10 1.37001e-10 1.25541e-10 -8.63092e-11 
3.58371e-11 2.73636e-10 9.28419e-11 3.39557e-11 9.19137e-11 -3.02643e-11 -2.22794e-10 -4.92654e-10 -2.14635e-10 
1.44002e-11 -1.21057e-10 -9.63973e-11 -1.527e-10 -2.37688e-10 -1.17116e-10 -7.88527e-11 -6.72539e-11 -8.96719e-12 
2.51194e-11 4.05551e-10 1.29201e-10 -4.06109e-11 1.25541e-10 -1.97278e-10 -2.74347e-11 2.00999e-10 5.20692e-11 
-8.07742e-11 1.88311e-10 -6.05285e-11 -3.61452e-10 -2.9007e-10 -1.95457e-10 -1.0781e-10 -1.60288e-10 -4.70777e-11 
-3.14161e-10 -3.7737e-10 -2.0746e-10 -1.12575e-10 -2.42114e-10 -2.19198e-11 -8.45309e-11 -2.74857e-10 -1.07816e-10 
-1.12981e-10 9.41555e-11 -1.79344e-11 1.69434e-10 3.0452e-10 1.42186e-10 -2.67034e-11 3.27601e-10 4.30425e-11 
3.04462e-11 -7.24799e-11 -1.26101e-11 7.28385e-11 -2.07526e-10 -1.98559e-11 -1.88454e-10 -4.29617e-10 -1.85421e-10 
1.62056e-11 2.04003e-10 -1.59168e-10 -4.06536e-10 -5.14084e-10 -2.76186e-10 4.68827e-11 1.56135e-10 -1.18156e-10 
7.49091e-12 4.09479e-11 1.45316e-11 5.66299e-11 2.61329e-10 -9.22339e-11 2.16211e-10 9.54513e-12 6.77268e-11 
1.0057e-10 1.90553e-10 -3.36269e-12 -3.07509e-10 -3.56974e-10 -1.99345e-10 2.92102e-11 6.50121e-11 -3.36269e-12 
-6.71863e-11 -2.4071e-10 -9.2369e-11 -1.48326e-10 1.30024e-10 -6.05285e-11 5.05802e-11 -1.65647e-10 -3.45202e-11 
-7.26676e-11 1.92795e-10 -4.48359e-11 -1.2263e-10 -6.59961e-11 -5.65878e-11 2.23089e-11 5.82867e-11 6.94957e-11 
-6.03019e-11 -3.98916e-10 -1.37765e-10 5.95886e-11 1.95036e-10 2.42114e-10 1.14044e-11 -3.63612e-10 -1.05662e-10 
1.02496e-11 1.52442e-10 7.62211e-11 -2.27513e-12 -1.50622e-10 -4.58693e-11 -8.41277e-11 -9.63973e-11 -5.60449e-11 
6.56379e-11 4.89039e-11 3.43625e-11 -8.36248e-12 -7.39793e-11 -4.48359e-11 -8.81922e-11 8.50396e-11 -9.45758e-13 
-4.8547e-11 -2.88631e-11 4.51162e-11 -2.86259e-10 -3.43779e-10 -1.89011e-10 -1.97647e-11 1.31768e-10 9.54009e-11 
9.43027e-11 7.13412e-11 4.96932e-11 9.64051e-12 -8.36937e-11 1.26537e-10 -2.7822e-10 -5.69552e-10 -2.54332e-10 
-7.44199e-11 -9.80412e-11 8.96719e-11 -9.01912e-11 1.93874e-10 3.11049e-11 7.11305e-11 -2.58255e-10 8.6085e-11 
-4.818e-11 -7.88552e-11 -3.81105e-11 3.41697e-11 7.09902e-11 -3.58687e-11 -2.93982e-10 -3.62678e-10 -1.96998e-10 
6.78793e-12 -1.53189e-10 8.6496e-11 3.47398e-10 1.06379e-10 1.36133e-10 -1.3558e-10 -1.43475e-10 -4.06512e-11 
-1.52084e-10 -3.34946e-10 -1.46109e-10 -1.94988e-10 2.65429e-10 -3.94556e-11 6.42841e-12 5.62988e-11 1.88182e-11 
1.25411e-10 -3.31096e-11 -2.75913e-11 2.76131e-10 1.45047e-10 1.26353e-10 1.237e-10 6.68055e-11 3.40753e-11 
5.34848e-10 8.32087e-10 4.10081e-10 8.71722e-11 -2.3651e-11 -3.67655e-11 9.73119e-11 7.11031e-11 5.05245e-11 
2.12983e-10 9.32587e-11 7.17375e-12 1.62647e-10 2.4536e-10 1.22402e-10 -3.19002e-11 -1.15228e-10 6.54605e-11 
2.44664e-10 4.41325e-10 2.05797e-10 -2.42005e-10 -1.15677e-10 1.43475e-10 -5.13914e-10 -2.3989e-10 -2.26141e-10 
-3.10037e-10 -4.48359e-11 8.96719e-11 -5.07855e-10 -4.66766e-10 -2.92386e-10 -2.48792e-10 7.53244e-11 8.6085e-11 
-6.2224e-11 -1.98105e-10 -7.80986e-11 -1.20374e-10 -7.35309e-11 1.31369e-10 -1.35571e-10 -4.96616e-10 -1.89656e-10 
9.52147e-11 -1.7217e-10 1.64996e-10 -3.1301e-10 -2.42535e-10 -1.66664e-10 -1.77298e-10 -8.07047e-11 -2.2418e-11 
-1.59871e-10 4.55228e-10 8.8607e-11 -1.98087e-10 -7.7398e-11 1.42915e-11 -5.80294e-10 -2.51973e-10 -2.4968e-10 
-3.89495e-10 1.43475e-10 5.57958e-11 -3.45036e-10 -1.15315e-09 -4.49455e-10 -2.16651e-10 -8.47807e-11 -7.82591e-11 
7.56112e-10 1.05414e-09 5.43075e-10 1.5691e-10 1.04617e-10 -1.49453e-11 -1.62608e-10 -6.01327e-10 -2.29181e-10 
2.37801e-10 -1.6003e-10 4.20768e-11 2.42131e-10 5.25404e-10 2.30261e-10 -6.99783e-11 1.29127e-10 1.1478e-10 
3.99623e-10 7.58405e-10 3.47408e-10 3.49258e-11 2.09234e-10 3.58687e-11 7.49054e-10 1.21602e-09 5.89522e-10 
2.24703e-10 4.7825e-11 1.79344e-11 1.11584e-10 1.49259e-10 7.82527e-11 8.60371e-11 2.83961e-11 5.97812e-12 
5.57214e-11 -2.20944e-11 1.00881e-11 4.13113e-11 -9.32587e-11 -1.35405e-10 3.19522e-11 -6.72605e-11 -1.05925e-11 
8.49877e-12 -7.17375e-12 -7.17375e-11 -1.13851e-10 -4.46365e-10 -1.68065e-10 -4.45238e-11 -7.17375e-11 -7.77156e-11 
-2.26971e-10 -9.27188e-11 -9.59069e-11 -6.84694e-11 1.34508e-11 -7.47265e-13 2.39556e-10 4.38868e-10 2.03527e-10 
-2.40133e-11 2.51081e-11 -1.05813e-10 1.17598e-10 2.47564e-11 4.27062e-11 1.77156e-11 -8.87751e-11 -6.09769e-11 
-4.2045e-10 -4.09949e-10 -2.4912e-10 1.85374e-11 -2.09234e-11 1.79344e-11 -4.06319e-10 -6.05036e-10 -3.03407e-10 
-6.64889e-11 -5.21727e-11 9.78238e-11 -2.71887e-10 -4.94654e-10 -2.29962e-10 2.87738e-11 -7.82591e-11 -6.52159e-11 
2.13219e-10 3.64444e-10 1.73299e-10 -6.14042e-11 7.68616e-12 -2.81826e-11 -5.07868e-10 -1.13425e-09 -4.92635e-10 
5.24602e-11 1.95554e-10 -1.62099e-11 -2.55564e-10 -3.82054e-10 -1.91286e-10 -3.49521e-12 -8.2774e-12 -1.93139e-11 
2.88262e-10 1.75743e-10 1.39202e-10 1.36252e-11 -2.39125e-11 3.58687e-11 4.60603e-10 1.13434e-09 4.78483e-10 
1.30995e-10 -2.65279e-11 -7.95838e-11 3.12572e-10 1.09726e-10 1.2669e-10 -1.02736e-10 7.26342e-11 -2.13419e-10 
-1.73633e-10 -6.63678e-10 -2.51193e-10 1.10622e-10 1.61409e-11 1.44372e-10 -1.85252e-10 1.11593e-10 -2.20977e-11 
3.85729e-11 9.4796e-11 -1.92154e-11 3.14052e-10 7.90266e-10 3.31295e-10 2.6047e-11 -1.67387e-10 -1.01628e-10 
4.75779e-11 -1.95554e-11 8.40674e-12 -1.57739e-11 1.43475e-11 7.17375e-12 3.83363e-10 7.77607e-10 3.48291e-10 
1.07246e-10 2.55565e-11 1.34508e-12 -5.58994e-10 -6.11878e-10 -3.51261e-10 -6.49671e-11 2.72005e-10 1.13584e-10 
2.22866e-10 8.19335e-10 3.12661e-10 -4.05671e-11 1.43475e-10 -4.63305e-11 2.32646e-10 1.22865e-10 1.06653e-10 
4.00385e-11 9.38565e-11 5.44009e-11 1.34066e-10 1.82333e-10 9.49197e-11 -8.74564e-11 -3.94556e-10 -2.60864e-11 
4.89577e-10 3.16349e-10 2.41778e-10 2.41474e-10 5.02162e-11 -1.29127e-10 5.60938e-10 6.8224e-10 3.72953e-10 
2.21946e-10 1.30432e-11 2.60864e-11 4.62532e-10 4.27818e-10 2.67105e-10 1.82079e-10 -3.26079e-11 -1.95648e-11 
-1.74793e-10 -3.73683e-10 -1.64543e-10 1.38588e-10 2.60864e-11 -4.56511e-11 -1.2759e-10 -5.86728e-10 -2.14295e-10 
-8.69362e-11 -3.91295e-11 5.21727e-11 5.75923e-10 4.53265e-10 3.08757e-10 -1.57399e-11 -1.04345e-10 9.78238e-11 
-2.95198e-10 9.62392e-12 -8.56723e-11 -9.37366e-11 -3.26079e-11 9.78238e-11 -6.87014e-10 -9.20456e-10 -4.82241e-10 
-1.54986e-10 3.26079e-11 2.28256e-10 -1.50128e-10 -7.04811e-10 -2.56482e-10 -2.25966e-12 -4.56511e-11 6.52159e-12 
-1.22496e-10 -2.51986e-10 -1.12345e-10 -1.13111e-10 6.52159e-11 -6.52159e-12 2.61222e-10 9.24637e-10 3.55758e-10 
1.09797e-10 -4.56511e-11 -6.52159e-11 -5.5313e-10 -4.66456e-10 -3.05876e-10 -1.16007e-10 -1.65548e-11 -1.37957e-10 
-5.99332e-10 -9.54607e-10 -4.66182e-10 -2.97787e-10 1.38692e-10 2.39125e-11 2.98478e-10 -1.83186e-10 3.45877e-11 
2.18466e-10 -2.33383e-24 -6.40513e-11 1.68004e-10 4.186e-10 1.75981e-10 -2.87296e-11 -2.48839e-10 7.92101e-11 
-3.80824e-10 -4.22147e-10 -2.40891e-10 -1.26366e-10 1.04345e-10 7.82591e-11 4.08855e-10 9.57348e-10 4.09861e-10 
-1.444e-10 -5.51827e-11 -1.10365e-11 2.80517e-10 3.543e-10 1.90445e-10 1.38308e-10 5.51827e-12 -6.62192e-11 
2.97123e-10 1.94564e-10 1.47506e-10 7.5478e-11 -3.86279e-11 3.58687e-11 2.61469e-10 7.54237e-10 3.04712e-10 
2.39631e-10 3.31096e-11 3.86279e-11 -2.2865e-10 -4.90018e-10 -2.156e-10 4.86194e-11 -1.24161e-10 5.51827e-12 
1.02496e-10 2.4606e-10 1.04567e-10 -7.61948e-11 2.48322e-11 -8.00149e-11 -1.00362e-11 1.22126e-10 3.36269e-11 
6.81091e-11 -1.04345e-10 -6.84767e-11 -2.42275e-10 -3.06965e-10 -1.64772e-10 1.96105e-10 2.20731e-11 -6.62192e-11 
2.12534e-10 -1.08851e-10 3.11049e-11 -2.06484e-11 4.41461e-11 5.51827e-12 -2.87903e-10 -5.95883e-10 -2.65136e-10 
-1.11321e-10 -2.20731e-11 3.86279e-11 -3.99489e-10 -3.31523e-10 -2.19304e-10 1.43175e-11 -1.11193e-10 5.739e-11 
9.72967e-11 7.61878e-11 5.20453e-11 -1.00631e-10 -4.80967e-11 -6.96995e-11 -1.94682e-10 -3.03807e-10 -1.49547e-10 
-5.59619e-11 -1.99271e-10 9.16646e-11 7.26589e-11 1.39751e-10 6.37231e-11 2.34239e-11 2.01762e-10 -6.63572e-11 
-3.06149e-11 3.98473e-10 1.10358e-10 2.02268e-12 -7.17375e-11 1.40214e-10 -3.37561e-10 -6.71948e-10 -3.02853e-10 
2.6076e-11 1.89058e-10 2.91434e-11 -4.52209e-10 -4.72252e-10 -2.77338e-10 4.39371e-11 2.00865e-10 -7.17375e-11 
5.42194e-11 -6.84641e-11 -4.27342e-12 -1.94518e-11 1.55431e-10 -5.97812e-11 2.09112e-10 3.04633e-10 1.54124e-10 
-6.5492e-11 5.67922e-11 7.0243e-11 -7.89825e-11 -1.62244e-10 -7.2368e-11 8.43552e-11 -2.91434e-11 3.13852e-11 
-5.57704e-11 -1.24774e-10 -5.41634e-11 9.85314e-11 3.20257e-11 -1.08247e-10 -7.0689e-11 -3.17931e-11 -3.07446e-11 
5.07631e-11 2.04964e-11 3.97118e-11 2.50184e-10 8.10817e-11 9.93796e-11 -3.65037e-11 -5.12411e-11 -1.02482e-10 
-1.88479e-10 -1.11814e-11 -5.9898e-11 -1.36229e-10 1.16573e-10 -1.79531e-10 -2.89488e-10 -2.371e-10 -1.57977e-10 
-3.82421e-11 1.22552e-10 -6.87484e-11 4.44957e-10 3.23458e-10 2.30525e-10 4.86934e-12 6.66134e-11 -1.02482e-11 
-3.00507e-11 -2.35929e-10 -7.97939e-11 6.52319e-11 -1.94289e-11 1.34508e-10 4.76881e-11 -8.99553e-11 -1.26802e-11 
-3.04173e-12 -8.96719e-12 -6.16494e-12 -3.56183e-10 -4.8706e-10 -2.52973e-10 5.36927e-11 -1.10595e-10 6.27703e-11 
2.75871e-10 1.61513e-10 1.31215e-10 1.28388e-10 1.01628e-10 8.35069e-11 -7.73915e-11 1.55054e-10 2.32987e-11 
8.58985e-11 -1.7422e-10 -8.32667e-11 -1.47533e-10 -1.00699e-10 -7.44697e-11 -5.57923e-12 -1.49453e-11 6.55725e-11 
-7.17895e-12 -1.79771e-10 -5.60849e-11 1.20564e-11 7.68616e-11 -1.98559e-10 -7.90871e-11 -1.56302e-10 -7.06166e-11 
-5.13845e-11 7.70618e-11 1.34344e-10 3.51081e-10 4.47559e-10 2.39592e-10 3.18089e-11 -2.30585e-10 -6.66134e-11 
-2.52317e-10 -4.19055e-10 -2.01411e-10 2.77947e-11 -1.4198e-10 6.12758e-11 1.45567e-10 -2.15856e-10 -2.10869e-11 
1.60125e-10 1.09941e-10 1.13421e-10 -4.8116e-10 -5.39091e-10 -3.06075e-10 2.1395e-11 9.41555e-11 1.15079e-10 
6.05221e-11 -1.89979e-11 1.24573e-11 1.61502e-10 2.80428e-10 3.26079e-11 4.39986e-10 8.01409e-10 3.72418e-10 
3.02773e-11 -3.94556e-10 -2.12223e-10 2.795e-10 8.36794e-10 3.34888e-10 -2.52426e-11 2.69016e-10 8.19857e-11 
5.14976e-10 8.11654e-10 3.97989e-10 2.06056e-12 1.85322e-10 -7.77156e-11 2.12257e-10 3.02889e-10 1.54544e-10 
2.13688e-10 -3.81105e-11 -5.75394e-11 9.35329e-11 1.06361e-10 5.99681e-11 8.00613e-11 -3.10862e-10 7.17375e-11 
8.86938e-11 -1.90509e-10 -3.05445e-11 -1.80173e-11 4.7825e-11 -2.98906e-11 -2.80185e-10 -4.73041e-11 -9.82467e-11 
1.15941e-11 5.23086e-11 2.06245e-11 -2.79393e-10 -1.91945e-10 -1.41401e-10 -2.3158e-11 -1.31519e-10 2.12223e-10 
-2.36582e-10 -1.39392e-09 -4.89152e-10 -1.29852e-11 1.91113e-10 4.14332e-11 1.15343e-10 -7.99146e-11 1.06285e-11 
1.31327e-12 8.96719e-12 3.65093e-11 1.02211e-10 1.38549e-10 7.22279e-11 -1.2682e-10 7.36056e-11 3.13852e-11 
1.22457e-10 3.31507e-10 1.36189e-10 -2.8728e-10 -2.57059e-10 3.28797e-11 1.25016e-10 -9.52101e-11 8.94171e-12 
3.73719e-11 -1.04345e-10 1.04345e-10 -3.76055e-10 -1.17257e-09 -4.64587e-10 3.46512e-11 4.15751e-10 1.43475e-10 
3.62845e-11 1.44927e-10 5.43636e-11 8.01961e-11 8.15142e-11 -3.12606e-11 -6.32577e-10 -8.11047e-10 -4.33087e-10 
-2.08319e-10 7.17375e-11 9.565e-11 6.83144e-10 1.1159e-09 5.39712e-10 3.41818e-11 -1.17854e-10 4.09929e-11 
3.93053e-10 4.91523e-10 2.65373e-10 -1.52268e-10 -1.59417e-11 -1.43475e-10 -5.19211e-10 -6.83207e-10 -3.60725e-10 
-2.21409e-10 4.64663e-11 1.57333e-10 -6.57825e-10 -7.62914e-10 -4.26222e-10 -3.30191e-11 4.7825e-11 1.67387e-10 
-3.13882e-10 -4.57358e-10 -2.31372e-10 -2.02775e-10 7.97083e-12 2.63037e-10 -3.92311e-10 3.4024e-11 -1.07486e-10 
-9.47513e-11 -1.53723e-10 1.28103e-11 4.57933e-10 7.33668e-10 3.5748e-10 7.21584e-11 -1.93139e-10 -6.0701e-11 
-2.85934e-10 2.26286e-10 -1.78943e-11 2.35377e-10 -1.84468e-10 -5.12411e-11 5.86892e-11 1.65059e-10 6.71246e-11 
-1.22077e-10 -1.40716e-10 1.93139e-11 2.37031e-10 4.36442e-10 2.02042e-10 -1.9079e-11 7.97083e-12 -2.49877e-25 
7.60227e-11 -5.65793e-10 -1.46931e-10 1.10944e-10 3.74629e-10 6.77521e-11 -3.47491e-10 -1.09286e-09 -4.32106e-10 
-3.19828e-10 3.4434e-10 2.49288e-10 4.09495e-10 8.9616e-11 1.49733e-10 -1.89621e-10 1.59417e-11 1.63402e-10 
2.54108e-10 7.64508e-10 3.05585e-10 9.70515e-11 1.79344e-10 -5.739e-11 -2.71822e-10 2.02275e-10 -2.0864e-11 
-4.06371e-11 -9.98727e-25 -6.84767e-11 2.52145e-10 2.94078e-10 1.63867e-10 9.7471e-11 -3.31096e-11 1.65548e-10 
1.62658e-10 4.66554e-10 1.88764e-10 2.40023e-11 1.31059e-10 -3.86279e-11 -2.14276e-10 -5.92261e-10 -2.41961e-10 
1.35598e-10 -9.13023e-11 5.70639e-11 -4.24527e-11 6.96129e-11 8.14807e-12 -1.29796e-10 -3.31096e-11 1.37957e-11 
-2.58023e-10 -4.16887e-10 -2.02473e-10 -2.68122e-10 -6.62192e-11 -9.63973e-11 -6.01802e-11 -1.4503e-10 -6.15632e-11 
-1.74424e-10 1.51752e-11 -5.36307e-11 1.97142e-10 2.12495e-10 1.22891e-10 6.28094e-11 -5.46183e-11 -5.29879e-11 
7.36169e-12 -3.09358e-10 -9.05988e-11 5.38328e-11 2.27629e-11 -3.5179e-11 -3.39065e-10 -5.69294e-10 -2.72508e-10 
1.10558e-10 7.44966e-11 4.96644e-11 -2.93369e-10 -5.93003e-10 -2.65912e-10 3.0062e-11 1.10365e-11 1.71411e-10 
-4.1163e-11 -4.26462e-10 -1.40287e-10 1.26549e-10 -8.18256e-11 1.26662e-10 -1.55879e-10 -9.38014e-11 -7.4904e-11 
-1.78933e-10 -6.45637e-11 1.43475e-10 1.76471e-11 -2.97638e-10 -8.39973e-11 9.78779e-12 -8.36937e-11 8.36937e-11 
2.86925e-11 -7.6615e-10 -2.21237e-10 -1.22889e-11 1.77662e-10 -8.6496e-11 1.96361e-10 2.4149e-10 1.31355e-10 
-2.33015e-11 4.63305e-11 -2.46598e-11 1.50395e-10 7.13829e-11 6.65333e-11 -1.76521e-10 -6.14893e-11 -2.04964e-10 
2.54398e-11 -2.74439e-10 -7.46999e-11 7.71542e-11 -3.33067e-11 2.61329e-10 2.55211e-11 1.42614e-10 5.04404e-11 
-6.60055e-11 -1.1209e-10 3.6616e-11 4.17449e-10 9.8671e-10 4.21248e-10 -9.02396e-11 1.97278e-10 9.8639e-11 
4.07111e-12 -2.35432e-10 -6.94081e-11 -9.3756e-11 5.4924e-11 3.2506e-11 -2.00675e-10 -3.45588e-10 -1.63879e-10 
-2.9858e-10 9.63973e-11 6.1089e-11 3.00515e-10 2.53162e-10 1.66103e-10 -9.41434e-11 7.77156e-11 6.57594e-11 
-2.17538e-10 -5.45129e-11 -8.16154e-11 -3.20212e-11 -5.97812e-12 8.36937e-11 1.2822e-11 -1.51406e-10 -4.15751e-11 
6.93851e-11 1.6304e-10 2.77168e-11 -1.77069e-12 3.43135e-10 1.02409e-10 7.00628e-11 -2.41299e-10 7.01071e-11 
-4.43361e-10 -2.91673e-11 -1.41759e-10 -3.87512e-11 -8.2386e-11 1.77102e-10 -4.98231e-10 -8.96586e-10 -4.18445e-10 
-3.72413e-10 -9.565e-11 -8.36937e-11 -4.57539e-10 -6.2693e-10 -3.25341e-10 -4.3953e-10 5.52976e-11 1.51695e-10 
6.73128e-11 5.2326e-10 1.77172e-10 -4.33964e-11 -2.83961e-11 4.7825e-11 3.90692e-10 -7.24037e-11 9.54865e-11 
1.42794e-10 7.77156e-11 1.43475e-10 -1.92737e-10 1.80635e-11 -5.2402e-11 -1.26692e-10 -5.97812e-12 2.69016e-11 
7.87986e-11 2.0897e-10 8.63307e-11 2.72237e-11 -8.41536e-11 1.33128e-10 1.42776e-10 4.6008e-10 1.80857e-10 
-1.57067e-10 7.652e-11 -1.38692e-10 5.85131e-11 -1.14558e-10 -1.68135e-11 -1.09903e-10 -6.1089e-12 -3.22538e-11 
3.51067e-11 2.94157e-10 9.87792e-11 -3.72214e-11 2.99e-11 9.08488e-11 -1.62382e-10 -5.24791e-10 -2.06152e-10 
1.55434e-10 -1.11592e-10 1.59417e-10 -5.81603e-11 1.41605e-10 2.50334e-11 -4.48116e-11 -5.38031e-11 7.27338e-11 
2.15571e-10 2.45573e-10 1.38343e-10 -1.84132e-10 1.1209e-11 -8.96719e-12 -5.23201e-11 -1.23696e-10 -5.28048e-11 
-9.83893e-11 -1.10969e-10 -7.67815e-11 8.93561e-11 -1.18686e-10 -8.79905e-12 -2.39809e-11 8.24981e-11 1.49453e-11 
-6.85153e-11 -3.51635e-10 -1.26045e-10 -6.62724e-11 -1.64996e-10 5.49987e-11 4.30835e-10 7.4926e-10 3.54029e-10 
6.38357e-11 -3.58687e-11 2.06245e-10 -2.90623e-10 -1.1788e-09 -4.40828e-10 -1.29559e-10 -6.72539e-10 -1.07606e-10 
-2.48405e-10 7.95696e-11 -5.06506e-11 2.70615e-11 1.64398e-11 9.17268e-11 1.23752e-10 1.60443e-10 8.52583e-11 
-2.75871e-11 -2.39125e-10 -5.67922e-11 -3.411e-12 9.29077e-11 2.6849e-11 7.95975e-12 -4.03523e-11 -4.93195e-11 
-4.34834e-10 -8.73814e-10 -3.92595e-10 9.22898e-11 6.50121e-11 -1.23299e-11 2.844e-10 -1.5894e-11 8.05518e-11 
-1.36095e-10 -1.17389e-10 6.52159e-11 5.80749e-10 1.05016e-09 4.89272e-10 -3.76834e-11 2.28256e-11 -3.74991e-11 
7.28688e-12 -3.56166e-10 -1.04664e-10 1.09344e-10 8.13452e-11 3.90713e-11 -4.16764e-10 -2.65183e-10 -2.04584e-10 
-1.43635e-10 -2.30585e-11 -6.40513e-11 3.87478e-10 5.81021e-10 2.9055e-10 -1.71756e-10 4.1387e-11 -4.82848e-11 
9.77439e-11 1.75793e-11 3.4597e-11 -8.89743e-11 -3.03505e-11 -6.0701e-11 1.27237e-10 6.26969e-12 4.00521e-11 
1.39564e-10 -2.3374e-10 1.29375e-10 1.51223e-10 5.16111e-10 2.002e-10 7.17249e-11 -1.19448e-10 6.24225e-11 
-8.29782e-11 -3.50169e-10 -1.29944e-10 6.39584e-11 4.6117e-11 -8.64693e-11 -2.44552e-10 -4.446e-10 -2.06746e-10 
3.47743e-11 3.07446e-11 -2.56205e-12 -1.83301e-10 -3.70843e-10 -1.66243e-10 -2.10741e-11 -3.58687e-11 1.73366e-10 
-3.9328e-10 -2.5302e-10 -1.9389e-10 -1.26765e-13 4.63033e-10 6.52159e-11 -1.99004e-10 -2.20632e-10 -1.25891e-10 
-1.59414e-10 1.913e-10 1.73366e-10 3.44801e-10 5.79176e-10 2.77193e-10 5.51924e-11 -2.99586e-11 -1.66097e-11 
-4.9799e-11 3.72057e-10 9.66775e-11 5.13105e-11 1.07606e-10 2.39125e-11 -3.13336e-10 -3.4379e-10 -1.97138e-10 
9.44726e-11 2.15212e-10 -1.01628e-10 -8.77238e-11 1.99095e-11 -2.03443e-11 1.59e-12 3.58687e-11 -5.739e-11 
-2.9554e-11 3.29394e-10 8.99521e-11 1.26663e-10 -1.07606e-10 -1.38095e-10 1.44658e-11 -7.41136e-11 -1.78943e-11 
-5.38761e-11 -1.67814e-10 -1.95357e-11 2.78824e-10 1.52115e-11 8.82107e-11 -1.72747e-10 -1.90873e-10 9.4796e-11 
3.40857e-10 4.86556e-11 1.16854e-10 -5.66097e-13 1.07606e-10 -3.26079e-12 1.39774e-10 5.57475e-10 2.09175e-10 
2.89418e-10 3.58687e-10 1.10867e-10 1.88992e-10 1.39571e-10 9.8569e-11 -1.64693e-10 -1.49453e-11 1.19562e-11 
2.34669e-11 3.55303e-10 1.13631e-10 -3.84775e-11 1.74486e-10 -1.10222e-11 2.74587e-10 2.86797e-10 1.68415e-10 
-5.17166e-11 -7.97083e-12 8.76791e-11 5.30651e-11 2.31643e-10 8.54124e-11 1.71783e-10 9.77423e-11 1.60513e-10 
3.90821e-10 5.7147e-10 2.88687e-10 4.53793e-12 2.8695e-10 -9.68456e-11 -2.22354e-11 -1.65915e-10 -5.64452e-11 
7.09654e-11 -3.58687e-10 -1.53723e-10 -4.26985e-11 -2.08503e-10 -7.53604e-11 1.08728e-11 -8.19857e-11 -9.22339e-11 
2.36385e-10 4.1934e-10 1.96718e-10 -9.5587e-11 1.49453e-11 3.16841e-11 8.91898e-11 1.03978e-10 5.79504e-11 
-1.64637e-10 2.65877e-10 5.2458e-11 2.33938e-10 7.03045e-10 2.81095e-10 1.06089e-10 -2.87894e-11 2.89074e-11 
2.60965e-10 9.71218e-11 1.07426e-10 2.12201e-10 3.65093e-11 7.04565e-12 -6.13497e-11 -4.50312e-12 -1.97558e-11 
1.40327e-11 5.60449e-13 -8.01442e-11 2.16559e-10 2.57221e-10 1.42134e-10 -9.88291e-11 2.56205e-12 -9.22339e-11 
-3.07396e-10 -2.33438e-10 -1.6225e-10 2.29407e-12 2.30585e-11 -5.12411e-11 1.11022e-10 1.95624e-10 9.19937e-11 
3.82015e-11 3.84308e-11 1.02482e-11 -3.42674e-10 -6.96959e-10 -3.1189e-10 8.12164e-13 3.58687e-11 -7.47266e-11 
-3.28091e-10 -4.25013e-10 -2.25931e-10 -8.24546e-11 -4.48359e-11 -8.96719e-11 -5.68064e-12 4.6625e-10 1.38171e-10 
-7.07034e-11 1.28103e-12 2.88231e-11 1.60029e-10 2.60075e-10 1.26031e-10 1.52282e-10 3.73633e-12 1.94289e-11 
3.30164e-10 6.67611e-10 2.99332e-10 7.67251e-11 -3.81105e-11 3.58687e-11 3.98932e-10 3.75608e-10 2.32362e-10 
8.59351e-11 -1.21057e-11 4.10996e-11 -2.86566e-11 -2.063e-11 -1.4786e-11 -4.45049e-11 8.30783e-11 -1.7275e-11 
-2.93996e-10 -5.58634e-10 -2.55789e-10 -4.24702e-12 -5.26075e-11 -5.44009e-11 -1.7405e-10 -1.43194e-10 -9.51731e-11 
-9.07289e-11 5.19153e-12 -8.96719e-12 -3.85301e-10 -2.50409e-10 -1.90713e-10 -1.77927e-10 9.7358e-11 1.60128e-12 
-4.15303e-10 -8.1138e-10 -3.68005e-10 -1.06787e-10 1.502e-10 2.63411e-11 2.82153e-10 7.40667e-10 3.06846e-10 
9.77917e-11 -2.45091e-11 1.02697e-10 -4.40742e-10 -8.43887e-10 -3.85389e-10 -1.69111e-10 4.90005e-11 9.63209e-12 
-3.03792e-10 -3.76628e-10 -2.04126e-10 -1.48032e-10 5.60449e-11 6.83748e-11 -2.37144e-10 8.97024e-11 -4.42324e-11 
-1.50544e-10 -4.00074e-11 2.75913e-11 1.40353e-10 1.47878e-10 8.64693e-11 -1.56322e-11 2.04964e-11 2.56205e-12 
1.31945e-11 -3.90151e-11 -7.74621e-12 8.93144e-11 2.81826e-11 3.71498e-11 -3.77602e-11 -7.04766e-11 -3.2471e-11 
-5.49781e-11 4.48359e-11 -4.48359e-11 -6.2127e-10 -9.79413e-10 -4.80205e-10 -2.71233e-10 1.02482e-10 -5.89272e-11 
-2.23179e-10 -1.75114e-10 -1.19488e-10 -9.93261e-11 4.7825e-12 -3.826e-11 7.69377e-11 2.22903e-10 8.99521e-11 
1.24075e-10 -5.00093e-12 -5.31133e-11 -1.28039e-10 -1.988e-11 -4.43756e-11 -7.11692e-11 -3.58687e-11 -2.04964e-11 
-1.65043e-10 -2.14122e-10 -1.1375e-10 -1.96554e-10 2.00037e-11 -2.00037e-11 1.1292e-10 1.58897e-10 8.15453e-11 
-8.22645e-11 -3.51215e-11 6.09021e-11 -1.7162e-10 -9.95974e-11 -8.13652e-11 -3.46547e-10 -3.20257e-12 -1.6269e-10 
-7.02181e-11 1.67296e-10 2.91233e-11 4.37169e-11 7.55806e-11 9.6077e-11 6.48306e-10 8.70942e-10 4.55774e-10 
2.76163e-10 2.42804e-10 -2.48322e-11 4.48858e-10 3.32595e-10 2.34436e-10 4.212e-11 -6.21725e-11 4.7825e-11 
-2.99385e-10 -4.98236e-10 -2.39286e-10 1.53234e-10 -3.26079e-11 5.99171e-11 -2.91078e-10 -1.93201e-10 -1.45284e-10 
-1.17621e-10 -1.6304e-11 -3.26079e-12 2.63875e-11 3.34502e-10 1.08267e-10 3.71761e-11 1.1209e-10 3.18655e-11 
-7.32321e-11 -3.35429e-10 -1.22598e-10 3.42143e-11 8.96719e-11 -2.98906e-11 -3.09254e-10 -2.73613e-10 -1.7486e-10 
-2.02717e-10 -1.08353e-10 -2.53323e-10 2.21833e-10 3.11294e-10 1.59938e-10 9.84801e-11 1.15079e-10 -1.50948e-10 
5.41166e-11 1.68662e-10 6.68336e-11 -1.24102e-10 5.82867e-11 -8.90313e-11 1.02008e-10 1.22387e-10 6.73186e-11 
-1.42825e-10 8.62229e-11 7.17375e-11 -2.89635e-10 -3.84906e-10 -2.02362e-10 4.2561e-11 -2.75421e-11 4.8679e-11 
-2.32721e-10 -4.35147e-10 -2.00361e-10 -2.01531e-11 -9.04191e-11 7.06166e-11 3.34316e-10 1.52074e-10 1.45917e-10 
6.95217e-11 -5.02803e-11 -7.3659e-12 -2.42615e-11 -1.50879e-10 -5.25421e-11 -1.65772e-10 1.56926e-11 -4.48359e-12 
3.19489e-10 2.88799e-10 1.82486e-10 2.44468e-11 6.40513e-13 6.85349e-11 7.08729e-11 -8.23154e-11 -3.43275e-12 
1.05197e-10 1.50948e-10 8.14519e-11 -9.93026e-11 -4.73757e-10 -1.71918e-10 1.30146e-10 -5.81266e-11 5.22018e-11 
-2.51849e-10 -8.63678e-10 -3.34658e-10 -3.08954e-10 -2.82466e-10 2.98906e-11 -2.29704e-10 -9.39557e-11 -9.70978e-11 
9.11456e-11 1.44756e-10 4.51562e-11 -1.62894e-10 1.39542e-10 -7.00561e-12 -6.86206e-12 1.73366e-10 5.60449e-11 
1.5177e-11 7.84146e-12 6.90553e-12 1.00695e-10 -5.44436e-11 -3.90713e-11 2.91722e-10 4.434e-10 2.20537e-10 
8.40432e-12 7.47266e-11 1.49453e-12 1.46685e-10 6.91387e-10 2.51421e-10 -2.91998e-10 9.7358e-11 7.17375e-11 
-1.28267e-10 -1.20666e-10 -7.46798e-11 2.51906e-11 -1.43475e-10 2.98906e-11 3.30776e-10 4.43244e-10 2.32206e-10 
6.60224e-11 -5.8607e-11 2.8703e-11 1.73808e-10 4.03024e-10 1.73049e-10 1.16221e-10 9.65697e-12 -1.20022e-10 
7.20856e-11 2.61932e-11 2.94836e-11 1.65872e-10 2.88231e-11 2.69016e-11 2.3335e-10 -1.21026e-10 3.3697e-11 
-1.50169e-11 9.78918e-11 -2.57807e-11 -8.4479e-11 -4.0221e-11 -3.741e-11 4.56399e-11 6.40513e-12 1.88151e-11 
1.73431e-10 5.48614e-10 2.16614e-10 -4.86432e-11 -4.55832e-11 1.03123e-10 -1.43681e-11 1.06642e-10 2.76822e-11 
8.10529e-11 -9.63973e-11 -4.06726e-11 -1.19709e-10 -3.54337e-10 -1.42214e-10 -3.89837e-11 6.53857e-11 3.1572e-11 
-9.98938e-11 -2.75007e-10 -1.1247e-10 -7.53776e-11 6.75742e-11 1.23139e-10 -1.18302e-10 2.12177e-10 2.81626e-11 
-2.24256e-11 -3.73633e-13 6.87484e-11 3.34531e-10 5.83405e-10 2.75381e-10 -3.58857e-11 -7.68616e-12 6.40513e-12 
4.00783e-11 1.30859e-10 5.12811e-11 3.92276e-11 -9.71445e-12 -3.73633e-11 -1.39052e-10 -3.76561e-10 -1.54684e-10 
1.04276e-11 1.39632e-10 -2.72218e-11 -1.59625e-11 -3.12834e-10 -9.8639e-11 -9.05302e-11 1.09941e-10 6.98927e-11 
-4.0484e-10 -4.27027e-10 -2.4956e-10 -1.5182e-10 1.33907e-10 8.57087e-11 -5.41806e-10 -4.75876e-10 -3.05305e-10 
2.96338e-11 -5.97812e-12 1.67387e-10 -8.26854e-10 -1.73627e-09 -7.68936e-10 -8.58176e-11 2.2956e-10 -2.8695e-11 
-7.53608e-11 -3.75988e-10 -1.35405e-10 1.36265e-10 -6.33681e-11 -7.17375e-12 -1.0644e-11 3.67983e-11 7.84629e-12 
1.25391e-10 -2.39125e-11 -3.58687e-11 -2.95887e-10 -8.07575e-10 -3.31039e-10 -1.10182e-10 1.63402e-10 1.3949e-11 
-2.13942e-10 1.49724e-10 -1.92654e-11 -6.97349e-11 -3.28797e-11 -2.09234e-10 -4.29991e-10 -9.00375e-10 -3.9911e-10 
-8.3852e-11 1.04617e-10 2.98906e-12 -1.64791e-10 -5.12739e-12 -5.09754e-11 -2.23036e-10 2.28256e-11 7.66287e-11 
-2.80656e-10 -5.44478e-10 -2.4754e-10 1.46952e-10 -9.78238e-12 2.60864e-11 1.09602e-10 -1.81993e-10 -2.17174e-11 
3.05108e-11 -3.69896e-11 4.33414e-11 -4.43251e-10 -5.38002e-10 -2.94376e-10 -1.43041e-10 2.83961e-11 4.93195e-11 
1.28403e-10 4.91391e-11 5.32627e-11 1.7556e-10 -3.84308e-12 9.4796e-11 -2.61778e-10 -8.16286e-10 -3.23419e-10 
-1.555e-10 3.58687e-10 -4.6117e-11 -1.28886e-11 6.58199e-11 1.58794e-11 1.64745e-10 1.59417e-11 -8.76791e-11 
3.15608e-10 7.36168e-10 3.15533e-10 5.06462e-12 4.38396e-11 -1.99271e-12 -6.33305e-11 -2.22732e-10 -8.58188e-11 
1.32649e-10 -9.565e-11 1.55431e-10 2.45829e-10 5.26098e-11 8.95318e-11 -8.51998e-11 1.49453e-11 1.04617e-10 
-1.19554e-10 -2.29198e-10 -1.04626e-10 -6.97404e-11 -3.26079e-12 -4.72815e-11 -2.02621e-10 -1.33139e-10 -1.00728e-10 
-1.41728e-10 1.35323e-10 4.07599e-11 6.19812e-10 1.1372e-09 5.27102e-10 2.74746e-10 9.13023e-11 3.26079e-11 
2.88731e-10 4.48769e-10 2.2125e-10 1.59619e-11 -4.56511e-11 2.60864e-11 2.05712e-10 1.64465e-10 1.11053e-10 
-1.29257e-10 -1.00432e-10 7.17375e-11 1.7477e-11 -3.83312e-13 5.12811e-12 -9.88871e-12 -9.30346e-11 2.26421e-11 
4.61166e-10 5.47897e-10 3.02719e-10 2.8803e-10 1.95648e-11 -6.84767e-11 2.8165e-10 4.86675e-10 2.30497e-10 
3.14746e-10 -1.6304e-11 4.89119e-12 1.42951e-10 2.80422e-10 1.27012e-10 1.80325e-10 6.72539e-11 1.1209e-10 
1.55473e-10 8.72012e-11 7.28023e-11 4.02496e-11 4.30425e-11 2.33147e-10 -1.16932e-10 -4.68435e-11 -4.91327e-11 
1.9446e-10 4.38396e-11 5.97812e-11 2.08017e-10 2.46259e-10 1.36283e-10 -2.55081e-11 -7.17375e-11 1.7486e-10 
-5.62899e-10 -6.27744e-10 -3.57193e-10 -1.46353e-11 -1.99271e-11 -1.03621e-10 7.71442e-11 -6.5752e-10 -1.74113e-10 
3.79129e-11 -2.09234e-11 1.11592e-10 -9.45283e-10 -9.60555e-10 -5.71752e-10 -1.6097e-10 1.99271e-11 8.36937e-11 
-6.09182e-11 -9.25826e-11 -4.60502e-11 6.20644e-11 1.59417e-11 5.18104e-11 1.00141e-09 8.11643e-10 5.43916e-10 
2.92554e-10 -4.98177e-11 1.05614e-10 3.23834e-10 6.57574e-10 2.94423e-10 -3.62947e-11 1.99271e-11 -1.19562e-11 
1.17866e-10 4.92089e-10 1.82987e-10 6.13452e-11 3.98542e-12 -1.99271e-11 -8.56992e-11 1.20572e-10 1.04617e-11 
5.46406e-11 -2.39125e-11 -2.78979e-11 1.69007e-10 6.5358e-10 2.46776e-10 6.59465e-11 1.30432e-11 6.84767e-11 
2.41537e-10 4.48282e-10 2.06946e-10 1.88329e-10 1.61409e-10 5.97812e-11 1.97454e-10 2.17045e-10 1.2435e-10 
-4.88767e-11 1.16573e-10 -3.28797e-11 -3.69347e-10 -7.05594e-10 -3.22482e-10 -4.65949e-11 3.05557e-10 1.27782e-10 
6.55051e-10 1.07985e-09 5.2047e-10 -6.82665e-11 -1.23548e-10 5.18104e-11 -1.73804e-10 3.07689e-10 4.01655e-11 
1.22779e-10 -4.68286e-11 -1.14581e-11 -4.00829e-11 -4.28203e-10 -1.40486e-10 -9.44983e-11 1.43475e-10 -4.82522e-25 
-3.02811e-10 -5.27587e-10 -2.4912e-10 -1.52156e-10 1.23548e-10 -5.18104e-11 -1.5107e-10 -2.78297e-10 -1.2881e-10 
1.20046e-10 1.59417e-10 -3.18833e-11 -9.7721e-11 -2.07724e-10 -9.16334e-11 -1.20049e-10 9.68954e-11 7.50068e-11 
6.24144e-10 8.51394e-10 4.42661e-10 3.91605e-10 -1.17788e-10 -1.02453e-10 6.45791e-11 4.62866e-10 1.58233e-10 
9.79216e-11 3.98542e-12 -1.11592e-10 3.18604e-10 -1.27117e-10 5.7446e-11 1.79431e-11 -3.83285e-11 -6.5666e-11 
9.37014e-11 -6.52048e-12 2.61543e-11 -7.72853e-12 2.39125e-11 -6.77521e-11 -4.89919e-11 1.7403e-11 -9.47669e-12 
8.98875e-14 7.17375e-11 -5.54335e-11 3.01397e-10 2.89176e-10 1.77172e-10 1.59621e-10 1.86816e-12 5.60449e-12 
2.6627e-10 7.4434e-10 3.03183e-10 -3.8622e-11 3.68936e-10 6.53324e-11 2.03764e-10 -5.10416e-11 4.58167e-11 
2.32109e-10 3.58687e-11 -1.53723e-11 5.1922e-10 6.0343e-10 3.36795e-10 4.18408e-10 1.07606e-10 4.93195e-11 
-2.67125e-10 -3.44325e-10 -1.83435e-10 -1.96504e-10 1.29127e-10 3.22819e-11 -6.25206e-11 -2.48529e-10 -9.33148e-11 
-7.20865e-13 -1.70377e-11 2.48839e-11 3.40019e-10 3.54658e-10 2.08403e-10 6.91297e-13 -1.82706e-10 9.70698e-11 
3.88553e-10 -2.99115e-10 2.68315e-11 2.08327e-10 -8.07047e-11 7.47266e-12 -3.69529e-10 -7.2288e-10 -3.27723e-10 
-2.88209e-10 -8.36937e-11 -5.67922e-11 -2.75159e-10 -1.91815e-10 -1.40092e-10 -9.05383e-11 -7.42995e-11 -1.2426e-10 
-1.38614e-10 -1.35205e-10 -8.21458e-11 -7.25129e-11 -2.56205e-11 3.84308e-11 -5.47294e-11 -1.933e-11 -2.22178e-11 
-6.6155e-11 1.51161e-10 2.08807e-10 3.6812e-10 4.75823e-10 2.53183e-10 -2.19252e-10 8.96719e-12 -2.98906e-11 
-9.38817e-11 1.19102e-10 7.56606e-12 -1.37143e-10 -7.17375e-11 -1.15577e-10 1.16339e-10 1.20918e-10 7.1177e-11 
1.92251e-10 5.57958e-11 1.99271e-10 -2.67169e-11 3.06241e-10 8.38572e-11 -2.00286e-11 5.97812e-12 -4.7825e-11 
1.33091e-10 7.04542e-11 6.10635e-11 1.39689e-11 -3.70915e-11 -4.40207e-11 4.7518e-10 4.18456e-10 2.68091e-10 
1.94284e-11 -3.08247e-11 -7.9808e-11 -3.36062e-10 -3.13499e-10 -1.94868e-10 4.87663e-11 -2.8695e-11 7.89112e-11 
3.62953e-10 4.87809e-10 2.55229e-10 -3.68067e-11 -5.15613e-11 1.19712e-10 1.56974e-10 7.22931e-10 2.63972e-10 
-7.9659e-11 -3.67655e-11 -2.15212e-11 -6.34928e-11 2.13973e-10 4.51442e-11 -2.15194e-10 2.8695e-11 3.58687e-12 
1.323e-10 4.62477e-10 1.78433e-10 1.71408e-11 -7.77156e-11 3.28797e-11 3.70698e-10 4.73339e-10 2.53211e-10 
9.26033e-11 5.38031e-12 2.2418e-12 -1.46551e-10 1.73733e-10 8.15453e-12 -1.34334e-10 7.17375e-12 2.2956e-10 
-1.4079e-11 -4.701e-11 -1.83267e-11 -1.9182e-11 -3.58687e-11 1.32714e-10 -2.14758e-10 -2.30565e-10 -1.33597e-10 
2.33575e-11 -8.54218e-11 9.26142e-11 -6.45398e-11 4.37705e-10 1.1195e-10 -1.69228e-10 -1.21057e-10 3.28797e-11 
2.20525e-10 4.62398e-10 2.04877e-10 3.88512e-12 2.8273e-10 1.05496e-11 5.85753e-10 1.13506e-09 5.16244e-10 
3.92937e-10 5.97812e-12 7.17375e-11 -3.20956e-10 -7.93476e-10 -3.34329e-10 -2.95827e-10 -5.51827e-12 1.44855e-11 
7.43714e-11 3.95866e-11 3.41874e-11 -1.95459e-10 -1.19562e-11 -5.67922e-11 -1.56366e-11 -3.80881e-10 -1.18955e-10 
-2.69599e-11 -2.2956e-10 -1.07606e-10 3.39373e-10 8.46678e-10 3.55815e-10 1.39837e-10 5.1935e-11 4.46491e-11 
2.29032e-10 1.74772e-10 1.21141e-10 1.19703e-10 7.17375e-12 -7.44276e-11 6.25022e-11 3.59936e-10 1.26732e-10 
7.71078e-11 3.58687e-11 -8.36937e-11 1.67039e-10 -2.90898e-10 -3.71578e-11 -7.48571e-11 -6.45637e-11 -9.32587e-11 
1.21335e-10 3.55514e-10 1.43055e-10 5.9504e-11 3.88578e-11 -2.39125e-11 2.19787e-10 -1.01532e-10 3.54764e-11 
1.27077e-10 -2.8695e-11 4.39392e-11 2.93677e-10 4.0595e-10 2.09888e-10 6.12239e-11 -3.81105e-11 -4.48359e-11 
-1.6015e-10 2.35344e-10 2.25581e-11 -1.28328e-10 -9.26609e-11 -3.28797e-11 -9.6681e-11 7.07602e-11 -7.77623e-12 
-4.47761e-11 -2.09234e-11 -1.01628e-10 8.09562e-11 2.47907e-10 9.86591e-11 -1.85419e-11 -3.84308e-11 -3.84308e-11 
-3.22887e-11 -4.16071e-10 -1.34508e-10 -1.24741e-10 -8.2774e-12 4.1387e-12 -1.18859e-10 1.32871e-10 4.20337e-12 
-6.6515e-11 -1.22781e-10 -9.10514e-11 1.80592e-10 3.75498e-10 1.66827e-10 3.04763e-11 6.77521e-11 7.97083e-11 
2.26441e-10 1.20103e-10 1.03963e-10 1.34432e-10 -3.58687e-11 1.35504e-10 4.28664e-10 5.36554e-10 2.89565e-10 
1.441e-10 -6.37667e-11 4.38396e-11 -4.73624e-10 -8.41875e-10 -3.9465e-10 3.54785e-11 -7.97083e-12 1.59417e-11 
-2.96928e-10 -4.0955e-10 -2.11943e-10 -1.15291e-10 -5.18104e-11 9.16646e-11 -8.68861e-11 -1.55975e-10 -7.28584e-11 
1.54849e-10 5.18104e-11 1.55431e-10 2.6823e-11 4.24961e-10 1.35535e-10 6.1858e-11 1.3949e-11 7.37302e-11 
1.55685e-10 -4.32842e-11 3.37204e-11 -5.70469e-11 -1.63402e-10 9.16646e-11 -6.53164e-12 1.40105e-10 4.00721e-11 
4.93231e-11 1.11592e-10 -1.59417e-11 3.7909e-10 7.18768e-10 3.29357e-10 1.68324e-10 5.57958e-11 2.39125e-11 
-4.2179e-10 -3.46026e-10 -2.30345e-10 -2.51248e-10 -4.30425e-11 -3.22819e-11 1.33313e-10 2.60238e-13 4.00721e-11 
2.6285e-11 1.49453e-10 8.96719e-11 -5.38381e-10 -9.33732e-10 -4.41634e-10 -6.62261e-11 7.97083e-11 1.51446e-10 
5.66659e-10 1.11718e-09 5.05151e-10 -2.88807e-11 5.97812e-11 1.99271e-11 -2.19784e-10 -6.5763e-10 -2.63224e-10 
-1.45664e-11 1.43475e-10 -2.39125e-11 -3.00259e-10 -3.18414e-10 -1.85602e-10 1.81852e-10 1.75358e-10 -7.97083e-12 
-2.33088e-10 -2.53569e-10 -1.45997e-10 5.50131e-11 6.37667e-11 -4.7825e-11 -3.49737e-11 2.87799e-10 7.58474e-11 
-1.79158e-12 1.75358e-10 2.19198e-11 -5.38785e-11 6.7267e-11 4.01655e-12 -1.27549e-10 -3.98542e-11 4.58323e-11 
4.35987e-10 2.51186e-10 2.06152e-10 2.2193e-10 3.58687e-11 -7.97083e-11 -1.04547e-10 -1.85329e-10 -8.6963e-11 
2.1413e-10 -7.97083e-12 -1.99271e-11 -2.15849e-10 -3.2405e-10 -1.6197e-10 -1.6046e-10 3.18833e-11 -1.3949e-11 
6.22399e-10 6.26562e-10 3.74688e-10 1.14927e-10 -2.15212e-11 -7.17375e-12 3.59481e-10 1.67809e-10 1.58187e-10 
2.64955e-10 7.43529e-11 4.33414e-11 1.72162e-10 -4.08671e-10 -7.09529e-11 8.31024e-11 -1.00432e-10 1.07606e-10 
-1.9752e-10 -5.41222e-10 -2.21623e-10 -9.93244e-11 6.72539e-11 4.03523e-11 4.87819e-10 2.37028e-10 2.17454e-10 
-4.56767e-11 1.17758e-25 1.43475e-10 -2.4977e-10 -5.69201e-11 -9.20071e-11 4.54295e-11 3.98542e-11 -1.43475e-10 
1.08567e-10 1.70022e-10 8.3577e-11 -7.30024e-12 -2.51455e-10 -1.17694e-11 -2.08618e-10 -3.38053e-10 -1.64001e-10 
-1.41215e-10 -1.13584e-10 -1.04617e-10 4.90404e-10 5.88227e-10 3.23589e-10 5.62642e-11 2.39125e-11 -1.37497e-10 
-1.75776e-10 -2.59039e-10 -1.30445e-10 -2.08452e-10 1.68882e-10 -3.21324e-11 9.73071e-11 1.79555e-10 8.30586e-11 
-3.8708e-11 1.04019e-10 1.90104e-10 -3.82817e-10 -2.03362e-10 -1.75854e-10 8.36027e-13 6.19551e-11 -6.84767e-11 
3.36508e-10 1.32468e-10 1.40693e-10 2.2529e-11 -1.33227e-10 1.1273e-10 8.03842e-11 3.06014e-10 1.1592e-10 
-7.61314e-11 7.17375e-11 -1.59417e-11 -7.04731e-11 7.04731e-11 8.93958e-25 -3.31915e-11 5.67922e-11 1.67387e-10 
2.32711e-10 2.05062e-10 1.31332e-10 3.54931e-12 1.59417e-11 2.39125e-11 3.37166e-10 3.67799e-10 2.11489e-10 
-8.50189e-11 -1.85749e-11 1.28103e-12 4.16835e-10 4.14809e-10 2.49493e-10 -4.16114e-11 -4.7825e-11 1.19562e-10 
-4.90468e-10 -4.56924e-10 -2.84218e-10 -3.85143e-11 -3.10862e-10 -1.913e-10 3.37876e-11 2.05337e-10 7.17375e-11 
-6.25886e-11 8.76791e-11 -2.39125e-11 -1.90313e-10 4.69316e-11 -4.30145e-11 1.17472e-10 1.13584e-10 4.48056e-25 
-3.26079e-10 -1.56842e-10 -1.44876e-10 2.56754e-12 -4.38396e-10 -8.76791e-11 -7.42398e-10 -7.08932e-10 -4.35399e-10 
-1.58309e-10 -4.39392e-10 1.13584e-10 9.63932e-11 -6.20158e-10 -1.5713e-10 -1.70002e-10 -4.23903e-10 -5.21727e-11 
3.86878e-11 2.06909e-10 7.3679e-11 -7.20113e-11 -1.8703e-10 -1.6205e-10 1.36529e-10 4.67849e-11 5.49941e-11 
2.9107e-10 -1.81212e-10 -7.90233e-11 -1.0074e-10 -1.56834e-10 -7.72719e-11 7.80476e-11 -1.31519e-10 4.7825e-11 
-1.47739e-10 -6.49773e-11 -6.38148e-11 1.1072e-10 -2.21734e-10 -1.43475e-10 2.25097e-11 -3.26353e-10 -9.1153e-11 
5.30932e-11 9.7358e-11 3.33067e-11 -1.48949e-10 1.47524e-11 -4.02589e-11 -1.82398e-10 1.35504e-10 8.76791e-11 
1.89833e-10 1.3943e-10 9.87792e-11 5.32879e-12 -8.96719e-12 8.66828e-11 -1.59768e-10 -4.73539e-10 -1.89992e-10 
-1.45782e-10 2.78979e-10 -1.3949e-10 -2.11335e-10 1.94521e-10 -5.04404e-12 -1.01451e-10 5.12411e-12 1.8703e-10 
2.88691e-10 1.45969e-10 1.30398e-10 3.60533e-11 7.97083e-12 1.43475e-10 6.8026e-11 9.37036e-11 4.85189e-11 
1.61587e-10 -3.52282e-11 9.15934e-11 1.6274e-10 2.53238e-10 1.24793e-10 3.61493e-11 -7.57229e-11 -2.78979e-11 
-2.26995e-10 -6.58398e-11 -8.78504e-11 -9.22736e-11 -1.04617e-10 -2.39125e-11 2.36578e-10 3.59989e-10 1.7897e-10 
4.63189e-11 -1.11592e-10 -5.97812e-11 -2.94149e-10 -3.15106e-10 -1.82776e-10 1.55666e-10 8.36937e-11 -2.98906e-12 
-1.8504e-10 1.85295e-10 7.64249e-14 1.84488e-10 1.59779e-10 1.2391e-10 1.27202e-10 2.60109e-10 1.16193e-10 
-9.02644e-11 -3.84308e-11 -4.8679e-11 -7.29185e-11 2.18235e-10 4.35949e-11 5.11815e-11 -2.10088e-10 -3.45877e-11 
4.516e-12 7.50678e-11 2.38751e-11 5.19217e-11 8.01069e-11 1.64099e-10 -4.08906e-10 -5.28121e-10 -2.81108e-10 
-6.36754e-11 3.20749e-10 1.5865e-11 -2.60474e-10 -1.10916e-10 -1.11417e-10 -2.07165e-10 -4.66294e-11 -7.89112e-11 
2.21597e-10 5.77977e-10 2.39872e-10 -1.18659e-10 -1.48257e-10 5.739e-11 -7.83899e-11 1.69663e-10 2.73819e-11 
1.09391e-10 -7.68616e-11 1.53723e-11 1.35338e-10 -2.13801e-10 -2.35389e-11 2.26154e-10 5.12411e-11 -3.58687e-11 
-3.57803e-10 -2.695e-10 -1.88191e-10 -8.89547e-11 -7.17375e-11 3.58687e-11 2.44127e-10 3.05813e-10 1.64982e-10 
2.29878e-10 4.22205e-10 1.45717e-10 -3.05448e-10 -1.86473e-10 -1.47576e-10 1.77554e-11 3.58687e-11 1.43475e-10 
-5.56178e-10 -1.62921e-10 -2.1573e-10 -5.00709e-11 3.86279e-11 4.96644e-11 -1.60847e-10 1.47855e-10 -3.89767e-12 
-2.67963e-11 -6.92919e-11 -1.79344e-11 -3.21995e-10 -1.66458e-10 -1.46536e-10 -9.31491e-11 -1.02088e-10 -1.00708e-10 
-4.76642e-10 -3.9421e-10 -2.61256e-10 -2.40944e-10 8.00149e-11 -9.31208e-11 -1.44312e-10 -6.2609e-10 -2.31121e-10 
-8.02278e-11 -3.43512e-10 6.82886e-11 2.39664e-10 -8.3169e-11 4.69484e-11 -1.8406e-10 -2.75913e-10 -1.71066e-10 
2.83337e-10 1.78524e-10 1.38558e-10 -4.59407e-11 -2.38038e-10 -1.90757e-10 -9.78241e-11 9.86863e-11 2.58669e-13 
1.87282e-10 -1.54512e-10 -5.51827e-12 -7.60868e-12 1.72432e-10 4.94469e-11 -2.9829e-11 2.15212e-10 9.78238e-11 
2.44509e-10 8.56462e-11 9.90466e-11 1.21874e-10 -4.89119e-12 1.41029e-10 -1.55676e-10 3.51795e-11 -3.6149e-11 
-6.19406e-11 -1.87621e-10 -3.86279e-11 3.85246e-10 5.57386e-10 2.8279e-10 8.3343e-11 -3.31096e-11 -1.37957e-10 
3.40852e-10 6.542e-10 2.98516e-10 1.37606e-10 -8.47807e-11 -1.45105e-10 -1.74919e-10 -3.53704e-10 -1.58587e-10 
-1.00485e-10 -5.06005e-11 -3.45877e-11 3.3015e-10 6.4283e-10 2.91894e-10 1.41279e-10 -2.65172e-10 3.07446e-11 
6.65124e-10 9.29121e-10 4.78273e-10 1.44071e-11 2.45103e-10 -4.48359e-11 2.84362e-10 2.0463e-10 1.46698e-10 
-1.73322e-11 -1.93542e-10 8.21992e-12 -1.84567e-10 -3.73781e-10 -1.67504e-10 -2.22496e-10 1.07606e-10 -8.96719e-11 
1.18108e-10 5.77333e-11 5.27523e-11 3.32366e-11 -8.96719e-11 -7.17375e-11 -3.38525e-10 -3.91588e-10 -2.19034e-10 
3.50679e-12 4.94214e-11 -1.44698e-11 8.33335e-11 3.21209e-10 1.21363e-10 -3.41018e-10 -1.56518e-10 -2.60864e-11 
2.32556e-10 4.76921e-10 2.12843e-10 1.63847e-10 -2.28256e-11 -3.42383e-11 2.14957e-10 3.7275e-10 1.76312e-10 
-2.98953e-11 7.33679e-12 1.87496e-11 -5.47188e-10 -2.66228e-10 -2.44025e-10 -1.12642e-10 1.30432e-11 3.91295e-11 
5.43614e-10 8.97171e-10 4.32236e-10 2.56346e-10 1.68307e-10 8.69127e-11 -1.55345e-10 4.30397e-11 -3.36916e-11 
1.77421e-11 -6.34601e-11 -4.41461e-11 -9.47511e-11 -1.08412e-10 -6.09488e-11 -1.74026e-11 -5.82867e-11 -1.72939e-11 
7.72783e-11 2.09485e-10 8.60289e-11 1.27611e-12 -1.73366e-10 -1.44222e-10 -9.91752e-11 2.89189e-11 -2.10769e-11 
-2.67708e-11 2.36349e-10 -1.44756e-10 1.49966e-10 5.35056e-10 2.05507e-10 6.6793e-11 -4.23903e-11 -1.6304e-10 
4.05415e-10 6.85359e-10 3.27232e-10 -6.6002e-11 1.36002e-10 -7.47266e-11 -5.97999e-10 -1.54692e-09 -6.43476e-10 
-2.71065e-10 2.35709e-10 -9.22339e-11 -3.19141e-11 -1.20726e-10 -4.5792e-11 -3.65226e-11 -6.75176e-11 -1.16046e-11 
-1.94668e-10 -2.4027e-10 -1.30481e-10 1.37184e-11 1.77456e-10 4.62518e-11 -1.36008e-10 -1.69436e-10 -9.16334e-11 
-5.73568e-11 1.60513e-10 2.03555e-10 3.32231e-10 -1.79121e-11 9.42956e-11 -3.73391e-11 3.21324e-11 2.77609e-10 
2.20202e-10 1.66508e-10 1.16013e-10 -3.01882e-11 1.42728e-10 1.00881e-10 -7.1753e-11 -1.96562e-10 -8.04945e-11 
4.7609e-11 -4.7825e-11 -7.3232e-11 -2.002e-10 -3.46238e-10 -1.63931e-10 7.99053e-11 -1.07606e-10 1.79344e-11 
3.96082e-11 1.16617e-10 4.68676e-11 -1.04793e-11 2.30158e-10 5.52976e-11 -1.65545e-11 -2.82767e-12 -5.81466e-12 
-4.27702e-11 -7.17375e-11 1.43475e-10 1.51745e-10 1.56969e-10 9.26142e-11 3.50703e-11 9.8639e-11 -1.64398e-11 
7.1337e-11 -1.40693e-10 -2.08067e-11 -2.98565e-11 -4.48359e-11 9.71445e-11 3.46996e-10 2.43811e-10 1.77242e-10 
7.36944e-13 1.22552e-10 -8.51883e-11 1.39044e-10 1.78816e-11 4.70777e-11 7.4411e-11 -8.36937e-11 -2.98906e-12 
3.82752e-11 2.31406e-11 1.84248e-11 1.01264e-10 3.42061e-10 1.34134e-10 5.79098e-10 6.77709e-10 3.77042e-10 
1.87644e-11 -3.58687e-11 7.77156e-11 3.06411e-10 1.87484e-10 1.48169e-10 5.89286e-11 2.39125e-11 1.94289e-10 
-1.16084e-10 1.98283e-10 2.46598e-11 9.72442e-11 -3.88578e-11 -1.40486e-10 -3.19901e-10 -2.10388e-11 -1.02282e-10 
-1.56887e-12 -9.154e-12 7.34188e-11 -2.14082e-10 -2.36422e-11 -7.13172e-11 -1.68314e-11 -2.09234e-11 -1.06112e-10 
2.90384e-10 2.70299e-10 1.68205e-10 3.49934e-11 -4.50227e-11 -9.46225e-11 2.94317e-10 2.81778e-10 1.72829e-10 
1.22725e-10 -5.38031e-11 -2.98906e-10 6.23319e-11 6.04999e-11 3.68495e-11 -5.38479e-11 7.77156e-11 9.71445e-11 
-2.37037e-11 1.96976e-10 5.19817e-11 2.22643e-11 -1.07606e-10 -2.39125e-10 -6.00343e-11 -2.73023e-11 -2.6201e-11 
1.16478e-10 2.20537e-10 5.36397e-11 2.13948e-10 -2.92644e-10 -2.36089e-11 3.23228e-11 6.87484e-11 -7.3232e-11 
3.5761e-10 4.42198e-10 2.39942e-10 9.08271e-11 -1.60288e-10 -3.11983e-11 -3.49861e-10 -4.9128e-10 -2.52342e-10 
-2.73882e-10 2.16707e-11 -2.52576e-10 1.15913e-10 3.90173e-10 1.51826e-10 -1.69164e-10 1.07158e-10 4.93195e-11 
-2.79008e-10 -1.89807e-10 -1.40645e-10 -1.04945e-10 1.07606e-10 -1.79344e-11 2.28785e-10 6.21977e-10 2.55229e-10 
-2.57233e-11 3.69448e-10 3.58687e-11 -4.5217e-10 -4.41346e-10 -2.68055e-10 -2.99981e-10 -1.17854e-10 -3.58687e-11 
-2.71207e-10 -4.52173e-10 -2.17014e-10 -7.33735e-11 8.00642e-11 4.38752e-11 -1.83001e-10 -3.53953e-10 -1.61086e-10 
-4.39684e-11 2.34526e-10 1.02088e-10 8.0046e-11 -3.55397e-11 1.33519e-11 -2.25114e-11 1.58244e-12 -3.16489e-12 
-3.70033e-11 -1.02362e-10 -4.18095e-11 -4.15099e-11 8.6085e-11 -1.02824e-10 -2.77736e-11 -8.75496e-11 -3.4597e-11 
-9.94386e-12 -3.24198e-11 6.20805e-11 -3.06292e-10 -3.89527e-10 -2.08746e-10 5.29265e-11 6.62192e-11 -4.82848e-11 
-1.18702e-10 1.26246e-10 2.26335e-12 -2.4438e-11 7.44966e-11 1.15884e-10 1.41164e-10 4.67732e-11 5.63812e-11 
-9.92557e-11 -1.43475e-11 -8.01069e-11 -7.91383e-11 -4.2666e-11 -3.65413e-11 -8.99747e-11 -1.26736e-10 -7.47266e-11 
4.58819e-11 -1.02114e-10 -1.68695e-11 2.06664e-11 1.3391e-10 -5.739e-11 7.32618e-11 1.29612e-11 2.58669e-11 
-1.46913e-10 -6.62192e-11 -1.53304e-10 -3.18449e-10 -2.78861e-10 -1.79193e-10 -4.71118e-11 1.46234e-10 -3.31096e-11 
-1.87443e-10 -4.1093e-10 -1.79512e-10 -1.11215e-10 -8.6085e-11 -4.7825e-12 -1.52744e-11 -2.55035e-10 -8.10927e-11 
-1.31037e-10 1.9107e-10 1.06227e-10 -2.0888e-10 -1.22863e-10 -9.95228e-11 -8.86807e-12 2.75913e-11 -1.65548e-11 
-7.12516e-11 1.70451e-10 2.97598e-11 6.30492e-11 -4.06512e-11 -9.08675e-11 5.84993e-11 9.93605e-11 4.7358e-11 
-2.52442e-12 -1.05215e-10 5.85856e-11 4.20102e-10 5.83849e-10 3.01185e-10 2.06527e-10 -1.90104e-10 -1.39888e-10 
-9.10114e-11 -2.29091e-10 -9.60308e-11 1.23303e-10 -1.62789e-10 1.55891e-10 2.65501e-10 -2.55154e-10 3.10403e-12 
-8.93032e-12 -5.79418e-11 -3.44892e-11 2.77882e-10 -4.52956e-11 6.97759e-11 3.54756e-11 -1.0118e-10 -5.74647e-11 
-3.6972e-10 -1.57662e-10 -1.58215e-10 -8.98404e-11 3.22819e-11 1.04019e-10 2.89914e-10 5.05277e-10 2.38557e-10 
1.25871e-10 -9.65697e-11 -2.20731e-11 -1.4934e-10 7.34928e-11 -2.27542e-11 1.0943e-10 -1.913e-11 8.13025e-11 
2.90554e-10 6.17934e-10 2.72546e-10 2.12804e-10 1.74561e-10 1.1478e-10 2.48495e-10 3.45366e-10 1.78158e-10 
-3.99371e-11 -1.2692e-10 -4.69053e-11 -2.71012e-10 -2.82031e-10 -1.65913e-10 -8.76715e-11 6.66134e-11 6.91754e-11 
1.51159e-10 6.79053e-10 2.49064e-10 3.55843e-11 -1.55431e-10 -1.18965e-10 4.39119e-10 2.5397e-10 2.07927e-10 
-3.41414e-11 8.07047e-11 8.66828e-11 1.23948e-10 -2.93251e-10 -5.07907e-11 9.07242e-11 2.98906e-11 -1.55431e-10 
4.63893e-11 -1.21349e-10 -2.2488e-11 1.59776e-10 -1.19562e-11 -8.96719e-12 -4.54166e-10 -3.74832e-10 -2.48699e-10 
-3.82813e-11 -4.18469e-11 -2.98906e-12 -3.36936e-11 -4.97332e-10 -1.59308e-10 3.08113e-10 1.22552e-10 -1.04617e-10 
-3.11525e-10 -1.26009e-11 -9.72379e-11 5.42996e-11 1.35504e-10 2.21191e-10 1.93691e-10 -9.58843e-13 5.78197e-11 
-6.3241e-11 6.81506e-10 -2.8695e-10 -1.14759e-10 -4.24214e-11 -4.71542e-11 -1.67095e-10 -1.14128e-10 -6.52159e-12 
-1.24882e-10 -3.07696e-11 -4.66956e-11 8.29671e-11 -1.10867e-10 8.47807e-11 -1.03391e-11 4.11638e-11 9.24741e-12 
1.24547e-10 -6.62192e-11 -1.43475e-10 1.18378e-10 3.01527e-10 1.25972e-10 -1.8683e-11 -2.79362e-10 -1.9176e-10 
3.60272e-10 1.09231e-10 1.40851e-10 -7.75407e-11 -1.16319e-10 -2.83791e-11 6.0321e-10 7.76769e-10 4.13994e-10 
4.29782e-11 -2.56074e-10 -3.07738e-11 -1.44613e-10 -2.94814e-10 -1.31828e-10 1.20821e-10 -5.82867e-11 -4.48359e-11 
1.85301e-10 4.26098e-10 1.8342e-10 -1.47106e-10 -3.91295e-11 -1.6304e-11 2.25065e-10 2.16989e-10 1.32616e-10 
4.01931e-11 -4.03523e-11 -7.17375e-11 7.68162e-11 2.50846e-10 9.82988e-11 9.14938e-11 -7.42995e-11 7.68616e-12 
4.43747e-10 6.26477e-10 3.21067e-10 -7.38001e-11 -5.82867e-11 5.23086e-11 2.93983e-10 5.58367e-10 2.55705e-10 
7.43862e-11 1.55431e-10 -3.28797e-11 -1.62179e-10 -9.32924e-11 -7.66414e-11 -9.17253e-11 -1.01628e-10 9.565e-11 
-1.93486e-10 -3.74369e-10 -1.70357e-10 1.46679e-11 7.68616e-11 3.33067e-11 -5.08092e-10 -5.40415e-10 -3.14552e-10 
-7.52051e-11 -4.18469e-11 1.22552e-10 4.3066e-10 -3.47022e-11 1.18787e-10 1.53744e-10 3.58687e-11 1.23747e-10 
-1.40305e-10 -4.51101e-11 -5.56246e-11 -3.61815e-11 6.27703e-11 1.19562e-10 -7.25727e-11 4.31796e-12 -2.04764e-11 
5.10974e-11 -1.02482e-11 2.56205e-12 2.55214e-10 2.68105e-10 1.56996e-10 1.02005e-11 5.97812e-12 5.67922e-11 
2.25662e-10 3.42353e-10 1.70405e-10 7.64551e-11 -6.45637e-11 -4.66294e-11 2.76115e-10 4.2865e-10 2.11429e-10 
6.95579e-11 -5.02162e-11 7.17375e-12 2.87008e-11 3.2218e-10 1.05264e-10 -1.50311e-11 -1.53723e-11 -2.30585e-11 
-5.8456e-11 8.48438e-11 7.91634e-12 1.24309e-11 -1.49453e-10 1.19562e-11 1.97994e-10 3.51246e-10 1.64772e-10 
1.20986e-10 -6.81506e-11 2.33147e-11 -2.33066e-10 -2.84789e-10 -1.55356e-10 -1.57326e-10 5.02162e-11 2.15212e-11 
3.53828e-10 6.70794e-10 3.07386e-10 6.21492e-11 -8.71098e-11 -8.45478e-11 -3.80199e-11 -1.83591e-10 -6.64833e-11 
-1.35019e-10 1.19562e-10 1.79344e-11 9.12364e-11 3.44513e-10 1.30725e-10 9.84248e-11 1.91449e-10 1.05364e-11 
-2.61567e-11 3.39074e-10 9.38752e-11 -3.01304e-11 1.07606e-10 1.19562e-10 -2.75778e-10 -8.02887e-10 -3.23599e-10 
-8.87607e-11 -9.4796e-11 -2.30585e-11 2.78159e-10 3.05643e-10 1.7514e-10 1.25458e-10 2.98906e-11 6.57594e-11 
1.06308e-10 -2.54428e-11 2.42594e-11 -5.88274e-11 -1.53723e-11 -1.1273e-10 -1.54759e-10 -1.29669e-10 -8.53284e-11 
-2.0024e-10 1.43475e-10 1.43475e-10 2.28019e-10 -3.4864e-11 5.79464e-11 9.83663e-11 -5.12411e-12 1.05685e-10 
8.89129e-11 -1.04125e-10 -4.56366e-12 6.25865e-11 -6.40513e-12 4.6117e-11 -5.84266e-10 -1.28819e-09 -5.61738e-10 
7.16614e-11 1.7486e-11 -2.28663e-11 2.94213e-12 3.41098e-11 1.11156e-11 5.36984e-11 -9.81409e-11 -6.4763e-11 
-6.88683e-10 -1.50921e-09 -6.59368e-10 -1.11709e-10 -2.8147e-10 2.59052e-11 3.13215e-10 4.24943e-10 2.21447e-10 
-3.79663e-11 -2.2418e-11 -2.31652e-11 -4.49849e-10 -1.22356e-09 -5.02022e-10 -1.90154e-10 2.95917e-10 3.73633e-11 
-3.25743e-10 5.76618e-11 -8.04245e-11 -1.00902e-11 5.47995e-11 -2.01762e-11 2.23177e-10 6.99073e-10 2.76675e-10 
2.55065e-10 1.51446e-10 7.97083e-11 -6.06409e-11 2.56565e-10 5.87771e-11 3.02634e-11 2.98906e-11 -5.38031e-11 
-3.24507e-10 -1.08907e-10 -1.30024e-10 -1.29043e-10 -7.17375e-11 1.50948e-10 2.1322e-10 1.633e-10 1.12956e-10 
-1.41247e-10 -1.6304e-10 7.17375e-11 -1.37103e-10 -4.29231e-10 -1.699e-10 3.12515e-11 -9.32587e-11 -3.22819e-10 
-1.16173e-10 -1.10342e-10 -6.79545e-11 -1.16028e-10 -4.18469e-11 5.38031e-11 2.34723e-10 5.87969e-10 2.46808e-10 
-1.50532e-10 -7.77156e-11 -3.58687e-11 -1.70513e-10 -2.13161e-10 -1.15102e-10 2.11371e-10 -7.09902e-11 6.80012e-11 
-1.68446e-10 -2.88535e-10 -1.37094e-10 1.67248e-11 -5.51827e-11 -1.2692e-10 4.27761e-10 7.88414e-10 3.64852e-10 
-5.91411e-11 1.98658e-10 9.38106e-11 -6.7795e-11 -4.66266e-10 -1.60218e-10 6.83803e-12 -1.41233e-10 -8.18256e-11 
1.01469e-10 -2.62752e-11 2.25581e-11 -4.0954e-11 -1.49453e-12 -4.10996e-11 1.15448e-10 2.75565e-12 3.54611e-11 
-6.42445e-11 -2.48636e-11 5.17651e-11 4.54842e-11 -2.81612e-11 5.19689e-12 2.90332e-12 1.58149e-10 7.82591e-11 
-2.27958e-10 -4.22863e-10 -1.95246e-10 4.06259e-11 -2.2418e-11 1.13584e-10 -8.87312e-11 4.89738e-12 -2.51502e-11 
6.50411e-11 -1.19562e-11 -4.33414e-11 -4.18584e-12 -3.48121e-11 -1.16994e-11 -4.86859e-11 8.83641e-11 7.28584e-12 
8.53878e-11 2.42008e-10 9.82187e-11 1.28616e-10 -4.95063e-11 -9.154e-11 1.01719e-10 -3.46989e-11 2.01061e-11 
1.40727e-10 2.59301e-10 8.6496e-11 1.3996e-11 4.42285e-11 1.74673e-11 -1.76645e-10 2.28165e-10 5.77885e-11 
-1.52445e-10 -1.01314e-10 -7.61277e-11 4.82597e-11 -1.37497e-10 -1.19562e-11 -1.90775e-10 -2.62566e-10 -1.36002e-10 
-1.10369e-10 1.54435e-10 6.57594e-11 3.48617e-10 8.01005e-10 3.44886e-10 1.21777e-10 -4.42381e-10 -1.83827e-10 
-4.59427e-10 -6.60707e-10 -3.3604e-10 -5.14577e-11 8.47807e-11 -6.52159e-11 4.0619e-10 2.7569e-10 2.04564e-10 
-8.25616e-11 1.11592e-10 -9.565e-11 -3.24578e-10 -3.37998e-10 -1.98773e-10 -1.22404e-10 1.99271e-10 1.43475e-10 
1.49135e-11 1.29558e-10 4.33414e-11 2.20348e-10 -9.565e-11 -1.71373e-10 -2.02369e-10 1.53485e-10 -1.46651e-11 
3.02339e-10 -2.39125e-11 7.97083e-12 -5.25565e-10 -4.52928e-10 -2.93548e-10 -1.14403e-10 1.40214e-10 2.0543e-10 
-1.78953e-10 -4.27578e-10 -1.81959e-10 2.17998e-10 -6.37667e-11 6.37667e-11 -3.01914e-10 -2.86557e-10 -1.76541e-10 
-4.279e-10 1.10867e-10 3.91295e-11 6.9632e-10 8.06384e-10 4.50811e-10 4.77263e-11 -5.97812e-11 1.49453e-11 
-1.32091e-10 -1.59611e-11 -4.44156e-11 -9.20143e-11 -6.87484e-11 -3.43742e-11 1.51931e-10 1.39035e-10 8.729e-11 
3.8197e-11 2.30158e-10 5.97812e-12 -7.14295e-11 -4.43967e-11 -3.47478e-11 1.35339e-10 -1.00134e-10 -1.13584e-10 
-4.90142e-10 -4.92142e-12 -1.48519e-10 -2.62428e-11 1.4622e-10 -1.53106e-10 3.63307e-10 7.69501e-10 3.39842e-10 
-3.16792e-10 1.27782e-10 7.67815e-11 -4.19254e-11 -1.53391e-10 -5.8595e-11 -2.18499e-11 9.24741e-11 2.32586e-11 
-1.71533e-10 2.51014e-10 2.38446e-11 -1.0391e-10 -1.22687e-10 -2.038e-11 -5.78628e-11 -5.8538e-10 -1.92973e-10 
-1.64075e-10 -2.81244e-11 2.11952e-11 4.71635e-10 2.0763e-10 2.03779e-10 2.55619e-10 -2.43907e-10 -1.25111e-24 
8.63374e-12 -1.7093e-10 -4.8689e-11 -1.63982e-10 4.85723e-11 7.09902e-11 1.62793e-10 3.29936e-10 1.47818e-10 
-7.73246e-11 -4.48359e-11 6.57594e-11 1.28938e-10 1.7674e-10 9.17035e-11 -1.96198e-11 -2.09234e-11 1.37497e-10 
-3.79033e-10 -1.24437e-10 -1.51041e-10 4.61033e-11 7.49134e-11 -5.88472e-11 -5.68104e-11 1.42746e-10 2.57807e-11 
4.82151e-11 -6.72539e-11 -1.03683e-10 1.88857e-10 -8.54077e-11 3.10349e-11 -2.98361e-11 1.89058e-10 2.5407e-11 
1.1636e-10 2.2379e-10 1.02045e-10 8.35158e-11 -6.03445e-11 -6.13114e-11 3.95438e-10 8.09096e-10 3.6136e-10 
-4.6479e-11 9.83006e-11 6.96001e-12 3.95715e-10 3.22461e-10 2.15453e-10 8.01108e-11 1.02482e-10 2.04964e-11 
-3.17012e-10 -7.01405e-10 -3.05525e-10 1.65433e-10 -3.27943e-10 1.63971e-10 1.73339e-10 1.3651e-10 9.29545e-11 
1.08323e-10 -3.07906e-10 -1.57582e-10 5.91293e-11 1.07805e-10 5.00801e-11 -1.89173e-10 5.58802e-11 -3.23872e-11 
-6.25246e-10 -1.4089e-09 -6.10245e-10 -2.44345e-11 1.44925e-10 1.11682e-10 3.09558e-11 1.15602e-10 4.39672e-11 
-1.01089e-10 4.69862e-12 3.97451e-11 -8.51388e-11 1.09871e-11 -2.22455e-11 1.05722e-10 7.17375e-11 -4.41461e-11 
-1.37788e-11 -2.1191e-10 -6.77066e-11 2.83569e-12 9.38106e-11 1.04847e-10 2.08741e-10 -2.77635e-12 6.17895e-11 
-9.30098e-11 2.3763e-10 1.03123e-10 3.85362e-11 7.97586e-11 3.54884e-11 2.56009e-13 -5.12411e-11 -6.53324e-11 
6.59925e-11 -2.55945e-10 -5.69857e-11 1.56474e-10 1.21057e-10 -2.02722e-10 7.75697e-11 1.03776e-10 5.44036e-11 
1.15538e-10 -4.8679e-11 3.84308e-11 1.73989e-10 -4.16826e-11 3.96918e-11 -8.84709e-12 5.38031e-11 -2.34428e-10 
-8.84365e-11 -3.88946e-10 -1.43215e-10 9.77429e-11 -4.09929e-11 -2.56205e-11 1.55285e-10 2.07606e-10 1.08867e-10 
8.068e-11 2.74495e-10 2.16182e-11 2.3571e-11 6.00652e-11 2.50909e-11 4.09233e-11 5.03198e-11 -1.12817e-11 
6.54274e-11 5.53027e-11 3.6219e-11 8.94745e-11 -5.42708e-11 2.49634e-11 -2.93213e-10 -1.96749e-10 -1.46989e-10 
5.19757e-11 -1.26987e-10 -6.79429e-13 1.98401e-10 1.80836e-10 1.13771e-10 1.16275e-10 -2.00521e-11 4.07019e-11 
2.60289e-10 2.30319e-10 1.47183e-10 8.43889e-11 5.90114e-11 7.74886e-11 1.43249e-10 9.07382e-11 7.01963e-11 
8.06541e-11 3.34948e-11 -5.17217e-11 2.28414e-10 4.77321e-10 2.1172e-10 -3.92086e-11 2.96617e-10 3.5093e-11 
2.84189e-10 3.47951e-10 1.89642e-10 1.10389e-10 1.31519e-10 -1.07606e-10 4.75733e-11 1.21424e-10 5.06991e-11 
-1.8393e-11 -8.08167e-11 -1.43054e-10 6.86863e-11 3.31801e-10 1.20146e-10 3.77045e-11 1.81803e-10 -5.40557e-12 
-4.52848e-11 -2.40544e-10 -8.57487e-11 1.39659e-11 -5.13259e-11 1.22376e-11 -2.01945e-10 -2.02045e-10 -1.21197e-10 
-1.61938e-11 -4.13642e-10 4.25704e-11 -1.21751e-10 -4.77498e-10 -1.79775e-10 -5.96729e-11 -4.9663e-10 -1.14143e-10 
-2.16051e-10 -7.36713e-10 -2.85829e-10 -3.07961e-11 -9.50864e-11 -4.69234e-11 -1.22858e-10 1.63724e-10 1.22598e-11 
1.13757e-10 -2.15779e-11 4.75851e-11 4.06065e-10 7.13971e-10 3.36011e-10 -2.31278e-11 2.10544e-11 9.61363e-12 
5.14865e-11 2.85016e-10 1.00951e-10 -1.29024e-10 -1.82953e-10 8.37759e-11 -2.09424e-10 -3.17183e-10 -1.57982e-10 
-3.16853e-11 -1.14511e-11 2.60954e-11 7.18218e-11 -7.71927e-11 -1.61129e-12 -6.46379e-11 -1.6258e-10 -4.73008e-12 
-4.46248e-11 -2.28271e-10 -8.18687e-11 -1.87963e-11 1.28193e-10 1.23472e-10 -3.41588e-11 -1.2627e-10 -4.81286e-11 
-1.44585e-10 1.82993e-10 1.14592e-10 1.22438e-11 -1.59038e-10 -4.40384e-11 -4.07649e-11 5.74589e-11 1.19823e-10 
-4.01525e-10 -4.64135e-10 -2.59698e-10 -4.53372e-11 -1.40112e-10 6.38912e-11 -1.38797e-10 9.09434e-11 -1.43561e-11 
-9.19805e-11 -9.41294e-11 -5.85286e-12 -1.95279e-11 5.66577e-11 1.11389e-11 -8.35647e-11 -2.6599e-11 -2.28394e-11 
7.09459e-11 4.20062e-11 3.38856e-11 3.17874e-11 3.93498e-11 -8.02118e-11 9.33303e-11 1.60273e-10 7.6081e-11 
-3.57108e-11 5.7294e-11 -3.46967e-11 2.83486e-12 3.20075e-12 1.81068e-12 9.3758e-11 1.07879e-11 -4.00627e-13 
-3.44304e-11 1.40916e-10 3.19456e-11 -2.70862e-11 -2.22015e-11 -1.48507e-10 2.85915e-10 1.53528e-10 1.31833e-10 
1.31358e-10 3.69704e-11 3.29946e-11 -2.11861e-10 1.67534e-10 -1.32979e-11 -1.66123e-10 -8.72304e-11 -3.08981e-11 
2.01158e-10 5.86018e-10 2.36153e-10 -1.3749e-11 5.86943e-11 1.95648e-11 -1.47191e-10 -1.60121e-10 -9.21939e-11 
4.82185e-12 3.58687e-11 1.04617e-10 -2.27142e-11 8.08027e-12 -4.39018e-12 -6.7442e-11 -2.39125e-11 1.19562e-10 
8.44618e-11 -6.20438e-11 6.72539e-12 -1.00425e-10 1.46736e-11 -4.50397e-11 -4.19743e-10 -3.77113e-10 -2.39057e-10 
-8.88005e-12 2.038e-11 -2.1399e-11 3.05636e-10 5.05232e-10 2.4326e-10 5.45849e-11 2.20104e-11 2.038e-11 
-1.71392e-10 -2.05128e-10 -1.12956e-10 8.66106e-11 1.11682e-10 4.89119e-11 1.85956e-10 -3.50659e-11 4.5267e-11 
5.14445e-11 -9.27759e-11 -6.48397e-11 -2.93193e-12 4.44083e-12 4.5267e-13 5.18841e-11 3.79381e-11 -7.90664e-11 
-8.24366e-11 4.16963e-11 -1.22221e-11 -1.34062e-11 1.68307e-10 -6.20805e-11 3.16292e-10 3.37709e-10 1.962e-10 
-2.47332e-10 4.41461e-11 8.2774e-12 1.04818e-10 3.24787e-10 1.28882e-10 -2.23588e-11 1.00708e-10 -5.63036e-11 
-4.16858e-10 -8.08154e-10 -3.67504e-10 -5.06381e-11 1.45199e-10 8.01873e-11 -4.57431e-11 2.61085e-10 6.46025e-11 
4.25291e-11 2.04176e-10 -4.1387e-12 -4.29093e-10 -4.7129e-10 -2.70115e-10 -2.39647e-10 3.03505e-11 5.38031e-11 
-5.66374e-10 -6.80625e-10 -3.741e-10 -1.85526e-10 -1.6003e-10 -1.32094e-10 9.61223e-11 4.12593e-10 1.52615e-10 
4.45985e-11 1.2692e-10 -1.37957e-11 9.34252e-11 1.30108e-10 6.70599e-11 1.07987e-10 -2.98331e-11 8.47572e-11 
-2.31529e-10 -4.61704e-10 -2.0797e-10 4.13684e-11 3.00056e-11 -4.05248e-11 1.89273e-10 1.11128e-10 9.01202e-11 
-1.41487e-10 -2.15212e-10 -2.72602e-10 1.76469e-10 -1.48956e-10 8.25389e-12 6.84014e-11 1.51627e-10 -1.45105e-10 
4.09153e-11 4.50242e-10 1.47347e-10 -1.04995e-10 4.23903e-11 -1.54888e-10 3.03623e-10 5.57098e-10 2.58216e-10 
-5.77637e-11 1.55891e-10 -6.89784e-12 3.21526e-10 6.63846e-10 2.95611e-10 2.33981e-10 7.01071e-11 1.14128e-11 
3.32215e-10 2.26366e-10 1.67574e-10 1.60143e-11 -3.98542e-11 6.57594e-11 1.38587e-10 1.50978e-10 8.68696e-11 
-6.02014e-11 4.7825e-11 5.57958e-11 -1.64939e-10 -6.51024e-10 -2.44789e-10 2.33203e-11 -6.52159e-11 3.26079e-12 
-3.48912e-10 6.86872e-11 -8.40674e-11 5.21959e-11 -1.99271e-12 -7.97083e-12 2.78478e-10 6.3005e-12 8.54335e-11 
1.47872e-10 1.97278e-10 1.70377e-10 3.25989e-10 3.06968e-10 1.89887e-10 1.8641e-11 -1.23299e-11 -4.76382e-11 
-1.47026e-10 -9.85212e-11 -7.3664e-11 -2.81642e-10 -1.05925e-10 5.82867e-11 -1.89711e-10 3.24219e-10 4.03523e-11 
-7.97481e-11 4.7825e-11 1.43475e-10 2.82986e-10 -3.10541e-10 -8.26662e-12 -9.29736e-11 1.49453e-10 -2.98906e-11 
-3.43789e-10 -1.30841e-10 -1.42389e-10 -5.30514e-11 1.07606e-10 7.17375e-11 6.52007e-10 5.24096e-10 3.52831e-10 
8.77091e-11 2.8695e-11 2.8695e-11 8.65501e-10 6.42107e-10 4.52282e-10 1.61305e-10 9.69577e-11 -2.83027e-11 
-1.76691e-10 -3.44177e-10 -1.5626e-10 -1.32189e-10 2.69016e-11 -4.48359e-12 2.39721e-10 5.55653e-11 8.8586e-11 
1.31382e-10 1.16573e-10 1.18815e-10 3.15164e-10 1.65888e-10 1.44316e-10 -1.95477e-10 1.50948e-10 -1.21057e-10 
-1.03804e-09 -7.19437e-10 -5.27243e-10 -1.30763e-11 5.97812e-11 1.19562e-11 -6.97193e-11 1.97688e-10 3.83908e-11 
2.1262e-10 -5.97812e-11 -8.36937e-11 1.58856e-10 1.53945e-10 9.38402e-11 5.2107e-11 -1.97278e-10 -4.93195e-11 
3.83103e-10 -8.99882e-11 8.79345e-11 -1.37563e-10 -1.93691e-10 -1.07606e-11 -3.12462e-10 -4.30601e-10 -2.22919e-10 
-1.19249e-10 1.55431e-10 -3.01895e-10 -6.7522e-11 -4.1353e-10 -1.44316e-10 3.25564e-10 -2.83961e-10 -1.22552e-10 
6.41009e-10 3.87765e-10 3.08632e-10 -1.17992e-11 -1.79344e-10 1.79344e-11 6.09352e-10 4.52232e-10 3.18475e-10 
2.38605e-10 3.58687e-11 -1.07606e-10 8.34624e-11 1.1886e-10 6.06966e-11 2.38767e-11 -2.11626e-10 1.43475e-11 
1.98025e-10 4.08666e-11 7.16674e-11 2.33753e-10 -1.79344e-11 -8.07047e-11 -6.55339e-10 -8.21795e-10 -4.4314e-10 
-1.17955e-11 2.2418e-12 5.94076e-11 1.54481e-10 4.00831e-10 1.66594e-10 3.48325e-10 -1.913e-10 -1.43475e-10 
-8.96462e-11 -3.08503e-11 -3.6149e-11 -2.03609e-10 1.43475e-10 9.565e-11 -4.47387e-10 2.75749e-10 -5.14913e-11 
6.68054e-11 -1.43475e-10 3.58687e-11 -3.59938e-10 -7.87114e-10 -3.44116e-10 3.68221e-10 -2.42114e-10 -1.40486e-10 
-2.84336e-10 -4.62463e-10 -2.2404e-10 -4.3543e-11 -2.69016e-11 -8.07047e-11 -8.04746e-11 -2.15629e-10 -8.88312e-11 
-2.41468e-11 -1.31519e-10 -7.17375e-11 2.44305e-10 -4.09171e-10 -4.94596e-11 -2.05183e-10 -2.51081e-10 -1.19562e-10 
-2.63344e-10 -2.98226e-10 -1.68471e-10 5.18798e-11 -4.4461e-25 -7.89112e-11 -2.33519e-10 8.19171e-11 -4.54804e-11 
-8.75631e-11 -8.33948e-11 3.58687e-11 3.09936e-10 1.4718e-10 1.37135e-10 -9.5633e-11 -4.30425e-10 -1.07606e-10 
6.32746e-10 4.31057e-10 3.19141e-10 -1.28736e-10 1.83827e-10 -6.83748e-11 -7.85657e-10 -1.5715e-09 -7.07147e-10 
-3.93883e-10 -3.31039e-10 -5.23086e-11 9.4145e-11 2.34652e-10 9.8639e-11 -4.82737e-10 -3.04384e-10 1.26652e-10 
2.14821e-10 -1.27671e-10 2.6145e-11 5.0417e-11 1.57822e-10 5.739e-11 -1.65175e-10 -2.40801e-10 -1.21793e-10 
-8.60868e-11 -1.30024e-10 7.62211e-11 2.81403e-10 1.25973e-10 1.22213e-10 2.24603e-10 -1.16573e-10 8.96719e-12 
1.55823e-10 4.42807e-10 1.79589e-10 -1.55303e-11 -2.42114e-10 3.58687e-11 3.05231e-10 5.47119e-10 2.55705e-10 
8.35937e-11 1.19562e-10 -8.96719e-12 -1.15707e-10 -1.3019e-10 -7.37691e-11 -2.84595e-10 1.09848e-10 8.07047e-11 
-1.66602e-10 3.9265e-10 6.78143e-11 -1.79639e-10 7.17375e-11 2.98906e-11 2.88358e-11 -5.4056e-11 -7.56606e-12 
-4.11421e-10 -8.36937e-11 1.67387e-10 4.79214e-10 1.31338e-09 5.37779e-10 1.86582e-10 -7.17375e-12 3.94556e-11 
1.60566e-10 4.48572e-10 1.82741e-10 1.46539e-10 2.15773e-10 5.10009e-11 -2.39619e-10 -4.73553e-10 -2.13951e-10 
-3.84306e-10 2.8695e-10 -1.63713e-24 6.29916e-10 8.34258e-10 4.39252e-10 -2.69913e-10 4.7825e-10 1.913e-10 
2.15633e-10 4.66714e-10 2.04704e-10 1.4623e-10 3.826e-10 4.7825e-11 9.34988e-13 3.51097e-10 1.0561e-10 
-2.8522e-10 -1.79344e-10 -1.25541e-10 4.96434e-10 4.14296e-10 2.73219e-10 6.14273e-11 1.43475e-10 -7.17375e-11 
-5.98756e-10 -1.3049e-09 -5.71098e-10 -4.09776e-10 -1.67387e-10 -1.31519e-10 -2.05154e-10 3.01364e-10 2.88631e-11 
-5.50732e-10 -4.48359e-10 8.96719e-12 -8.53055e-10 -1.21675e-09 -6.20943e-10 -2.64613e-10 -1.30024e-10 -2.15212e-10 
1.13119e-10 1.06452e-09 3.53293e-10 -3.06511e-10 -3.22819e-10 -7.17375e-11 -2.60328e-10 1.13276e-09 2.6173e-10 
-6.02348e-10 1.19562e-10 -3.10862e-10 2.96223e-10 3.59035e-10 1.96578e-10 9.52685e-12 5.14119e-10 1.07606e-10 
1.89917e-10 -2.53901e-10 -1.91954e-11 -4.27965e-10 8.96719e-11 -2.18202e-10 -2.23785e-10 -1.80673e-10 -1.21337e-10 
1.53561e-10 3.10862e-10 -1.19562e-10 4.67119e-10 8.97575e-10 4.09408e-10 1.95885e-11 1.67387e-10 -2.39125e-11 
1.51905e-10 7.2627e-12 4.77503e-11 -3.7044e-10 -2.51081e-11 8.42915e-11 -1.69432e-10 -2.80048e-10 -1.34844e-10 
-1.58981e-11 3.33579e-10 2.58255e-10 -3.89673e-10 -5.93915e-10 -2.95076e-10 8.42523e-11 1.94289e-10 7.47266e-12 
3.43847e-10 3.88866e-10 2.19814e-10 -1.34268e-10 4.71957e-10 -1.49138e-10 -1.84144e-10 -5.52009e-11 -7.18034e-11 
3.16397e-11 6.75176e-11 2.01498e-10 -9.46218e-11 -8.77576e-11 -5.47138e-11 2.02489e-11 -5.08371e-25 3.13852e-11 
-2.68614e-10 -5.96079e-10 -2.59408e-10 -6.17303e-11 -3.53563e-10 1.94716e-10 4.15949e-11 -2.66496e-11 4.48359e-12 
6.72451e-11 3.48226e-10 -2.15212e-10 3.74394e-10 5.83543e-10 2.87381e-10 -1.77297e-10 -1.96588e-10 -3.72483e-11 
1.30085e-10 -3.21069e-10 -5.72951e-11 3.1076e-10 9.38106e-11 1.22781e-10 -1.69679e-10 -6.01055e-11 -6.89352e-11 
1.07268e-11 2.75913e-10 2.20731e-11 3.69032e-10 3.56983e-10 2.17805e-10 -2.99276e-11 2.71631e-10 -8.89246e-11 
3.82902e-10 3.41712e-10 2.17384e-10 1.31863e-10 1.98025e-11 -1.46184e-10 4.06737e-11 2.82052e-10 9.68176e-11 
-1.65775e-11 4.35282e-11 -9.34082e-13 -4.20087e-11 -1.0581e-10 -4.43455e-11 8.89778e-11 9.8639e-11 1.0359e-10 
9.12505e-11 -8.77476e-11 1.05084e-12 7.0922e-11 3.14786e-11 -8.16388e-11 -2.88617e-11 -1.06814e-10 -4.07026e-11 
-6.54879e-11 -8.36003e-11 5.22152e-11 2.77404e-10 1.80763e-10 1.3745e-10 3.37586e-12 -8.96719e-12 1.13584e-10 
-9.48433e-11 1.40452e-11 -2.42394e-11 1.71319e-10 2.74807e-10 4.44623e-11 5.17447e-10 4.00055e-10 2.75251e-10 
2.28183e-11 5.82867e-11 9.11664e-11 -8.56246e-11 -1.31082e-10 -6.50121e-11 2.44634e-11 1.01628e-10 9.41555e-11 
1.00647e-10 1.22239e-10 6.68659e-11 -4.47434e-11 8.2774e-11 1.40716e-10 -1.45444e-11 -1.58494e-10 -5.19116e-11 
-3.03561e-11 -2.09234e-11 4.7825e-11 2.00579e-10 6.16643e-11 7.8673e-11 -6.6395e-11 -9.71445e-12 1.45717e-11 
-1.20946e-10 -9.4827e-11 -6.47319e-11 2.93863e-11 -2.28663e-11 -1.39888e-10 -1.78938e-10 -3.04683e-10 -1.45086e-10 
1.30344e-10 -8.96719e-11 -7.17375e-11 -1.36864e-10 -1.16506e-10 -7.60109e-11 1.03529e-11 1.37497e-10 4.7825e-11 
-3.21214e-10 -2.09011e-10 -1.59067e-10 3.93335e-11 1.33227e-10 8.39072e-11 -3.15453e-11 -1.61555e-10 -5.79301e-11 
6.59834e-11 6.52159e-11 -5.21727e-11 7.30908e-11 -8.25484e-11 -2.83727e-12 -8.2152e-11 5.52042e-11 7.70618e-11 
1.11544e-11 -3.59142e-10 -1.04396e-10 -5.38553e-11 3.26079e-12 -6.52159e-12 -4.95344e-10 -1.00018e-09 -4.48657e-10 
-1.45248e-10 -2.77983e-10 -1.68135e-11 9.11922e-11 1.48633e-10 7.19477e-11 -5.99586e-11 -5.38031e-11 -9.565e-11 
5.136e-11 4.04238e-10 1.3668e-10 -7.31709e-11 8.98587e-11 2.42861e-12 1.88743e-10 5.6296e-10 2.25511e-10 
1.19004e-10 7.17375e-11 -1.07606e-10 2.10612e-10 5.60317e-10 2.31279e-10 -6.36159e-11 -5.97812e-11 -1.07606e-10 
1.73382e-10 2.49757e-10 1.26942e-10 1.12619e-11 -7.47266e-11 -1.1209e-11 5.82256e-10 1.68383e-09 6.79825e-10 
-9.15801e-11 3.50717e-10 1.51446e-10 -1.82167e-10 2.88082e-11 -4.60078e-11 -9.22346e-11 1.4429e-10 -8.23351e-11 
1.03966e-10 4.20755e-10 1.57416e-10 3.06662e-11 8.66828e-11 4.18469e-11 1.72572e-10 3.3489e-10 1.52238e-10 
1.60857e-10 -2.32332e-11 7.74439e-12 -9.33553e-11 -1.08873e-10 -6.06686e-11 -4.91536e-11 1.70377e-10 -6.42648e-11 
-6.60628e-11 -2.09358e-10 -8.26262e-11 5.60369e-11 1.02482e-10 2.56205e-11 -2.9328e-10 -3.31994e-10 -1.87582e-10 
-7.57505e-11 -2.47345e-11 1.07756e-10 -7.01615e-11 -1.00375e-10 -5.1161e-11 -1.61086e-10 1.28103e-11 5.12411e-12 
2.82693e-10 8.26249e-10 3.32683e-10 -7.20164e-11 -1.43475e-11 -6.57594e-11 4.69612e-10 2.70827e-10 2.22132e-10 
2.13571e-10 -1.15884e-10 1.51752e-11 -9.93761e-10 -2.55332e-09 -1.06412e-09 -1.01145e-10 1.09736e-10 -1.14163e-10 
-1.40363e-10 -4.31495e-10 -1.71557e-10 4.27241e-11 2.81826e-11 2.17775e-11 7.87166e-11 1.46397e-10 6.75341e-11 
8.9245e-11 1.05614e-10 -9.96354e-13 3.25003e-10 6.26919e-10 2.85577e-10 3.2928e-10 -1.07606e-10 -1.90104e-10 
-5.84309e-10 -8.45536e-10 -4.28954e-10 -4.41445e-11 -8.96719e-12 -1.6253e-11 -6.21674e-10 -2.11153e-09 -8.19963e-10 
-3.68905e-11 8.47807e-11 -5.86943e-11 3.0133e-11 -1.70245e-10 -4.20337e-11 1.39773e-10 -1.00881e-11 -1.6253e-10 
-7.50618e-10 -4.53916e-10 -3.6136e-10 -1.17745e-10 -1.10365e-11 -2.20731e-11 7.33815e-11 -1.62878e-10 -2.6849e-11 
2.21446e-10 -5.39432e-11 9.45758e-11 -2.76506e-10 -8.18861e-10 -3.2861e-10 -4.84338e-11 3.18833e-11 -7.65429e-25 
-8.73368e-11 6.18053e-11 -7.65947e-12 4.13843e-11 1.6938e-11 7.09902e-11 1.4782e-10 2.80924e-10 1.28623e-10 
3.11458e-11 2.81826e-11 2.56205e-11 2.53881e-10 6.56848e-10 2.73219e-10 6.70047e-11 8.32667e-12 1.29384e-10 
1.8501e-10 2.34081e-10 1.25727e-10 -1.10858e-10 1.11592e-10 9.565e-11 5.14155e-11 2.7945e-10 9.92595e-11 
6.73864e-11 -1.14011e-10 5.70057e-11 7.6125e-10 3.31003e-10 3.27676e-10 1.98886e-10 -1.27533e-10 -6.37667e-11 
-5.71065e-10 -7.54709e-10 -3.97732e-10 -1.37469e-10 -2.29161e-10 6.17739e-11 1.04713e-10 -4.58997e-10 -1.06285e-10 
-4.94179e-11 -8.96719e-11 -3.58687e-11 -2.33507e-10 -2.70297e-10 -1.51141e-10 7.54298e-11 4.22739e-11 9.8639e-11 
6.41553e-10 6.9325e-10 4.00441e-10 1.13425e-10 -1.59417e-11 4.7825e-11 1.63725e-10 2.87036e-10 1.35228e-10 
2.53689e-11 3.84308e-11 8.32667e-11 -2.90239e-10 1.2802e-10 -4.86657e-11 -1.03763e-10 2.78979e-11 1.1757e-10 
-2.30431e-10 -1.64486e-10 -1.18475e-10 -2.4428e-10 1.19135e-10 -1.28103e-11 -2.26707e-10 -2.28814e-10 -1.36656e-10 
-1.08748e-10 6.10267e-11 7.54738e-11 2.35998e-10 8.74936e-10 3.3328e-10 4.49945e-11 -7.27027e-11 1.34477e-10 
-3.18169e-10 -1.02942e-11 -9.8539e-11 -7.74318e-11 1.15292e-11 -4.48359e-11 1.02747e-10 -7.4925e-11 8.34669e-12 
1.57094e-10 7.39192e-11 -1.30104e-11 7.14216e-10 6.18096e-10 3.99694e-10 1.16741e-10 -2.1048e-11 -8.64648e-11 
1.94501e-10 2.78478e-10 1.41894e-10 1.84307e-10 9.06326e-11 3.93916e-11 -3.20405e-10 -2.15758e-10 -1.60849e-10 
-7.12329e-11 -9.16646e-11 4.7825e-11 8.85814e-11 4.58072e-10 1.63996e-10 1.00218e-10 -4.82848e-11 -3.03505e-11 
-7.36369e-11 -3.32969e-10 -1.21982e-10 5.56585e-11 -4.21458e-11 -8.96719e-13 -3.18093e-10 -6.59891e-10 -2.93395e-10 
1.76887e-11 -4.63305e-11 -1.64398e-11 1.88801e-10 1.94639e-10 1.15032e-10 2.65956e-10 1.79344e-10 6.87484e-11 
-3.06622e-11 -2.93698e-10 -9.7308e-11 -5.56335e-11 5.42702e-11 2.31185e-11 -1.58177e-10 9.22656e-12 -4.4685e-11 
-1.15905e-10 -3.31096e-11 -6.89784e-11 3.75688e-10 8.30396e-11 1.37618e-10 1.79637e-10 -6.09769e-11 8.96719e-12 
8.6975e-11 2.32466e-11 3.30665e-11 3.69917e-11 7.47265e-13 -3.69896e-11 -2.10131e-10 -2.79016e-10 -1.46744e-10 
-1.11756e-10 2.19198e-11 8.96719e-11 5.02025e-11 9.22025e-11 4.27215e-11 -6.17719e-11 -3.17927e-11 -8.92643e-11 
-7.59043e-10 -5.62089e-10 -3.96339e-10 4.2099e-11 -8.15199e-13 -4.03523e-11 -3.66432e-10 -2.36852e-10 -1.80985e-10 
-4.76305e-11 7.81426e-11 6.78944e-11 -5.88815e-11 -1.65083e-10 -6.71892e-11 -1.0207e-10 -4.56982e-12 -5.27684e-11 
-9.75961e-11 1.18613e-10 6.30505e-12 5.72677e-11 3.91069e-11 -5.25577e-11 -1.24692e-10 -4.36267e-10 -1.68288e-10 
5.31415e-11 -1.6304e-12 -4.72815e-11 -9.29359e-11 -1.91842e-10 -8.54335e-11 -7.59184e-11 -4.32246e-11 -1.82146e-11 
-2.08902e-10 -4.96463e-10 -2.1161e-10 -5.465e-11 1.16573e-10 -1.40913e-11 -1.38858e-10 -2.68741e-10 -1.2228e-10 
2.62898e-10 5.3905e-11 2.83282e-11 6.06102e-10 6.28132e-10 3.7027e-10 4.83641e-11 1.53189e-11 3.86087e-12 
2.06279e-10 2.84915e-10 1.47358e-10 1.66528e-11 3.25861e-11 -3.45077e-11 -1.62881e-10 4.49644e-10 8.60289e-11 
-1.00871e-10 -4.2096e-11 -1.38244e-10 1.8762e-10 2.7455e-10 1.38651e-10 6.8883e-11 -4.57967e-11 3.18655e-11 
-3.00592e-11 -1.26867e-10 -4.70777e-11 1.24809e-10 5.38031e-11 -5.53551e-11 -1.05401e-10 6.05653e-11 -1.34508e-11 
-1.2883e-10 -3.07446e-11 -3.07446e-11 -1.27574e-10 -1.33911e-10 -7.84454e-11 -1.81144e-10 -1.1209e-11 9.94797e-12 
1.83245e-12 2.63362e-10 7.95583e-11 1.65094e-10 9.13023e-11 -6.52159e-11 -3.91722e-10 -2.42519e-10 -1.90272e-10 
-7.49982e-11 -1.11592e-10 -1.913e-10 -3.49889e-10 -7.28976e-10 -3.23659e-10 2.62739e-11 2.56205e-12 2.94636e-11 
6.30945e-10 7.81818e-10 4.23829e-10 7.36669e-11 -1.43475e-10 -6.0701e-11 -4.76699e-11 -6.02166e-11 -3.23659e-11 
2.38394e-11 3.87523e-11 2.50044e-11 3.6677e-10 8.32416e-10 3.59756e-10 2.6965e-11 -3.2506e-11 1.17134e-10 
7.0599e-10 1.30067e-09 6.01999e-10 2.53797e-11 -1.17389e-10 -5.86943e-11 -2.95169e-10 -2.22624e-10 -1.55338e-10 
-2.47305e-10 -1.52069e-10 5.21218e-11 -3.63075e-10 -6.00097e-10 -2.88952e-10 -9.24664e-11 6.40513e-11 3.01041e-11 
8.33408e-11 9.16806e-10 3.00044e-10 1.29759e-12 -8.15199e-11 5.95095e-11 -2.37897e-10 -3.75241e-11 -8.26262e-11 
-3.2775e-10 3.71498e-11 5.79665e-11 7.82658e-10 1.65333e-09 7.30798e-10 2.31236e-10 5.02162e-11 1.16573e-11 
-1.58033e-10 4.24939e-11 -3.46616e-11 -1.79924e-10 -6.62192e-11 2.75913e-12 -1.87893e-10 -6.10514e-10 -2.39522e-10 
4.76474e-11 1.37497e-10 5.00668e-11 -4.85872e-11 6.79694e-11 5.81466e-12 1.00491e-10 -1.00507e-10 -6.35176e-12 
-1.95454e-10 -4.75917e-10 -2.01411e-10 -3.4271e-10 1.08353e-11 -1.15826e-11 -4.99133e-10 -1.36207e-09 -5.5836e-10 
-4.15912e-11 -1.09237e-10 -5.62487e-11 -4.32689e-10 -5.49405e-10 -2.94628e-10 -1.21333e-10 -9.74434e-11 3.04884e-11 
1.53704e-10 -4.44169e-11 3.27863e-11 -1.30133e-12 -2.59708e-11 -4.05225e-11 4.03853e-11 -9.06505e-11 -1.50796e-11 
7.74886e-11 6.72539e-12 -1.23299e-11 2.22049e-10 2.73733e-10 1.48735e-10 -4.94107e-11 7.44966e-11 -6.89784e-13 
-1.20674e-10 9.26515e-11 -8.40674e-12 -1.40709e-10 3.44892e-11 -1.65548e-11 -1.65844e-10 -3.50003e-10 -1.54754e-10 
-6.6888e-11 2.15773e-10 4.01655e-11 -2.21903e-10 -5.65528e-10 -2.36229e-10 -1.44162e-10 4.8679e-11 3.93916e-11 
2.66638e-10 -5.46684e-11 6.3591e-11 -4.56827e-11 7.42995e-11 2.04964e-11 2.00253e-10 2.27891e-10 1.28443e-10 
-6.37411e-11 -1.00721e-10 3.16654e-11 -2.27644e-10 -9.4614e-11 -9.66775e-11 -8.26024e-12 8.6507e-11 9.60016e-11 
-2.5747e-10 -3.88247e-10 -1.93715e-10 1.37914e-10 -1.40913e-10 -1.85749e-11 4.77112e-10 4.30255e-10 2.7221e-10 
-3.43491e-11 -2.91434e-11 -6.35923e-11 -1.85339e-10 -4.73389e-10 -1.97618e-10 -1.98807e-10 1.84468e-10 -1.79344e-10 
-3.32067e-10 4.04174e-11 -8.74947e-11 -2.21142e-10 5.51827e-11 7.17375e-11 4.11986e-11 2.2159e-10 7.88365e-11 
-1.08004e-10 1.74362e-12 -3.33779e-11 -1.55783e-10 3.70478e-10 6.44085e-11 -2.25573e-10 9.93288e-11 -3.86279e-11 
4.49281e-10 1.16232e-09 4.83481e-10 -9.22394e-11 -1.34508e-11 -1.22053e-10 3.3881e-10 3.49141e-10 2.06385e-10 
1.13299e-10 -6.40513e-11 -1.33227e-10 9.18563e-11 3.75318e-10 1.40152e-10 8.65148e-12 2.04964e-11 2.56205e-11 
-3.12659e-11 3.48688e-11 1.08087e-12 -9.62661e-11 -5.31626e-11 2.20337e-10 -3.84898e-11 1.66029e-12 -1.10489e-11 
3.74549e-11 2.14181e-25 -1.14011e-10 -8.20779e-10 -1.25102e-09 -6.21538e-10 -1.99314e-10 1.85322e-10 1.22552e-10 
-3.42296e-10 -1.12664e-09 -4.40681e-10 -1.5875e-10 -1.1478e-10 3.826e-11 3.48525e-11 -1.44895e-11 6.1089e-12 
-5.82424e-11 5.20097e-11 7.47266e-11 -2.04811e-11 8.31576e-10 2.43328e-10 8.84411e-12 1.25541e-10 -9.96354e-13 
3.38127e-10 4.33892e-10 2.31606e-10 -2.93948e-10 1.40486e-10 2.98906e-12 1.64777e-11 -1.57524e-10 -4.23139e-11 
4.99055e-11 -5.97812e-11 -5.97812e-11 1.8194e-10 -1.96651e-10 -4.41354e-12 6.89817e-11 1.38991e-10 -1.16573e-10 
1.09173e-11 6.00729e-11 2.12971e-11 -9.44089e-11 4.7825e-11 1.79344e-11 -8.02768e-11 2.82351e-11 -1.56125e-11 
-7.85421e-11 1.17214e-10 -2.06886e-10 -2.82143e-10 -1.21069e-10 -1.20964e-10 -1.42564e-10 -6.17739e-11 -1.3949e-10 
3.61622e-10 5.38699e-10 2.70096e-10 1.36934e-10 -1.05364e-10 -3.6189e-11 5.53309e-10 1.29804e-09 5.55405e-10 
-7.37007e-13 -1.67387e-10 -1.99271e-11 -2.09768e-11 -2.82833e-10 -9.1143e-11 3.70351e-11 1.07606e-10 5.38031e-11 
-1.41227e-11 -2.10657e-10 -6.7434e-11 -1.16585e-10 -4.62771e-11 -6.45317e-11 2.85401e-10 1.43063e-10 1.28539e-10 
2.36461e-10 -5.46998e-11 5.2458e-11 -4.65523e-10 -1.25342e-09 -5.15683e-10 3.89428e-11 3.45237e-10 -9.19137e-11 
-9.20206e-11 2.60996e-10 5.06926e-11 -7.90334e-11 2.2956e-10 -5.739e-11 3.67497e-10 3.66457e-10 2.20186e-10 
6.29228e-11 -1.1209e-10 -7.77156e-11 5.3837e-11 3.16993e-10 1.11249e-10 1.36316e-10 -4.30425e-11 -6.15747e-11 
3.7601e-11 4.01651e-10 1.31776e-10 -1.97644e-10 1.14332e-10 -5.04404e-11 3.16437e-10 1.01587e-09 3.99694e-10 
-9.32688e-12 1.55431e-10 5.18104e-11 3.57264e-10 4.62626e-10 2.45967e-10 9.84867e-11 -2.46598e-11 -2.98906e-11 
2.24362e-11 3.75483e-10 1.19376e-10 4.14406e-11 4.93195e-11 -8.42915e-11 1.16853e-10 3.1516e-10 1.29604e-10 
-5.54608e-12 2.09234e-10 1.16573e-10 -3.87187e-10 -5.98923e-10 -2.95833e-10 -2.5825e-11 -1.57822e-10 6.23219e-11 
-4.34872e-10 -8.21001e-10 -3.76762e-10 -2.09601e-10 -1.67014e-10 -2.35389e-11 1.30133e-10 1.25712e-10 7.67535e-11 
3.63132e-11 9.19137e-11 1.59504e-10 2.20982e-10 4.79346e-10 2.10098e-10 -3.13477e-11 1.25727e-10 7.94904e-11 
1.71813e-10 5.37435e-10 2.12775e-10 -1.28608e-10 1.0671e-10 -2.77983e-11 1.35541e-10 -3.04573e-11 3.15253e-11 
-6.52368e-11 7.17375e-11 -6.57594e-11 3.28096e-11 -3.98152e-11 -2.10168e-12 1.68375e-10 -2.91434e-11 2.51081e-11 
-2.59837e-10 -1.23838e-10 -1.15102e-10 -1.78205e-11 -9.90127e-11 8.96719e-11 1.55362e-10 3.10651e-10 1.39804e-10 
-2.52255e-11 8.16014e-11 6.54605e-11 1.65832e-10 5.73027e-10 2.21658e-10 -7.03034e-11 9.50522e-11 -7.17375e-11 
-4.00494e-10 -1.08437e-10 -1.52679e-10 -1.14967e-10 -2.27629e-11 -1.84172e-10 8.12615e-11 3.08283e-11 3.36269e-11 
-2.0567e-10 4.40887e-11 -1.21057e-10 -3.06931e-10 -7.41745e-11 -1.14332e-10 -2.00883e-10 1.1209e-11 -8.96719e-12 
-3.29315e-10 -2.98014e-10 -1.88199e-10 5.50548e-11 -3.826e-11 4.06512e-11 -3.78945e-10 -3.59972e-10 -2.21675e-10 
-4.53766e-11 5.38031e-11 -2.46598e-11 -4.61366e-10 -6.57042e-10 -3.35522e-10 -1.91961e-10 1.17632e-10 -3.6149e-11 
-7.72382e-11 -2.41984e-10 -9.57667e-11 -1.19424e-10 1.62951e-10 -1.06719e-11 -1.00912e-10 -8.68385e-11 -5.63251e-11 
6.24814e-11 7.62211e-11 -5.31306e-11 3.56922e-10 2.47663e-10 1.81375e-10 -2.26556e-11 8.59355e-12 -4.61436e-11 
2.84396e-10 5.86262e-10 2.61197e-10 1.81057e-11 -3.83347e-11 5.71658e-12 -2.84831e-10 -3.02473e-10 -1.76191e-10 
2.62555e-11 5.10009e-11 1.27689e-10 -2.15926e-10 -4.60536e-10 -2.02939e-10 -1.53476e-10 9.90874e-11 5.40273e-11 
-1.77097e-10 -2.24792e-10 -1.20567e-10 7.36381e-11 -3.28797e-11 1.49453e-11 9.95092e-11 5.39403e-10 1.91674e-10 
-5.1156e-11 -1.57374e-10 1.1209e-11 2.17413e-10 2.41454e-10 1.3766e-10 -1.55192e-10 -6.50121e-11 5.32067e-25 
-1.77632e-10 -3.97108e-10 -1.72422e-10 1.00919e-10 1.70377e-11 1.3787e-11 3.83533e-10 -1.26025e-12 1.14682e-10 
7.75119e-11 1.96531e-10 -2.69016e-11 -2.55467e-10 -2.61827e-10 -1.55188e-10 6.543e-11 -4.75261e-11 1.70377e-11 
-1.33881e-10 -3.79304e-10 -1.53955e-10 2.67111e-11 1.67387e-11 -6.45637e-11 8.27548e-12 -1.11743e-10 -3.10403e-11 
5.25558e-11 7.72558e-11 -1.37957e-10 2.95151e-11 3.83816e-10 1.23999e-10 -1.54517e-11 -5.82867e-11 2.69016e-11 
-1.90618e-12 2.48971e-10 7.41194e-11 -2.15515e-12 -8.81773e-11 1.04617e-10 4.52864e-11 2.21527e-10 8.00441e-11 
1.56509e-10 7.46198e-11 3.66694e-11 -2.57649e-10 -5.24978e-10 -2.34788e-10 -2.18324e-11 8.07047e-11 -4.6117e-11 
-3.17532e-10 -4.20019e-10 -2.21265e-10 -1.64278e-10 -2.45103e-10 -1.67387e-10 4.89113e-10 4.28623e-10 2.75321e-10 
5.2296e-11 -8.96719e-11 6.27703e-11 4.93012e-10 6.01265e-10 3.28283e-10 1.57227e-10 7.47266e-11 5.08141e-11 
-3.82477e-10 -3.97014e-10 -2.33847e-10 -1.31177e-10 1.1209e-10 1.49453e-10 3.06583e-10 1.05551e-09 4.08627e-10 
1.32662e-10 -4.8679e-11 -3.45877e-11 -1.75587e-10 4.28306e-11 -3.98269e-11 2.03999e-11 -2.80225e-11 4.53964e-11 
-4.94801e-10 -2.50596e-10 -2.23619e-10 -4.69775e-11 5.67922e-11 1.56926e-10 4.12207e-10 1.04823e-09 4.38131e-10 
8.46602e-11 5.38031e-11 -1.04617e-11 5.66851e-11 6.20758e-10 2.03233e-10 2.35229e-10 -1.47959e-10 -1.24793e-10 
3.21073e-10 1.34292e-10 1.36609e-10 2.38988e-11 -4.87591e-11 -5.83801e-11 -1.05925e-10 -5.42704e-11 -4.80585e-11 
-7.24448e-11 -1.43475e-10 -5.52976e-11 4.80972e-10 6.65846e-10 3.44046e-10 2.42002e-10 -1.19562e-10 -2.28663e-10 
-2.12808e-10 -2.84766e-10 -1.49272e-10 9.15949e-11 1.47959e-10 -3.36269e-11 -1.52837e-10 -1.95342e-10 -1.04454e-10 
-1.01622e-10 6.27703e-11 -1.19236e-10 -1.06534e-10 -2.79943e-10 -1.15943e-10 -1.68494e-10 1.24793e-10 1.68882e-10 
-1.85292e-10 -3.4083e-10 -1.57836e-10 -1.03493e-10 -5.82867e-11 -8.89246e-11 2.1229e-10 1.79324e-10 1.17484e-10 
-4.07499e-11 -1.07606e-10 -1.00881e-10 -1.08371e-11 2.88181e-11 5.39432e-12 -5.60024e-11 4.33414e-11 -8.07047e-11 
1.13346e-10 4.71272e-10 1.75386e-10 -1.59977e-10 -6.22099e-11 -1.1265e-10 1.76198e-10 9.44987e-11 8.12091e-11 
1.05401e-10 2.8695e-11 -1.36301e-10 6.29269e-11 -1.25777e-10 -1.88551e-11 1.14648e-10 2.81826e-11 1.05364e-10 
7.24723e-11 -3.55032e-10 -8.47679e-11 -4.43021e-11 1.40486e-10 -2.39125e-11 2.61948e-10 4.10824e-10 2.01832e-10 
9.63455e-11 4.7825e-11 4.7825e-11 -2.22661e-10 -1.43633e-10 -1.09888e-10 -1.11388e-10 -6.00481e-11 3.2506e-11 
6.30724e-11 -9.03943e-11 -8.19657e-12 9.53192e-11 6.87951e-11 -5.42702e-11 -2.83464e-10 -6.61593e-10 -2.83517e-10 
-1.18368e-11 -7.47266e-11 3.28797e-11 -1.00716e-10 -2.50312e-10 -1.05308e-10 -2.63485e-11 -7.17375e-12 3.46731e-11 
-2.93087e-11 -1.59142e-10 -5.65353e-11 -4.53624e-11 -1.09848e-10 -2.76488e-11 2.72533e-10 1.08339e-10 1.14262e-10 
1.34551e-10 2.15212e-10 4.67443e-25 2.75439e-10 2.82675e-10 1.67434e-10 -2.2906e-11 -1.01628e-10 2.69016e-11 
-4.02315e-10 -5.65511e-10 -2.90348e-10 5.35896e-11 8.74301e-11 6.72539e-12 1.89646e-10 9.38478e-11 8.50482e-11 
3.10962e-10 -5.97812e-12 8.36937e-11 2.55646e-10 3.1127e-10 1.70075e-10 -4.97791e-11 8.00149e-11 5.79418e-11 
-2.26538e-10 -9.20981e-10 -3.44256e-10 4.88237e-11 -1.13584e-10 3.96051e-11 3.00271e-11 -1.0849e-10 -2.35389e-11 
1.27035e-11 3.45877e-11 6.91754e-11 -9.77839e-11 6.03539e-11 -1.1229e-11 4.75304e-11 1.02482e-11 -1.1273e-10 
5.95574e-11 5.47529e-10 1.82126e-10 1.78799e-11 -1.05244e-10 1.45997e-10 7.31868e-12 -4.88658e-10 -1.44402e-10 
5.7718e-11 -1.51752e-10 -7.17375e-11 -1.86675e-10 -1.50295e-10 -1.01091e-10 2.24029e-11 2.98906e-11 1.01628e-10 
3.12967e-10 9.63456e-10 3.82927e-10 1.95656e-10 2.78944e-10 -3.09048e-11 -4.29826e-11 -1.33734e-10 -5.3015e-11 
-8.87302e-11 -8.96719e-12 1.47959e-10 3.33083e-10 5.81311e-10 2.74318e-10 -6.71646e-11 1.10365e-10 2.48322e-11 
4.29134e-11 2.26703e-10 8.08848e-11 -1.44757e-10 6.78944e-11 9.89593e-11 1.90561e-10 5.9687e-10 2.36229e-10 
-6.98665e-12 2.09234e-11 1.34508e-11 1.91757e-10 3.10195e-10 1.50586e-10 9.13213e-11 -9.8639e-11 4.48359e-11 
1.52895e-10 3.65987e-10 1.55665e-10 4.83417e-11 7.17375e-11 -3.58687e-11 3.05532e-10 4.9124e-10 2.39032e-10 
2.31588e-11 -2.39125e-11 2.98906e-11 9.5487e-11 2.73809e-10 1.10789e-10 -2.33582e-11 -5.38031e-11 -5.89272e-11 
2.49123e-10 3.90189e-10 1.91794e-10 -1.03055e-10 -3.90713e-11 -5.38031e-11 -1.26985e-10 -1.51946e-10 -8.36794e-11 
9.00484e-11 -3.31096e-11 -1.03468e-11 -3.30617e-11 1.8098e-10 4.43756e-11 -6.8304e-11 -6.75742e-11 4.70777e-11 
1.90143e-10 -2.91724e-10 -3.04744e-11 8.36649e-11 4.7825e-11 4.93195e-11 -1.73018e-10 -5.57652e-11 -6.8635e-11 
-4.71047e-11 -1.44115e-10 6.18095e-11 -3.36609e-10 -3.1141e-10 -1.94406e-10 -8.43805e-11 -6.50121e-11 -1.94289e-11 
1.4199e-10 2.40116e-10 1.14632e-10 -4.47545e-11 -2.58607e-11 2.3699e-11 1.10839e-10 4.42855e-11 4.65373e-11 
7.03673e-11 5.38031e-11 5.12411e-12 7.1325e-11 -5.27203e-12 1.98159e-11 2.19958e-11 -6.37311e-11 -1.03763e-10 
1.98186e-11 1.98757e-10 6.55725e-11 3.12302e-11 -1.18643e-10 -3.86279e-11 -3.48489e-11 -4.82177e-11 -2.492e-11 
-3.53139e-11 -8.19857e-11 -4.35549e-11 2.66053e-10 3.65654e-10 1.89512e-10 -1.04366e-10 2.04964e-11 -1.28103e-11 
2.95944e-11 7.17535e-11 3.04044e-11 7.6565e-11 -5.97812e-11 -2.69016e-11 1.76644e-10 2.02522e-10 1.1375e-10 
1.56212e-10 7.03579e-11 7.72558e-11 -3.75239e-12 3.92475e-11 1.06485e-11 -8.67939e-11 -7.17375e-11 8.96719e-11 
-1.19657e-10 -2.41833e-10 -1.08447e-10 6.46251e-11 4.35549e-11 1.09528e-10 -4.07279e-10 -9.30193e-10 -4.01242e-10 
-6.02367e-11 3.07446e-11 -6.40513e-11 8.9584e-11 2.50288e-10 1.01962e-10 7.48994e-11 -9.25542e-11 -3.01041e-11 
-2.04539e-10 -6.44761e-11 -8.07047e-11 -9.39753e-11 1.27035e-11 2.57807e-11 1.10205e-10 6.25851e-10 2.20817e-10 
1.56077e-10 4.7825e-11 -1.19562e-11 7.41363e-10 9.82234e-10 5.17079e-10 1.20936e-11 1.32438e-10 -4.69053e-11 
3.98124e-10 4.24658e-10 2.46835e-10 4.13673e-11 -6.82886e-11 -1.72446e-11 1.1673e-10 -2.83041e-11 2.65279e-11 
-9.35529e-11 1.99271e-12 -5.67922e-11 2.76014e-11 2.15547e-10 7.29446e-11 1.49154e-10 -2.2349e-10 -6.48397e-11 
1.47777e-10 6.22374e-10 2.31045e-10 3.05107e-11 5.97812e-11 1.01628e-10 -2.10764e-10 -4.45895e-10 -1.96998e-10 
-9.06418e-11 -1.34508e-10 3.68651e-11 -1.11171e-10 9.49785e-13 -3.30665e-11 5.99868e-11 2.98906e-11 3.58687e-11 
-4.49692e-10 -5.02138e-10 -2.85549e-10 1.76665e-10 2.39125e-11 -5.97812e-11 7.92438e-11 2.30404e-10 9.28944e-11 
4.31518e-11 -1.01628e-10 -1.15079e-10 2.798e-11 6.91645e-11 2.91434e-11 -2.83461e-11 -2.2418e-12 -4.33414e-11 
2.49331e-10 9.34051e-11 1.02821e-10 -2.37937e-10 4.52498e-10 1.37957e-10 4.77651e-10 9.25944e-10 4.21079e-10 
1.22074e-10 3.62907e-10 7.17375e-11 -2.72667e-10 -3.12265e-10 -1.7548e-10 -1.03497e-10 -1.84063e-10 2.87894e-11 
2.53622e-10 3.88954e-10 1.92773e-10 -1.07705e-10 -1.21402e-10 -1.65548e-11 -1.17005e-10 -3.21453e-10 -1.31537e-10 
1.40103e-11 2.15212e-11 1.43475e-11 8.3311e-13 1.73093e-10 5.21778e-11 9.98196e-11 1.41084e-10 1.26736e-10 
4.15598e-11 2.08961e-10 7.51562e-11 4.25072e-11 -6.21725e-11 2.15212e-11 -1.28285e-10 -4.05076e-10 -1.60008e-10 
4.61744e-11 9.565e-11 -2.15212e-11 -1.30284e-10 -3.58007e-10 -1.46487e-10 -2.16625e-10 9.71445e-12 -1.04617e-10 
2.13767e-10 2.0657e-10 1.26101e-10 -8.61725e-11 2.98906e-11 1.86816e-11 -4.32437e-10 -1.46445e-09 -5.69066e-10 
-3.34839e-10 -2.30158e-10 6.72539e-12 4.34343e-10 2.76493e-10 2.13251e-10 -3.04807e-11 3.58687e-11 -1.64398e-11 
-2.72937e-10 -2.08834e-10 -1.44531e-10 2.31144e-11 7.86353e-11 1.24161e-11 1.55399e-10 3.21182e-11 5.62551e-11 
4.549e-11 4.7825e-11 -4.48359e-11 2.35193e-11 4.1708e-10 1.3218e-10 -6.17145e-11 -1.17263e-10 2.75913e-12 
-2.28984e-10 -3.53416e-10 -1.7472e-10 -2.14546e-10 -7.17375e-11 9.8639e-11 -5.07169e-11 -4.17572e-11 -2.77422e-11 
-7.27643e-11 1.03315e-10 -3.748e-12 2.46928e-10 2.05541e-10 1.35741e-10 4.78282e-11 -3.27302e-11 3.31786e-11 
3.82598e-10 2.98873e-10 2.04441e-10 -4.29423e-11 -9.71328e-11 -5.5467e-11 2.8261e-10 6.13361e-10 2.68791e-10 
6.49182e-11 -2.92031e-10 -8.4441e-11 2.56184e-11 -3.2157e-11 -1.96157e-12 6.14195e-11 -1.19064e-10 7.62211e-11 
-7.28465e-11 -4.01854e-10 -1.4241e-10 1.14708e-10 -7.89112e-11 -8.6085e-11 3.91497e-10 5.00707e-10 2.67661e-10 
-1.36636e-10 -5.57958e-11 2.98906e-11 9.15683e-11 7.54126e-11 5.00943e-11 1.61085e-11 2.7851e-10 6.32978e-11 
1.81637e-10 -1.25241e-10 1.69186e-11 1.78561e-10 -8.81306e-11 7.56606e-12 -5.09517e-11 3.06481e-10 7.66589e-11 
-2.91747e-11 6.16494e-11 6.30505e-12 1.69806e-10 1.22428e-10 8.76703e-11 6.22246e-11 -4.8679e-11 2.28663e-10 
5.02648e-10 6.09143e-10 3.33537e-10 1.10943e-10 1.913e-10 7.17375e-11 -2.9637e-10 -6.81559e-11 -1.09358e-10 
-1.09471e-11 -2.09234e-11 8.96719e-12 2.88163e-11 2.13978e-10 7.28384e-11 -2.00775e-11 1.04724e-10 5.66854e-11 
1.79958e-10 3.52157e-10 1.59635e-10 2.89792e-10 -6.37667e-11 3.18833e-11 -1.51803e-10 -4.65555e-11 -5.95077e-11 
-1.716e-10 1.79344e-11 -4.6117e-11 -1.02025e-10 -9.6623e-11 -5.95944e-11 1.79728e-10 2.87216e-26 3.98542e-12 
1.19818e-10 6.47295e-11 5.53644e-11 -1.09108e-10 -2.30425e-10 2.08167e-12 2.65117e-10 2.58648e-10 1.5713e-10 
1.68877e-10 2.60864e-11 3.91295e-11 1.11812e-11 8.1232e-12 5.79131e-12 -8.96224e-12 -1.59417e-11 -2.39125e-11 
2.30149e-10 6.1944e-10 2.54877e-10 1.38533e-10 -2.00539e-10 4.23903e-11 1.29968e-11 1.00961e-10 3.41874e-11 
-8.38635e-11 -5.97812e-12 -2.19198e-11 -2.75624e-10 -4.17532e-10 -2.07947e-10 -1.52347e-10 1.07926e-10 1.15292e-10 
6.23107e-10 5.56264e-10 3.53812e-10 9.56448e-11 -1.49453e-11 1.10595e-11 -3.12292e-10 -4.84346e-10 -2.38992e-10 
-3.12398e-10 -1.63971e-10 -1.02482e-11 3.6996e-10 1.63027e-10 1.59896e-10 -1.55527e-10 -2.51081e-11 3.76622e-11 
-3.07966e-12 2.43908e-10 7.22485e-11 -6.01661e-11 3.50248e-10 1.16046e-11 -7.09421e-11 -1.45031e-10 -6.47919e-11 
7.85583e-12 1.47318e-11 1.6237e-10 1.05229e-10 6.38945e-11 5.07371e-11 -7.34455e-11 5.53856e-11 -8.07047e-11 
-4.34324e-13 3.5732e-10 1.07066e-10 -1.39669e-10 3.85589e-10 1.51161e-10 3.3065e-12 2.89847e-12 1.86149e-12 
3.12186e-11 1.53723e-11 3.33067e-11 -1.56923e-10 -4.16337e-10 -1.71978e-10 -1.8767e-10 -1.53723e-11 -2.56205e-12 
2.0251e-10 -2.02001e-10 1.5285e-13 1.27836e-10 8.80415e-11 5.54335e-11 -5.01886e-11 -9.39997e-11 -4.32565e-11 
-8.43784e-11 2.60864e-11 -4.56511e-11 -2.06902e-10 -6.78207e-10 -2.65533e-10 -2.95515e-11 1.8703e-10 1.35789e-10 
-1.51644e-10 -1.34786e-10 -8.59289e-11 7.08292e-12 -6.66134e-11 1.28103e-10 -1.45484e-10 -7.63875e-12 -4.59368e-11 
9.65732e-11 -1.33227e-10 -3.58687e-11 1.72627e-10 2.57118e-10 1.28923e-10 1.71833e-10 -1.08887e-10 -9.8639e-11 
2.50204e-10 4.79605e-10 2.18943e-10 7.95551e-11 1.79344e-10 8.07047e-11 7.59786e-10 1.32266e-09 6.24733e-10 
3.37883e-10 4.7825e-11 -4.7825e-12 -8.08714e-11 1.61202e-10 2.40993e-11 -8.54811e-11 6.3667e-11 -1.76355e-11 
2.24956e-10 6.13103e-10 2.51417e-10 3.31671e-11 3.58687e-11 -5.97812e-11 -2.6988e-10 -1.70447e-10 -1.32098e-10 
1.25542e-10 4.30823e-26 -4.7825e-12 -5.13739e-11 -2.46411e-10 -8.93356e-11 -3.94587e-11 3.826e-11 7.652e-11 
6.46168e-10 7.67472e-10 4.24092e-10 7.17066e-11 5.61944e-11 8.72806e-11 -1.52047e-10 -9.81003e-11 -7.50441e-11 
1.0318e-10 3.34775e-11 5.49987e-11 -4.20126e-10 -3.84679e-10 -2.41441e-10 -8.63908e-11 1.19562e-11 3.826e-11 
1.56712e-10 -2.50681e-10 -2.81906e-11 4.39438e-11 -7.26342e-11 8.13025e-11 1.8e-10 2.32565e-11 6.09769e-11 
1.29881e-10 -9.80412e-11 -4.7825e-11 2.04979e-10 5.28089e-10 2.1992e-10 2.00686e-11 -8.13025e-11 1.82333e-11 
1.01125e-10 5.07838e-10 1.82689e-10 7.561e-12 6.72539e-11 1.1209e-11 3.10081e-10 5.24148e-10 2.50269e-10 
-7.61467e-11 -1.34508e-11 -8.67575e-11 1.00283e-10 -1.86627e-10 -2.59033e-11 -5.08456e-11 -8.40674e-11 1.1209e-12 
-1.52583e-11 -5.2774e-11 -2.04097e-11 4.0973e-11 -4.7825e-11 -8.96719e-11 -2.20398e-10 -3.24839e-10 -1.63571e-10 
-1.61062e-10 -6.91754e-11 -1.84468e-10 5.50152e-10 5.10673e-10 3.18248e-10 2.39259e-10 1.34508e-11 3.2506e-11 
1.2161e-10 2.26803e-10 1.04524e-10 7.93354e-11 -8.87751e-11 1.61409e-11 1.76144e-10 2.6549e-10 1.3249e-10 
-1.68146e-11 -2.87697e-11 5.52976e-12 1.2822e-10 9.7081e-11 6.75902e-11 -9.05014e-11 7.17375e-12 1.06411e-10 
1.22374e-12 -2.98449e-10 -8.91675e-11 2.56792e-11 2.39125e-12 -1.07606e-11 -4.24452e-11 -2.01383e-11 -1.8775e-11 
1.17253e-10 1.913e-11 -4.7825e-11 4.52662e-10 3.41307e-10 2.38191e-10 1.29252e-10 -2.39125e-11 -2.27169e-11 
9.30854e-11 1.77425e-10 8.1153e-11 -1.00811e-11 5.97812e-11 7.53244e-11 -4.79166e-11 3.27954e-10 8.40113e-11 
9.60758e-11 -2.39125e-11 -2.15212e-11 -4.71731e-11 -7.57521e-11 -3.68776e-11 1.2403e-10 2.39125e-11 -2.8695e-11 
-2.58501e-10 -9.06113e-10 -3.49384e-10 8.35738e-12 2.03256e-10 -2.63037e-11 1.27384e-10 -1.08516e-10 5.66054e-12 
1.18522e-10 2.21191e-11 1.22552e-11 3.94125e-11 2.11389e-10 7.52403e-11 -1.46747e-10 -2.2418e-12 1.05364e-10 
1.3898e-11 5.40386e-10 1.66285e-10 -6.62842e-11 -1.79344e-10 -2.51081e-11 3.04618e-11 1.60866e-11 1.39645e-11 
-7.69455e-11 -5.77885e-11 -6.67557e-11 -1.4799e-10 -3.43959e-10 -1.47585e-10 -3.38635e-11 5.38031e-11 -1.49453e-11 
-6.62263e-10 -1.12517e-09 -5.3623e-10 -6.34517e-11 1.17854e-10 -1.28103e-11 1.13805e-10 -4.14136e-11 2.17174e-11 
2.67438e-10 5.38031e-11 1.56552e-10 -1.59271e-10 -2.43085e-10 -1.20707e-10 -1.6962e-10 -6.87484e-11 -2.09234e-11 
-2.02209e-11 -1.78429e-11 -1.14192e-11 -3.212e-11 -6.87484e-11 6.12758e-11 -3.48739e-10 -4.59008e-10 -2.42324e-10 
-1.80742e-10 5.82867e-11 -5.23086e-11 6.32329e-11 4.65218e-11 3.29264e-11 -1.01324e-10 1.10595e-10 -2.98906e-12 
-5.08487e-11 -4.67628e-11 -2.92835e-11 4.12359e-11 -1.97278e-10 1.01628e-10 -5.82072e-11 -4.59928e-10 -1.55441e-10 
-1.68628e-10 -4.66294e-10 -1.89208e-10 3.33033e-10 4.50795e-10 2.35148e-10 1.28705e-10 -2.43395e-10 -2.56205e-11 
-1.43486e-10 -8.67654e-11 -6.90754e-11 1.95757e-10 -7.47266e-12 1.71871e-11 -3.67509e-10 -6.96266e-10 -3.19133e-10 
-1.53762e-10 1.2692e-10 -8.82923e-11 -6.39287e-10 -7.89349e-10 -4.28591e-10 -2.29304e-10 -2.93472e-10 -6.52159e-12 
-6.49631e-11 -2.1195e-10 -8.30738e-11 -6.60353e-11 -1.79344e-11 9.78238e-12 -3.35835e-10 -1.12524e-10 -1.34508e-10 
-3.64421e-11 -8.47807e-11 -7.17375e-11 -5.67634e-10 -3.79213e-10 -2.84054e-10 -2.83028e-11 -3.58687e-11 -2.4311e-10 
5.96945e-11 2.9721e-10 1.07071e-10 -2.26598e-11 5.54335e-11 -1.6304e-11 -3.67622e-10 -4.67759e-10 -2.50614e-10 
-6.00914e-11 -7.57229e-11 -2.23183e-10 2.64218e-10 1.44655e-10 1.22662e-10 5.48252e-11 4.56511e-11 6.52159e-12 
1.67093e-10 4.88633e-10 1.96718e-10 9.35729e-11 1.30432e-10 -1.6304e-11 2.65555e-10 1.39752e-10 1.21592e-10 
2.81819e-11 1.30432e-11 -3.91295e-11 4.26759e-10 5.03275e-10 2.7901e-10 4.00896e-11 1.55431e-10 -1.83329e-10 
3.03413e-10 2.35382e-10 1.61639e-10 5.14504e-11 1.10867e-10 -7.82591e-11 4.00035e-10 3.12358e-10 2.13718e-10 
3.6204e-11 -2.39125e-11 1.31519e-10 -3.83565e-10 -3.44668e-10 -2.1847e-10 2.23747e-11 -7.17375e-11 -3.22819e-10 
6.49413e-11 2.20888e-10 8.57487e-11 2.28922e-10 1.70377e-10 8.96719e-11 1.02942e-10 5.23025e-11 4.65733e-11 
4.26196e-12 -1.1478e-10 -7.89112e-11 -4.76087e-11 1.08791e-10 1.83547e-11 5.60476e-11 -1.79344e-10 8.81773e-11 
8.8159e-11 1.35256e-10 6.70246e-11 -4.70026e-11 -1.43475e-10 1.32062e-10 -5.21999e-10 -4.22867e-10 -2.8346e-10 
1.33572e-10 1.66301e-10 1.36953e-10 1.04481e-10 9.72809e-11 6.05285e-11 -3.00245e-12 -3.26079e-12 3.66839e-11 
1.94631e-10 2.79967e-10 1.4238e-10 4.41767e-11 -9.13023e-11 -1.01085e-10 -3.67168e-10 -4.74129e-10 -2.52389e-10 
-3.20418e-12 -1.59417e-10 1.59417e-11 5.34388e-10 3.10616e-10 2.53501e-10 7.30758e-11 6.52159e-12 -4.23903e-11 
-1.62726e-10 3.45866e-11 -3.84417e-11 1.35942e-10 1.46736e-10 2.41299e-10 -1.29686e-10 -1.58181e-10 -8.63601e-11 
-7.297e-11 8.83579e-25 9.45631e-11 6.17871e-11 3.93829e-12 1.97176e-11 -4.09542e-11 9.13023e-11 -6.52159e-12 
1.98171e-10 -6.41727e-11 4.01995e-11 -1.23246e-10 3.13036e-10 -6.84767e-11 -2.51052e-10 -1.17362e-11 -7.88365e-11 
1.27187e-10 -1.27533e-10 -6.77521e-11 -1.90502e-10 -3.55936e-10 -1.63931e-10 -1.11795e-10 5.54335e-11 3.42383e-11 
1.35223e-10 1.87658e-10 9.68643e-11 5.64258e-11 1.99271e-10 -1.27533e-10 -4.72134e-10 -2.37185e-10 -2.12796e-10 
1.97678e-10 1.07606e-10 -1.34508e-10 -4.26091e-10 -6.97609e-10 -3.3711e-10 1.41062e-10 6.54605e-11 -4.21458e-11 
-4.35351e-11 -3.30284e-10 -1.12146e-10 -1.48694e-11 2.54668e-10 -1.70377e-10 5.15446e-10 5.85836e-10 3.30385e-10 
3.20373e-10 1.37497e-10 -8.07047e-11 1.07423e-10 2.28146e-10 1.00671e-10 1.94137e-10 -6.57594e-11 -6.87484e-11 
4.69596e-10 1.09522e-09 4.69446e-10 7.81005e-11 2.63037e-10 1.19562e-10 -1.08078e-10 -4.22714e-10 -1.59238e-10 
1.85513e-11 6.87484e-11 2.5407e-11 5.62604e-11 1.22032e-10 5.34879e-11 6.46411e-11 1.38991e-10 1.61409e-10 
3.03026e-10 2.39033e-10 1.62618e-10 3.65072e-11 2.7462e-11 -4.48359e-11 -8.58606e-11 -2.81514e-10 -1.10212e-10 
-6.8665e-11 -1.56926e-11 5.96318e-11 -2.24619e-10 1.64651e-10 -1.79904e-11 -1.11982e-10 -7.53244e-11 -1.81137e-10 
2.27086e-10 -1.37149e-11 6.40113e-11 -1.06743e-10 -5.29624e-11 -1.19976e-10 2.8692e-10 -2.90439e-13 8.59889e-11 
-1.28075e-10 -1.41553e-10 8.83508e-11 -5.05411e-11 -4.05945e-10 -1.36946e-10 4.99966e-11 -3.9635e-10 1.01329e-10 
-1.69591e-11 -6.87896e-11 -2.57246e-11 3.54919e-11 -6.00801e-11 1.1747e-10 1.88575e-10 8.2864e-10 3.05165e-10 
9.80441e-12 -2.41516e-10 -1.60214e-10 -1.91657e-10 6.097e-11 -3.9206e-11 -8.3991e-11 6.52159e-11 -1.32062e-10 
1.41359e-10 -1.05105e-10 1.08762e-11 5.54737e-11 -9.30346e-11 6.58528e-11 3.55288e-10 1.95528e-10 1.65245e-10 
-1.23681e-10 -3.55325e-10 9.41555e-11 4.14641e-10 4.77594e-10 2.6767e-10 2.93301e-11 -1.79344e-12 6.09769e-11 
1.65728e-10 3.5605e-10 1.56533e-10 8.10647e-11 6.65622e-26 -1.43475e-11 6.51178e-11 6.3027e-10 2.08616e-10 
-9.71846e-11 4.71812e-10 6.89784e-11 -1.31718e-10 -3.05177e-10 -1.31069e-10 5.69076e-11 -7.17375e-11 -5.54335e-11 
-1.06504e-10 1.58237e-10 1.55201e-11 3.42923e-11 -1.14504e-10 2.75913e-12 -2.01422e-10 -5.53655e-11 -7.70363e-11 
-7.79146e-11 2.08691e-10 6.52159e-12 -1.50922e-10 3.26488e-12 -4.4297e-11 -7.11111e-11 9.93288e-11 -1.7624e-10 
-2.36248e-10 -1.29062e-10 -1.09593e-10 -1.24991e-11 -9.78238e-11 -1.82605e-10 -3.14015e-10 -2.39752e-10 -1.6613e-10 
-1.53038e-11 3.36269e-11 -2.96607e-11 2.48708e-11 1.59313e-10 5.52552e-11 -4.05702e-11 2.16231e-10 -1.71701e-10 
2.06229e-10 4.88297e-10 2.08358e-10 1.53802e-10 1.9038e-10 -1.51752e-11 9.14838e-11 -1.00655e-10 -2.7513e-12 
1.37594e-10 1.85865e-10 -4.89119e-11 1.36623e-10 -8.76919e-11 1.46795e-11 -1.09879e-11 -7.86353e-11 -1.25541e-10 
-4.40627e-11 6.72449e-11 6.95466e-12 9.5964e-11 9.41555e-11 -1.2391e-10 6.5806e-11 6.87018e-11 4.03523e-11 
1.2208e-10 -1.65548e-11 6.89784e-11 2.49447e-10 5.08281e-10 2.27318e-10 1.01668e-10 -1.16573e-11 -6.3667e-11 
2.48607e-10 4.53822e-10 2.10729e-10 6.51393e-11 2.78979e-11 -1.81336e-10 1.25218e-10 1.16009e-10 7.2368e-11 
-2.47561e-10 -3.06379e-11 -6.57594e-11 -3.18979e-10 -4.7147e-10 -2.37135e-10 -1.78729e-10 -2.20731e-11 7.03579e-11 
-1.60996e-10 -1.33239e-10 -8.82707e-11 -4.09517e-11 -6.52159e-11 1.09237e-10 -3.02762e-10 -4.18493e-10 -2.16376e-10 
4.37894e-11 1.65893e-10 -3.62136e-11 6.26374e-11 -1.73199e-10 -3.31684e-11 -4.11585e-11 6.76615e-11 -5.40069e-11 
1.26516e-10 1.81084e-10 9.22801e-11 -2.76488e-11 -9.38106e-11 1.47143e-25 4.29974e-12 -3.73687e-10 -1.10816e-10 
6.72475e-11 1.11071e-10 1.53869e-11 3.0725e-13 -4.71947e-10 -1.41492e-10 -1.04972e-11 1.54512e-10 9.93288e-11 
-4.19376e-10 -6.70698e-10 -3.27022e-10 -2.61054e-11 2.0543e-10 5.86943e-11 2.69367e-12 9.53849e-11 2.94236e-11 
1.54133e-11 2.20731e-11 -1.10365e-10 5.65688e-12 -4.88407e-10 -1.44825e-10 -2.55832e-10 1.04345e-10 -9.78238e-12 
-3.34046e-10 -3.4302e-10 -2.0312e-10 -7.80468e-11 -6.6909e-11 -1.59081e-10 -8.95791e-12 -1.08227e-10 -3.51554e-11 
2.29611e-11 1.6304e-11 -3.09776e-11 3.46658e-10 2.08618e-10 1.66583e-10 2.40518e-10 2.04866e-10 8.2774e-12 
-1.78608e-10 3.03589e-10 3.7494e-11 1.26417e-11 3.51514e-10 -5.38031e-11 -2.47096e-10 -8.66641e-10 -3.34121e-10 
8.03997e-12 2.55067e-10 -1.59417e-10 -1.24454e-10 -4.55489e-11 -5.10009e-11 -9.53539e-11 9.71445e-11 1.04617e-10 
-6.61542e-10 -1.58002e-09 -6.72469e-10 -1.24517e-13 3.42528e-10 -3.98386e-11 1.60445e-11 4.73882e-12 6.235e-12 
-1.07291e-11 -1.49453e-12 2.61543e-11 -2.15886e-11 6.58641e-11 1.32826e-11 5.368e-11 -1.75757e-10 -2.51081e-11 
-4.27053e-11 -7.38682e-11 -3.4972e-11 -1.45913e-11 -7.53244e-11 -8.6085e-11 -3.9092e-10 -8.58619e-11 -1.43035e-10 
-1.15287e-10 -6.14893e-11 -1.40913e-10 -7.78653e-11 -2.00558e-10 -8.35269e-11 5.56319e-11 2.04964e-11 -5.12411e-11 
2.2005e-10 4.91195e-10 2.13373e-10 5.3637e-11 1.27782e-10 -6.72539e-11 -4.84015e-10 -1.11922e-09 -4.8097e-10 
-1.70351e-10 1.92795e-10 -3.13852e-11 6.92278e-11 -7.43652e-11 -1.54124e-12 2.35832e-11 4.85723e-11 -7.62211e-11 
-1.64019e-10 -1.66413e-10 -9.91294e-11 3.32696e-10 -3.43742e-11 1.19562e-10 -1.83361e-10 -2.33707e-10 -1.2512e-10 
1.8587e-10 1.79344e-11 2.98906e-12 6.48635e-11 -7.46713e-11 -2.94236e-12 6.32105e-11 -1.61409e-10 -6.57594e-11 
4.75184e-10 8.73396e-10 4.04574e-10 1.16857e-10 -1.73366e-10 4.18469e-11 3.575e-10 5.7873e-10 2.80869e-10 
2.54962e-10 -7.17375e-11 4.66294e-11 -3.42302e-10 -3.81798e-10 -2.1723e-10 -1.26518e-10 8.07047e-11 1.97278e-11 
3.00726e-10 -1.16712e-10 5.52042e-11 4.58741e-11 2.39125e-11 -1.19562e-10 4.54132e-10 6.99553e-10 3.46105e-10 
1.17425e-10 -2.76189e-10 -1.86517e-10 -5.10164e-11 -2.28087e-10 -8.37311e-11 7.98737e-12 1.43475e-11 -5.739e-11 
9.77083e-11 -1.73135e-10 -2.26281e-11 1.56492e-11 7.3232e-11 9.11664e-11 2.04174e-11 -5.80142e-11 -1.1279e-11 
1.34001e-10 1.08353e-10 -1.60288e-10 -3.44545e-11 -2.39605e-10 -8.22179e-11 1.03398e-10 1.43475e-10 -1.86517e-10 
-9.91733e-11 -1.25847e-10 -6.75061e-11 -8.74748e-11 2.15212e-11 -4.84228e-11 -2.29257e-10 -1.10749e-10 -1.02002e-10 
9.37534e-11 3.13852e-11 -1.18815e-10 2.61781e-10 1.7705e-10 1.31649e-10 -1.79588e-12 1.48855e-10 -2.60048e-11 
-2.16405e-10 -4.68043e-10 -2.05335e-10 4.12635e-11 -5.30559e-11 6.87484e-11 4.29163e-10 8.90366e-11 1.5546e-10 
3.21009e-11 1.35198e-10 -1.02088e-10 1.68192e-10 2.67277e-10 1.30641e-10 -5.13329e-11 1.00432e-10 -4.30425e-11 
-7.09906e-11 -2.10164e-11 -2.76021e-11 -1.49666e-11 5.67922e-11 -9.26609e-11 -5.06229e-11 6.12314e-11 3.18255e-12 
-7.9508e-12 -2.04964e-10 -7.68616e-11 1.61186e-10 1.47061e-10 9.24741e-11 -1.58915e-10 1.22552e-10 5.08141e-11 
-6.06128e-10 -6.40638e-10 -3.7403e-10 2.63975e-11 -5.97812e-12 5.97812e-11 -2.72291e-10 -2.92562e-10 -1.69456e-10 
-9.74077e-12 3.4908e-10 4.48359e-11 1.10546e-10 1.29326e-10 7.19617e-11 1.20419e-10 -7.17375e-12 4.66294e-11 
2.6054e-10 2.12572e-10 1.41934e-10 4.74284e-11 2.09234e-11 1.64398e-10 -1.25876e-10 2.25936e-11 -3.09848e-11 
-2.18437e-11 2.81826e-11 -5.12411e-12 -6.11733e-11 2.26075e-10 4.94704e-11 -7.04158e-11 1.46924e-10 -8.69127e-11 
1.65355e-10 -3.52872e-10 -5.62551e-11 1.61956e-10 1.16573e-10 4.48359e-11 3.36972e-10 5.86523e-10 2.77049e-10 
-5.85791e-11 -4.46367e-10 -1.913e-10 4.71867e-10 8.5126e-10 3.96938e-10 3.50751e-11 2.03256e-10 2.09234e-11 
1.57561e-10 -2.55079e-10 -2.92554e-11 5.41352e-11 -1.86517e-10 7.17375e-11 2.36217e-10 1.7179e-10 1.22402e-10 
1.48899e-10 3.94556e-11 -2.69016e-10 -2.12476e-10 -1.85443e-10 -1.19376e-10 5.68156e-11 5.24235e-11 -5.24235e-11 
-1.94817e-10 -4.54603e-10 -1.94826e-10 1.02854e-10 -5.52976e-11 1.04617e-10 -9.23986e-11 -1.95392e-10 -8.63372e-11 
-1.13577e-10 -5.38031e-11 -1.34508e-10 1.6632e-10 2.77603e-10 1.33177e-10 -3.29646e-11 5.97812e-12 9.565e-11 
4.25356e-10 4.07191e-10 2.49764e-10 1.52905e-10 -4.30425e-11 -1.43475e-11 -1.99854e-10 -2.63451e-10 -1.38991e-10 
4.38563e-11 -2.98906e-12 7.92101e-11 -1.02834e-10 8.30032e-11 -5.94938e-12 1.11435e-10 -1.68307e-10 -1.37957e-11 
3.82469e-10 1.33984e-10 1.54936e-10 1.53277e-10 1.01329e-10 -1.02674e-10 -4.61685e-12 -3.47906e-10 -1.05757e-10 
8.02527e-11 5.46998e-11 -1.4751e-10 2.68271e-11 -2.40249e-11 8.40674e-13 8.85034e-11 -4.33414e-11 9.41555e-11 
-1.1702e-10 2.51066e-11 -2.75741e-11 1.09541e-10 -3.58687e-11 -1.07606e-10 -1.09802e-10 -3.94178e-11 -4.47659e-11 
-5.0159e-11 8.96719e-12 -1.27035e-10 1.3739e-10 -7.83999e-12 3.8865e-11 -1.49897e-10 -8.2774e-12 -4.00074e-11 
1.1223e-10 -4.55362e-11 2.0008e-11 -1.28887e-11 2.45701e-10 -8.96719e-13 8.25915e-11 -9.15586e-11 -2.69016e-12 
-3.86661e-11 3.08471e-10 1.1478e-10 -3.65796e-10 -2.0306e-10 -1.70657e-10 1.30186e-11 3.91295e-11 -1.10867e-10 
3.9102e-10 6.49815e-11 1.36801e-10 -6.63124e-11 4.56511e-11 9.21175e-11 -2.53686e-11 -1.27736e-10 -4.59314e-11 
-2.59263e-10 1.46736e-10 1.30432e-11 -5.66968e-10 -4.47014e-10 -3.04195e-10 -1.83328e-10 -1.65548e-11 3.86279e-11 
2.47376e-10 6.12483e-10 2.57957e-10 5.99004e-12 4.55257e-11 9.65697e-12 -2.39665e-10 -7.95531e-10 -3.10559e-10 
-4.90429e-11 1.2087e-10 -1.6197e-10 -1.94525e-10 -3.8087e-10 -1.72618e-10 -6.93165e-11 3.26929e-11 8.40674e-12 
-1.30924e-10 -1.08493e-10 -7.18251e-11 -4.30624e-11 -3.47478e-11 5.94076e-11 2.14057e-10 6.27218e-10 2.52382e-10 
9.83114e-11 3.84308e-11 -8.19857e-11 -1.47538e-10 -1.1187e-10 -7.78224e-11 -3.29267e-10 6.40513e-11 1.2426e-10 
-9.25748e-11 -5.83233e-10 -2.02742e-10 -1.28145e-10 2.39125e-10 1.31519e-10 1.19457e-10 2.17435e-10 1.01068e-10 
2.85114e-11 1.02624e-10 6.17739e-11 -9.40428e-11 8.39236e-11 -3.03577e-12 -1.10902e-10 5.47995e-11 6.97448e-11 
2.57028e-10 4.84633e-10 2.22498e-10 -1.43169e-10 -6.57594e-11 5.85856e-11 -4.13349e-10 -8.01261e-11 -1.48043e-10 
6.92839e-11 -9.50522e-11 -1.7486e-11 4.84009e-10 7.95016e-10 3.83707e-10 1.09056e-10 -2.38271e-10 -1.19776e-10 
7.08962e-11 3.02737e-10 1.1209e-10 1.36082e-11 -1.00774e-10 -5.97812e-12 -1.46753e-10 -1.93876e-10 -1.02189e-10 
-9.0122e-11 6.67557e-11 1.14581e-10 -5.33869e-10 -5.06387e-10 -3.12077e-10 -6.30472e-11 1.34508e-11 1.27533e-10 
-5.24516e-10 -6.34563e-10 -3.47724e-10 -2.34113e-10 2.2418e-11 1.31706e-10 1.99965e-10 2.01494e-10 1.20438e-10 
-7.82136e-11 9.15597e-11 -6.13544e-11 3.73379e-10 4.51182e-10 2.47368e-10 3.96902e-11 -6.27703e-11 -1.88311e-11 
-5.09113e-10 -8.30535e-10 -4.01895e-10 -4.95304e-11 6.83748e-11 -8.96719e-12 -3.13293e-11 -4.15829e-10 -1.34147e-10 
1.10989e-11 2.56205e-11 -7.42995e-11 2.06928e-10 5.51858e-10 2.27636e-10 4.2322e-12 -1.59417e-11 8.76791e-11 
-7.31432e-11 -3.11993e-11 -3.13027e-11 -3.56698e-11 -3.32313e-11 3.85062e-11 -8.60075e-11 -2.05426e-10 -8.74301e-11 
1.43157e-10 -4.56511e-11 7.98895e-11 -6.01206e-11 -2.1037e-10 -8.11471e-11 5.83993e-11 6.22983e-11 -1.32148e-11 
-3.95307e-10 -6.82794e-10 -3.2343e-10 1.21881e-10 1.95648e-11 3.91295e-11 1.49145e-10 1.71933e-10 9.63235e-11 
2.78531e-12 -2.64296e-11 -4.3892e-11 -1.46735e-10 2.49652e-11 -3.65311e-11 -1.39092e-10 -7.82591e-11 -1.6304e-11 
-1.82842e-10 -1.84252e-10 -1.10128e-10 -6.08733e-11 3.77566e-12 -9.06158e-11 -4.08374e-10 -4.94115e-11 -1.37336e-10 
-1.87049e-10 -1.40214e-10 -1.6304e-12 9.4108e-11 -2.25371e-10 -3.93789e-11 3.27701e-11 -8.49523e-11 3.96444e-11 
-6.30425e-11 2.6404e-10 6.02992e-11 -8.93254e-11 -7.82591e-11 -1.07606e-10 3.36378e-10 3.60054e-10 2.0893e-10 
1.47974e-10 -6.89057e-11 1.00527e-10 -4.16866e-11 2.80642e-10 7.16865e-11 -5.11884e-11 -6.52159e-11 -1.6304e-11 
2.50339e-10 5.09564e-10 2.27971e-10 1.76572e-10 1.37145e-10 -2.9539e-11 2.13818e-10 1.07039e-10 9.62571e-11 
-4.96238e-11 1.28103e-10 1.56285e-10 -1.33941e-10 -1.23866e-10 -7.7342e-11 6.91927e-12 -8.23429e-12 1.04416e-10 
-1.19674e-10 -5.01915e-10 -1.86477e-10 -1.15208e-10 2.4456e-12 1.82605e-10 1.86742e-10 6.0089e-10 2.36289e-10 
-1.1597e-10 -1.02482e-10 -5.89272e-11 -8.6316e-11 -2.29716e-11 -3.27863e-11 8.66956e-11 -4.29144e-11 2.2418e-11 
-3.38738e-10 -2.34704e-10 -1.72032e-10 -3.06942e-10 2.28256e-10 2.3763e-10 2.6555e-10 3.26998e-10 1.77764e-10 
7.47463e-12 -3.26079e-11 -2.93472e-11 -6.30561e-11 -2.6037e-10 -9.70278e-11 -1.14535e-10 -1.34508e-11 4.03523e-11 
3.0748e-10 9.09161e-10 3.64992e-10 -4.84164e-11 -3.84842e-11 -4.96932e-11 -3.44991e-10 -2.46283e-10 -1.77382e-10 
-4.10035e-10 4.96644e-11 2.34526e-11 -8.26396e-11 -6.3856e-12 -2.67076e-11 7.51391e-11 -4.27666e-11 2.48322e-11 
-3.60896e-10 -6.74736e-11 -1.28511e-10 -4.67924e-11 -2.92928e-11 1.45866e-10 -4.73408e-10 -6.81117e-10 -3.46358e-10 
-3.3238e-10 -7.80673e-11 -8.86169e-11 2.13091e-10 -1.75611e-10 1.1244e-11 2.09761e-10 -1.83022e-11 1.02632e-11 
-2.23088e-10 -5.35445e-10 -2.2756e-10 -1.02632e-10 -8.40674e-12 -3.50281e-11 1.57024e-10 1.04332e-10 7.84068e-11 
-4.04662e-11 7.11397e-11 3.34775e-11 1.29275e-10 7.68938e-10 2.69464e-10 -1.63078e-10 -7.3232e-11 2.13718e-11 
4.93595e-11 -3.88781e-10 -1.01827e-10 6.89448e-11 -2.98159e-10 6.05285e-11 2.77218e-10 2.54683e-10 1.5957e-10 
1.29812e-11 8.51883e-11 1.03123e-10 -1.88931e-10 1.52502e-10 -1.09288e-11 -1.00454e-10 -8.36937e-12 5.49987e-11 
1.01359e-10 -1.22569e-12 3.00401e-11 -2.21212e-11 7.652e-11 -2.63037e-11 3.58123e-11 1.31049e-10 5.00583e-11 
-1.09394e-10 -2.77168e-11 3.42383e-11 4.31657e-11 -2.29897e-10 -5.60194e-11 -6.77507e-11 -3.26079e-12 -2.52712e-11 
-2.00737e-10 -4.61594e-10 -1.98699e-10 8.00256e-11 1.4988e-10 8.13452e-11 2.89903e-10 6.7507e-10 2.89492e-10 
6.86048e-11 -8.88712e-11 1.68135e-12 -1.1698e-11 -2.01704e-10 -6.40205e-11 -1.51302e-10 -2.89709e-11 -7.44966e-11 
-2.09142e-10 -3.87736e-10 -1.79064e-10 1.29311e-10 1.10365e-10 1.25541e-10 -1.27189e-10 4.10565e-11 -2.58397e-11 
-1.83784e-11 -1.55746e-11 1.00055e-10 3.40339e-10 3.443e-10 2.05392e-10 5.1424e-13 -2.60864e-11 -7.58135e-11 
2.19017e-10 9.04095e-11 9.28281e-11 -2.01814e-10 -2.54857e-10 8.49523e-11 -1.92361e-10 -1.91547e-10 -1.15172e-10 
1.73948e-11 1.45105e-10 9.13023e-11 -2.08712e-11 4.17803e-11 6.27272e-12 6.53347e-11 6.0701e-11 -2.34526e-11 
2.89757e-10 1.04066e-09 3.99126e-10 -3.91675e-11 -3.5179e-10 6.34601e-11 -4.82373e-10 -8.28798e-10 -3.93351e-10 
1.0624e-11 3.57342e-10 1.4213e-10 -2.63851e-11 -1.12606e-10 -4.16974e-11 6.56502e-12 -4.66294e-11 -1.18367e-10 
-4.46753e-10 -6.51026e-10 -3.29334e-10 2.39065e-11 2.27916e-10 1.49453e-11 -2.01917e-10 1.04093e-10 -2.93472e-11 
1.69427e-12 2.51081e-10 -3.44421e-11 -1.8805e-10 -4.83688e-10 -2.01521e-10 1.86972e-11 -5.38031e-11 -9.6077e-11 
-1.79941e-10 -3.02046e-10 -1.44596e-10 -8.46251e-11 1.53723e-11 1.53723e-11 3.3949e-11 9.86906e-11 3.97919e-11 
2.4788e-10 -9.78918e-11 4.70777e-11 -8.35142e-11 9.21365e-11 2.58669e-12 -1.25393e-10 -1.32438e-10 -3.86279e-11 
4.39313e-10 5.36802e-10 2.92835e-10 3.62982e-11 1.19562e-11 -1.13584e-10 -2.6719e-10 -3.86667e-10 -1.96157e-10 
-1.57736e-10 1.73366e-10 2.2418e-12 2.20928e-10 3.05272e-11 7.54364e-11 -3.41438e-11 2.63037e-11 -1.02375e-10 
-1.74161e-10 -3.04836e-10 -1.43699e-10 -9.49851e-11 -1.16573e-10 6.56099e-11 2.41531e-10 2.80388e-10 1.56575e-10 
1.00533e-10 -2.10729e-10 -7.3232e-11 -9.96373e-12 -7.10212e-11 -2.42955e-11 4.35233e-12 -3.29992e-10 -1.47062e-10 
-1.03586e-10 -2.5424e-10 -1.07348e-10 -3.71081e-11 2.05555e-10 -2.89709e-11 3.3784e-10 -5.8506e-10 -7.41661e-11 
-1.50531e-10 -1.27533e-10 -3.98542e-11 -6.02895e-10 -6.87412e-10 -3.87092e-10 -2.87291e-10 -1.2391e-10 8.47807e-11 
-9.5672e-10 -1.08643e-09 -6.12945e-10 -2.21952e-10 -4.06512e-10 -2.59052e-11 3.60404e-12 1.70645e-10 5.22746e-11 
-4.99914e-11 1.6304e-10 -2.08691e-10 -1.14985e-10 2.19602e-10 3.13852e-11 -4.19365e-11 2.31154e-10 -6.37667e-11 
-2.17608e-10 -3.15583e-10 -1.59957e-10 -1.05748e-10 -1.72822e-10 -5.54335e-11 -3.3308e-10 -3.80247e-10 -2.13998e-10 
-3.48291e-11 -5.57958e-11 -3.3876e-11 2.5054e-10 6.42131e-10 2.67801e-10 -7.24193e-13 7.97083e-11 7.97083e-12 
2.31985e-10 4.90994e-10 2.16894e-10 1.61418e-10 3.98542e-11 -2.39125e-11 -2.9561e-10 6.02209e-11 -7.06166e-11 
-1.65544e-10 1.6304e-11 1.2391e-10 -1.47821e-12 4.33958e-10 1.29744e-10 1.52091e-10 2.47096e-10 -7.97083e-11 
3.66888e-10 1.96675e-10 1.69069e-10 -5.41697e-12 -1.3949e-10 1.07606e-10 -1.3791e-10 -1.64602e-13 -4.14223e-11 
2.40637e-11 3.26079e-11 -3.58687e-11 1.66085e-10 1.607e-10 9.80355e-11 -1.70236e-11 6.0701e-11 3.86279e-11 
-1.18212e-10 -1.345e-10 -7.58135e-11 1.56357e-10 8.15199e-13 1.56111e-10 -4.26285e-12 -9.01513e-11 -2.83242e-11 
-6.07087e-11 -1.51752e-10 -1.37957e-12 -8.70192e-11 2.39275e-10 4.56766e-11 1.77611e-10 1.03621e-10 9.36573e-11 
-9.7526e-11 -2.24478e-10 -9.6601e-11 1.41356e-11 7.49983e-11 -5.21727e-11 3.57605e-10 4.56292e-10 2.44169e-10 
7.9993e-11 -5.57958e-11 -9.565e-11 -4.89031e-10 -3.8476e-10 -2.62137e-10 -1.68371e-10 -2.24995e-10 -8.47807e-11 
1.77906e-10 4.1915e-11 6.59462e-11 9.10357e-11 -5.57958e-11 -6.37667e-11 3.4215e-10 2.39472e-10 1.74486e-10 
2.10704e-10 7.97083e-11 1.55431e-10 3.62254e-10 7.116e-11 1.30024e-10 1.43938e-10 1.27533e-10 1.51446e-10 
-2.90006e-10 -1.49324e-10 -1.31799e-10 -4.63285e-11 -3.98542e-11 7.97083e-12 -3.03336e-10 -4.85341e-10 -2.36603e-10 
-9.79842e-11 3.26804e-10 -3.58687e-11 3.7698e-10 4.7796e-10 2.56482e-10 5.91715e-11 -3.26079e-11 1.95648e-11 
-3.09116e-10 -2.00892e-10 -1.53003e-10 2.23277e-12 1.19562e-10 9.96354e-11 2.66397e-11 -1.434e-10 -3.50281e-11 
1.55744e-10 2.07242e-10 -1.19562e-11 -2.01166e-10 4.47495e-11 -4.69249e-11 5.67434e-11 -1.04345e-10 -2.4782e-10 
-4.029e-11 -1.02625e-10 -4.28744e-11 1.0825e-10 -9.13023e-11 -5.21727e-11 -2.741e-10 -4.66712e-10 -2.22244e-10 
-3.78291e-11 3.43199e-10 -2.36408e-11 3.92619e-10 6.9771e-10 3.27098e-10 1.39926e-10 5.47814e-10 1.36953e-10 
-6.01817e-11 -1.38544e-10 -5.96178e-11 -3.93763e-11 4.48359e-11 1.13584e-10 1.89995e-10 5.02907e-10 2.07871e-10 
-2.83558e-11 1.05215e-10 -3.89464e-25 1.87782e-10 2.94855e-11 6.51802e-11 6.38636e-11 -5.26075e-11 -1.913e-11 
9.84473e-11 5.08156e-10 1.81981e-10 1.31694e-10 3.72402e-10 -7.38474e-11 -1.72995e-11 -1.32718e-12 -5.58801e-12 
7.98637e-11 2.10993e-11 6.75176e-11 2.57083e-10 4.9239e-10 2.24842e-10 2.35734e-10 -1.50812e-10 -6.68463e-11 
-2.24903e-12 1.18142e-10 3.47679e-11 1.12624e-11 4.00321e-11 -1.79344e-11 3.36837e-11 -6.98581e-11 -1.08523e-11 
-1.66359e-12 -2.8695e-10 8.47807e-11 2.71076e-10 3.53514e-10 1.87377e-10 -1.67366e-10 3.10862e-10 2.55067e-10 
-8.41309e-11 -1.30241e-10 -6.43115e-11 6.47612e-11 -1.16573e-10 -7.21111e-11 -4.37353e-10 -2.51299e-10 -2.06596e-10 
-8.75121e-11 6.12758e-11 5.38031e-11 5.67497e-10 7.51613e-10 3.95733e-10 2.89524e-11 2.84559e-10 2.8695e-11 
4.19151e-10 4.92225e-10 2.73413e-10 5.47863e-11 -1.46234e-10 -5.65623e-11 -6.86187e-10 -1.42886e-09 -6.34515e-10 
-6.74974e-11 2.20731e-10 -1.10365e-11 -2.06281e-10 -4.04824e-10 -1.83332e-10 2.72314e-11 -4.1387e-11 -1.10365e-11 
6.57027e-10 1.15322e-09 5.43075e-10 1.62678e-10 -2.2418e-11 -1.07606e-10 3.35826e-10 7.92715e-10 3.38562e-10 
-3.37167e-11 1.04345e-10 -2.60864e-11 -3.66476e-10 -6.98938e-10 -3.19624e-10 -1.70323e-10 1.62605e-10 -5.739e-11 
-2.8015e-10 -1.11187e-11 -8.73806e-11 -3.30381e-10 8.75619e-11 1.47695e-11 -8.30946e-11 2.74532e-10 5.74313e-11 
-1.02443e-10 -1.99697e-11 -6.79913e-11 -9.99274e-11 -3.13357e-11 -3.93789e-11 -1.75892e-11 2.35979e-12 -2.2418e-12 
-3.34952e-10 -6.07757e-10 -2.82813e-10 -7.74484e-11 -4.21985e-11 7.59573e-11 -2.7066e-10 -5.9408e-10 -2.59422e-10 
-4.38692e-11 4.11436e-11 5.61768e-11 -4.4674e-10 -1.37281e-10 -1.75206e-10 -1.68343e-10 2.10993e-11 1.01276e-10 
1.30075e-10 3.72707e-10 1.50835e-10 -1.48948e-10 -7.55131e-11 4.71957e-11 -1.04328e-11 6.35107e-11 1.59233e-11 
-1.04986e-10 -1.01804e-10 5.90779e-11 1.33771e-10 -4.06371e-11 2.794e-11 1.69319e-11 -1.80662e-11 -3.09895e-11 
-1.10936e-11 1.79723e-10 5.05888e-11 1.18313e-10 -1.26596e-11 -1.68794e-11 7.09119e-10 8.68215e-10 4.732e-10 
6.55733e-11 -4.34513e-11 1.21321e-11 9.35308e-11 -4.01233e-11 1.60223e-11 1.01947e-10 6.46165e-11 5.27482e-12 
-7.22042e-12 2.13103e-10 6.17648e-11 2.68984e-11 -4.74733e-12 -6.13197e-11 -2.23894e-10 -3.72611e-10 -1.78951e-10 
-1.24648e-11 -4.30425e-11 1.43475e-11 -5.80301e-10 -7.22312e-10 -3.90784e-10 -1.05493e-10 -5.51827e-12 9.93288e-11 
2.32324e-10 1.64532e-11 7.46331e-11 4.27629e-11 -1.3949e-11 -1.19562e-11 -8.3116e-12 1.72788e-11 2.69016e-12 
8.64543e-11 -2.3707e-11 -4.44997e-11 5.34074e-11 1.2742e-10 5.42482e-11 -2.60145e-11 4.21985e-12 5.27482e-13 
-1.4371e-10 -7.44912e-11 -6.54605e-11 -1.02125e-10 -4.67788e-11 -6.38165e-11 2.25803e-11 -2.67777e-10 -7.3559e-11 
1.22782e-11 -9.19137e-11 -5.60449e-11 2.11944e-10 7.55298e-10 2.90173e-10 1.33184e-10 -3.18833e-11 -2.59052e-11 
9.23349e-11 1.65307e-10 7.72925e-11 4.79523e-11 5.90779e-11 3.63962e-11 3.61836e-10 6.58612e-10 3.06135e-10 
1.7766e-10 -3.31096e-11 -2.20731e-11 5.75251e-10 9.23483e-10 4.4962e-10 1.51626e-11 7.97083e-12 -5.97812e-11 
-8.77579e-12 3.35144e-10 9.79105e-11 -1.17782e-11 1.57449e-10 2.17081e-11 -4.15109e-11 -2.38869e-10 -8.41141e-11 
-1.91964e-10 -1.21555e-10 3.23815e-11 2.09829e-10 2.78916e-10 1.46623e-10 2.87219e-10 -6.75176e-11 1.68794e-11 
-2.51142e-12 1.02592e-10 3.00241e-11 -7.68327e-11 4.16334e-11 -4.49961e-11 5.40641e-10 1.06625e-09 4.82066e-10 
4.49911e-13 1.43475e-10 6.14893e-11 -4.94872e-10 -1.31017e-09 -5.41514e-10 -2.1745e-11 -1.29704e-10 5.50841e-11 
-3.7587e-10 -9.78843e-11 -1.42126e-10 3.22655e-11 -6.92155e-11 8.40674e-12 -3.10922e-10 -4.59366e-10 -2.31086e-10 
-1.59722e-10 7.06825e-11 8.96719e-12 2.90224e-11 -9.73632e-12 5.78581e-12 -1.41e-10 -2.10993e-12 -4.3781e-11 
-1.81439e-10 -4.27271e-10 -1.82613e-10 -4.33019e-10 -7.97083e-12 -1.99271e-10 -6.19343e-11 -1.78125e-10 -7.20177e-11 
5.33846e-11 2.09234e-10 -1.79344e-11 1.72434e-10 4.77421e-11 6.60529e-11 9.04311e-12 -4.65573e-11 -1.58927e-11 
2.44625e-10 2.45368e-10 1.46998e-10 -6.25189e-11 -1.11529e-10 1.07766e-10 4.31547e-10 1.31959e-10 1.69052e-10 
1.52189e-10 -6.52159e-11 -1.17389e-10 8.04821e-11 1.3459e-10 6.45217e-11 -1.49829e-10 -4.93195e-11 -5.08141e-11 
-1.69423e-10 -5.29892e-10 -2.09795e-10 1.26169e-10 6.37667e-11 -1.19562e-10 -4.42527e-10 -9.82542e-10 -4.27521e-10 
-2.13884e-10 1.30432e-10 1.95648e-11 -8.30056e-10 -1.02376e-09 -5.56144e-10 9.18833e-11 3.91295e-11 1.95648e-11 
-1.37493e-10 1.56345e-10 5.65544e-12 5.57426e-11 3.26079e-11 4.56511e-11 1.13515e-10 1.98043e-10 9.34676e-11 
-8.36469e-11 1.50812e-10 -4.62625e-11 3.94438e-10 1.88938e-10 1.75013e-10 5.21236e-11 9.78238e-11 -6.52159e-11 
-4.32443e-10 -1.0395e-09 -4.41583e-10 -8.99335e-11 -1.36953e-10 6.52159e-12 -1.94895e-10 1.98207e-10 9.93523e-13 
1.08954e-10 -7.01071e-11 4.56511e-11 6.4293e-10 7.17432e-10 4.08109e-10 -6.11395e-11 -5.21727e-11 -5.86943e-11 
-2.33335e-10 -4.09653e-10 -1.92896e-10 -1.34382e-10 -3.09776e-11 -3.42383e-11 2.33675e-10 4.30712e-10 1.99316e-10 
1.44575e-10 -1.85458e-11 1.15554e-10 4.92726e-10 5.42576e-10 3.10591e-10 8.9866e-11 1.82655e-11 8.86019e-11 
1.00422e-10 1.15606e-10 6.48083e-11 5.16284e-11 -3.62763e-11 -2.81244e-11 9.82465e-11 -1.14805e-10 -4.96762e-12 
1.21798e-10 -2.60864e-11 3.26079e-11 -7.03992e-11 -1.63588e-10 -7.01963e-11 1.51507e-11 -6.72539e-11 -4.63305e-11 
-6.28193e-10 -5.97035e-10 -3.67568e-10 6.92917e-11 -6.31152e-11 -6.55294e-12 1.42133e-12 -4.8621e-10 -1.45437e-10 
-8.08375e-11 -8.08066e-11 -9.98618e-11 -1.98707e-10 -3.62252e-10 -1.68288e-10 -4.64555e-11 -8.05009e-12 7.56097e-11 
1.67715e-10 1.05631e-10 8.20039e-11 1.31793e-10 5.12556e-11 1.019e-13 3.13706e-10 6.3167e-10 2.83613e-10 
1.05034e-10 -4.38169e-11 -5.46183e-11 1.63564e-10 4.91143e-10 1.96412e-10 -1.19533e-10 1.56518e-10 -2.60864e-11 
-2.19316e-10 -4.94237e-10 -2.14066e-10 -4.21089e-11 -4.40207e-11 -1.65078e-11 -8.70226e-11 5.72169e-11 -8.94171e-12 
2.35049e-10 6.52159e-12 -8.47807e-11 2.3826e-10 2.8092e-10 1.55754e-10 3.96244e-11 -9.13023e-11 -1.04345e-10 
5.01024e-10 8.03803e-10 3.91448e-10 1.09263e-10 -6.52159e-12 -6.52159e-12 6.11769e-11 3.71897e-10 1.29922e-10 
-1.83516e-10 -3.87423e-10 -5.99171e-11 -4.164e-10 -4.82357e-10 -2.69627e-10 -2.43294e-10 -2.06857e-11 5.55354e-12 
3.73987e-10 1.46734e-09 5.52399e-10 1.9472e-10 -4.32055e-11 5.38031e-11 -1.17189e-10 -2.02968e-10 -9.6047e-11 
-1.62948e-10 1.67784e-11 2.42745e-11 3.41704e-11 -8.71666e-12 7.63612e-12 1.33642e-10 1.44326e-24 1.49453e-12 
-2.10191e-10 -6.40057e-10 -2.55074e-10 8.32674e-11 1.56926e-10 5.23086e-12 1.2205e-10 -6.25022e-11 1.78643e-11 
1.03585e-10 -8.96719e-11 6.87484e-11 -2.6232e-10 -2.22723e-10 -1.45513e-10 4.16628e-11 9.78238e-11 1.32062e-10 
-5.86899e-11 1.13461e-10 1.64313e-11 -5.67507e-11 6.52159e-11 -3.91295e-11 -1.70364e-10 -3.19982e-11 -6.07086e-11 
1.17786e-10 -1.02482e-10 1.03763e-10 3.1423e-10 -1.99538e-10 3.44076e-11 3.68161e-10 1.48599e-10 -2.30585e-11 
-1.14417e-10 -2.24055e-10 -1.01541e-10 6.61229e-11 -2.76702e-10 1.69096e-10 1.48668e-10 2.94888e-10 1.33067e-10 
-1.2154e-10 -1.58847e-10 8.71098e-11 3.06442e-10 9.00158e-10 3.6198e-10 -2.32161e-11 1.61409e-10 -5.97812e-12 
-5.42909e-11 -2.48725e-11 -2.3749e-11 -5.62299e-11 1.79344e-11 3.58687e-11 4.63894e-11 -1.13877e-10 -2.02462e-11 
-1.93211e-11 -1.19562e-11 -3.46731e-10 2.27308e-10 1.17835e-10 1.03543e-10 -9.32325e-11 -2.98906e-11 1.37497e-10 
1.79177e-10 -3.72844e-10 -5.80999e-11 1.80921e-10 5.81622e-11 4.851e-11 -1.11424e-10 -1.84992e-10 -8.89246e-11 
-6.91846e-11 -3.18833e-11 -5.97812e-12 -7.15309e-11 -3.48005e-10 -1.25861e-10 -3.80131e-11 3.1145e-11 -3.95517e-11 
-1.65175e-10 -1.22255e-10 -8.62291e-11 -1.35235e-10 -7.94236e-11 -4.6117e-11 1.9352e-10 -4.58176e-10 -7.9397e-11 
-1.45166e-11 2.12223e-10 2.09234e-10 -4.66704e-10 -2.57521e-10 -2.17267e-10 -6.53608e-11 -1.37497e-10 -1.1757e-10 
1.50513e-10 5.52651e-10 2.10949e-10 7.83423e-11 3.76622e-10 3.20257e-11 -3.25654e-10 -3.21265e-10 -1.94076e-10 
5.17739e-11 1.6269e-10 -2.27382e-11 1.9353e-10 7.55185e-10 2.84615e-10 2.44961e-10 -7.17375e-11 -1.03621e-10 
1.42947e-10 7.2515e-11 6.46385e-11 -1.47948e-10 6.62575e-11 1.49951e-10 1.92116e-10 6.5821e-10 2.55098e-10 
-3.96899e-11 -7.97083e-11 1.35504e-10 -5.7533e-11 1.50941e-10 2.80225e-11 2.32782e-10 -2.39125e-11 -3.58687e-11 
1.15836e-10 1.35966e-10 7.55405e-11 -3.80034e-10 9.22339e-11 -2.04964e-11 -7.02226e-11 -3.52116e-10 -1.26702e-10 
-5.15375e-11 2.04964e-11 -6.91754e-11 -5.96426e-10 -6.62405e-10 -3.77649e-10 -8.2604e-11 -3.58687e-11 -7.77156e-11 
1.14407e-10 3.03128e-10 1.2526e-10 -1.01105e-10 8.19857e-11 2.04964e-11 -8.54073e-10 -9.13343e-10 -5.30225e-10 
9.82652e-11 5.63652e-11 -4.6117e-11 8.19692e-10 5.46603e-10 4.09888e-10 -5.94671e-11 -2.56205e-11 1.19276e-24 
-1.08376e-10 3.44165e-10 7.07367e-11 3.91529e-11 -2.56205e-12 -9.99201e-11 1.71704e-10 1.93834e-10 1.09661e-10 
7.37195e-11 -9.96354e-12 -1.3949e-11 5.36768e-10 8.41937e-10 4.13611e-10 3.7961e-11 -6.67557e-11 7.29829e-11 
9.55308e-11 5.19095e-10 1.84388e-10 2.15756e-14 -9.71445e-12 3.51215e-11 2.42198e-10 3.72117e-10 1.84294e-10 
1.11979e-10 -1.11592e-10 -1.03621e-10 -7.54689e-11 -3.63096e-11 -3.35335e-11 1.20124e-10 1.18317e-11 -8.64337e-11 
-5.4347e-10 -7.78879e-10 -3.96705e-10 -3.51336e-10 2.39125e-11 -8.76791e-11 4.4113e-11 4.36672e-10 1.44236e-10 
-4.8926e-12 4.09929e-11 -5.12411e-11 -2.18991e-10 -2.07503e-12 -6.63198e-11 -6.08404e-11 -3.18833e-11 -1.3949e-11 
3.88187e-10 8.2279e-11 1.4114e-10 7.90682e-12 7.17375e-11 2.39125e-11 5.03722e-11 3.71833e-10 1.26662e-10 
-1.24721e-10 1.99271e-12 3.36042e-25 -2.30829e-10 2.75665e-10 1.34508e-11 -1.57942e-10 -5.12411e-12 6.91754e-11 
-2.46559e-10 -8.47251e-10 -3.28143e-10 -1.86948e-10 8.76791e-11 -1.99271e-11 -1.42391e-10 -1.08877e-10 -7.53804e-11 
1.12156e-10 -6.37667e-11 1.29526e-11 -3.07091e-10 -1.11863e-09 -4.27716e-10 -3.15823e-10 -3.98542e-12 2.98906e-11 
-5.40292e-10 -3.07232e-10 -2.54257e-10 -8.11777e-11 2.11227e-10 3.18833e-11 -1.40431e-10 -6.10197e-11 -6.04351e-11 
-2.09546e-10 1.11592e-10 1.59417e-11 1.36057e-10 3.8446e-10 1.56155e-10 -5.06594e-11 9.49027e-11 2.69016e-11 
4.95976e-11 -4.20545e-10 -1.11284e-10 5.90789e-11 -8.96719e-11 -7.17375e-11 -2.76703e-10 -1.54843e-10 -1.29464e-10 
-9.63248e-11 -1.05813e-10 1.25541e-11 -6.29384e-12 -1.69738e-10 -5.28096e-11 -3.25734e-11 2.02169e-10 1.04345e-10 
-2.23678e-10 -4.76304e-11 -8.13925e-11 -3.57644e-11 5.86943e-11 2.28256e-11 5.45149e-11 1.01901e-10 4.69249e-11 
6.38096e-11 -1.92387e-10 5.21727e-11 2.94395e-11 -1.34142e-10 -3.14106e-11 8.47062e-11 -9.78238e-11 1.30432e-11 
3.63406e-10 6.69455e-10 3.09858e-10 2.8772e-10 4.18469e-11 7.7342e-11 -1.22977e-10 1.45162e-10 6.65533e-12 
1.60061e-11 -8.96719e-12 8.96719e-12 -1.32223e-10 -1.11284e-09 -3.73518e-10 1.26627e-10 3.31096e-10 -3.5179e-11 
5.07087e-11 2.40078e-10 8.72361e-11 -1.79262e-11 -1.24161e-11 -5.86316e-11 2.47723e-10 -5.43655e-12 7.26859e-11 
-8.23121e-11 -8.82923e-11 -6.62192e-11 -2.44046e-10 -3.43348e-10 -1.76218e-10 1.02399e-10 3.13852e-11 -2.51771e-11 
2.24304e-10 8.01941e-10 3.07873e-10 -1.00274e-10 4.82235e-10 -1.19562e-11 3.6219e-10 2.45275e-10 1.82239e-10 
2.34109e-10 -4.7825e-11 -7.17375e-11 -1.86993e-10 -3.92071e-10 -1.73719e-10 -1.79999e-10 2.25461e-10 -2.81826e-11 
1.08102e-10 6.08105e-10 2.14862e-10 9.89465e-11 1.79344e-11 8.33201e-11 -3.20886e-10 -1.18066e-10 -1.31686e-10 
-8.70111e-11 -8.00642e-11 3.55485e-11 3.83068e-10 7.51241e-10 3.40293e-10 1.13853e-10 4.70777e-11 5.12411e-11 
1.28042e-10 3.52744e-10 1.44236e-10 8.06174e-12 3.39472e-11 -6.56526e-11 2.93332e-10 1.74843e-10 1.40453e-10 
1.31585e-10 -1.14011e-10 6.91754e-11 9.02813e-11 1.18086e-10 6.25101e-11 6.64908e-11 2.97839e-11 4.00321e-11 
-1.17796e-10 -2.99138e-10 -1.2508e-10 1.93414e-10 5.12411e-12 1.02482e-10 -1.60567e-10 -4.80746e-10 -1.92394e-10 
-8.43897e-12 3.26662e-11 2.81826e-11 -5.74796e-10 -6.92619e-10 -3.80225e-10 -1.12455e-10 -3.20257e-12 -6.14893e-11 
2.07165e-10 2.15373e-10 1.26762e-10 -1.92803e-11 2.1972e-25 9.95998e-11 -2.26675e-10 -7.2829e-10 -2.8649e-10 
6.67323e-11 -3.33067e-11 1.14972e-10 6.78759e-11 -9.42902e-12 1.75341e-11 -1.03754e-11 2.30585e-11 8.71098e-11 
-1.40983e-10 2.62648e-10 3.64992e-11 -1.57635e-11 1.79344e-10 1.07606e-10 3.62102e-10 3.2685e-10 2.06686e-10 
1.42314e-10 -1.85749e-11 -6.05285e-11 -1.13778e-10 -3.01655e-10 -1.2463e-10 -1.87999e-11 5.30559e-11 -3.47478e-11 
1.33511e-10 -7.01004e-12 3.79504e-11 1.07281e-10 9.99201e-11 -1.10168e-10 -2.78009e-11 -1.61951e-10 -5.69256e-11 
-5.88764e-11 -3.4888e-11 -7.29585e-11 2.27514e-10 3.91181e-10 1.85609e-10 8.15065e-11 -9.38152e-11 -4.47759e-11 
2.65115e-10 4.16831e-10 2.04584e-10 2.70083e-10 -2.96037e-11 -1.47848e-10 1.6947e-10 1.23565e-10 8.79104e-11 
-4.52007e-11 -4.41754e-11 -1.50821e-11 -2.70614e-10 -4.34151e-10 -2.11429e-10 -1.3569e-11 1.30184e-10 3.02843e-11 
-5.60526e-10 -1.11201e-09 -5.01762e-10 -5.03225e-11 1.43475e-10 -4.09929e-11 -1.19479e-10 -4.22356e-10 -1.6255e-10 
-1.76673e-10 6.91754e-11 3.39472e-11 -1.75058e-10 1.55242e-10 -5.94476e-12 -1.12456e-10 -2.11369e-11 -6.08488e-12 
5.55047e-10 1.54203e-09 6.29124e-10 1.62808e-10 -5.06005e-11 -9.95998e-11 2.29471e-10 5.34541e-10 2.29204e-10 
2.07248e-10 -5.33227e-11 2.46598e-11 4.26267e-10 2.77797e-10 2.11219e-10 1.3777e-10 2.12784e-10 -5.4924e-11 
4.94733e-10 4.82901e-10 2.9329e-10 3.00171e-10 1.1209e-10 4.03523e-11 -1.15858e-10 -1.90788e-10 -9.19937e-11 
-3.91901e-11 2.03363e-10 -2.72218e-11 -2.29369e-10 -6.03329e-10 -2.49809e-10 -1.20735e-10 -1.96588e-10 4.58706e-11 
1.91119e-10 6.02779e-10 2.38169e-10 6.59826e-11 -3.4903e-10 -7.93251e-11 3.03944e-10 8.02296e-10 3.31872e-10 
7.11598e-11 9.51901e-11 9.38106e-11 -2.26035e-10 -1.818e-10 -1.2235e-10 -7.96278e-11 -8.2774e-12 2.75913e-12 
2.62184e-10 4.83214e-10 2.23619e-10 1.17066e-10 -9.26609e-11 -5.67922e-11 1.96243e-10 4.96192e-10 2.0773e-10 
-4.84579e-11 6.72539e-11 3.20577e-11 -2.95188e-10 -3.93044e-10 -2.06469e-10 1.02536e-10 -4.44772e-10 -1.36301e-10 
-2.62405e-10 -5.23344e-10 -2.35725e-10 -9.59448e-11 5.739e-11 -4.66294e-11 3.33499e-10 3.83409e-10 2.15072e-10 
2.0407e-10 -3.76995e-10 -1.88871e-10 -8.45281e-11 4.52966e-11 -1.17694e-11 -1.53753e-10 -7.54738e-11 -5.67922e-11 
-1.15108e-10 -6.85534e-10 -2.40192e-10 -1.99448e-10 -2.51081e-10 -1.38351e-10 -3.01781e-10 -4.4922e-10 -2.25301e-10 
-1.76814e-11 -6.19334e-10 -1.00432e-10 -3.5792e-10 -7.4638e-10 -3.3129e-10 -3.83265e-11 -3.76622e-10 1.2899e-10 
6.44608e-11 1.04608e-10 5.07206e-11 7.40447e-11 -2.51081e-11 -5.97812e-12 -3.97392e-10 -4.68287e-10 -2.59704e-10 
-1.67564e-10 7.44966e-11 6.20805e-12 -1.91891e-10 -4.28713e-10 -1.86181e-10 -6.98826e-11 -1.68583e-10 -2.13419e-10 
-1.47284e-10 2.38896e-10 2.74836e-11 -8.07204e-11 4.1387e-11 -1.44855e-10 1.1914e-10 2.34877e-10 1.06205e-10 
-8.92027e-11 1.41084e-10 4.66294e-11 2.43288e-11 -6.00638e-12 5.49671e-12 5.05798e-11 -1.37267e-10 -8.55332e-11 
2.23378e-10 3.28851e-10 1.65669e-10 8.60796e-11 5.61944e-11 1.39888e-10 -3.22332e-10 -2.5493e-10 -1.73179e-10 
3.72564e-11 -3.03505e-11 9.10514e-11 -1.07506e-10 -1.4974e-10 -7.71738e-11 7.14829e-12 -1.21954e-10 3.58687e-11 
1.5972e-10 6.20881e-11 6.65426e-11 -4.88263e-12 -4.06972e-11 8.13945e-11 -1.87189e-10 -4.16608e-11 -6.8655e-11 
-3.90421e-12 7.95091e-11 -2.74994e-11 7.59312e-11 1.23244e-10 5.97525e-11 2.16069e-11 2.77293e-10 1.02433e-10 
1.28458e-10 1.49431e-10 8.33668e-11 4.4628e-11 -5.75394e-11 -1.23299e-11 1.03874e-10 3.51667e-10 1.36662e-10 
8.93397e-11 -4.48359e-11 -7.95838e-11 -7.45571e-11 -4.48185e-11 -3.58127e-11 2.3056e-10 1.17171e-10 1.55431e-11 
2.48613e-10 2.72173e-10 1.56236e-10 5.53986e-11 5.75969e-11 -1.55891e-10 -1.57022e-11 1.10605e-10 2.84708e-11 
-2.35096e-11 4.7825e-12 -6.6955e-11 -1.18921e-10 2.62913e-10 4.31977e-11 -9.92675e-11 -1.62789e-10 -2.34526e-11 
1.43107e-10 4.77123e-10 1.86069e-10 7.11923e-11 -1.07606e-10 6.6955e-11 -1.06664e-10 4.88944e-11 -1.73308e-11 
8.07524e-11 -7.967e-11 1.80378e-10 1.30641e-10 5.28131e-11 5.50361e-11 3.09154e-11 1.29127e-10 1.45866e-10 
-3.78188e-11 2.35485e-10 5.92998e-11 -1.01835e-10 2.37286e-10 1.53822e-10 5.25409e-11 -5.38486e-11 -3.92314e-13 
-1.40193e-10 1.31519e-10 9.26609e-11 -6.80189e-11 -1.60485e-11 -2.52202e-11 3.33841e-12 -2.99366e-10 -7.51864e-11 
-1.63574e-10 2.70113e-11 -4.09688e-11 -7.52608e-11 6.57594e-11 8.78784e-11 3.10661e-10 4.0887e-10 2.15859e-10 
-1.03707e-10 -1.84862e-10 2.89709e-11 2.4162e-10 6.02416e-10 2.53211e-10 1.35638e-10 -1.05215e-10 -6.6955e-11 
-3.03183e-10 -3.53405e-10 -1.96976e-10 7.02031e-11 8.34638e-11 1.22092e-10 3.06228e-11 1.16729e-10 4.42054e-11 
-9.73291e-11 1.88311e-10 -4.7825e-11 1.32508e-10 3.13301e-11 4.91514e-11 -2.18607e-11 -2.11172e-10 6.71973e-12 
5.16769e-10 7.5433e-10 3.8133e-10 2.26162e-11 -1.99494e-10 3.50061e-12 1.48856e-10 1.89982e-10 1.01651e-10 
1.00916e-10 -2.39125e-11 -9.565e-11 2.69174e-10 8.21366e-10 3.27162e-10 1.38406e-10 2.98906e-12 3.43742e-11 
-3.74814e-10 -9.99364e-10 -4.12253e-10 8.57814e-11 8.13297e-11 2.64125e-11 -3.65884e-10 -2.29701e-10 -1.78675e-10 
-1.25551e-10 2.08772e-10 1.76026e-10 8.42117e-11 1.51924e-10 7.08408e-11 8.81812e-11 1.31519e-10 -1.43475e-11 
-9.17901e-12 1.64237e-10 4.65173e-11 -2.79478e-10 -2.09234e-11 -1.67387e-11 2.42421e-10 -2.06756e-10 1.06995e-11 
1.45058e-10 -1.87496e-10 -2.69016e-10 2.47311e-11 2.56194e-10 8.42775e-11 -4.51527e-11 3.81105e-11 5.80999e-11 
1.21628e-11 -1.01835e-10 -2.69016e-11 7.89911e-11 4.6117e-11 1.06325e-10 -9.58476e-11 -4.8468e-11 -4.32947e-11 
6.59767e-11 -1.16573e-10 1.79344e-11 -2.95635e-10 3.96961e-11 -7.67815e-11 -2.93767e-12 2.98906e-11 4.18469e-11 
-6.80233e-10 -1.03544e-09 -5.14702e-10 -1.76316e-10 5.52976e-11 1.34508e-11 3.54615e-10 4.31542e-10 2.35847e-10 
-3.31258e-11 -3.70915e-11 1.46736e-11 -8.08159e-11 2.64954e-11 -1.62961e-11 -1.93993e-10 1.93139e-11 8.55332e-11 
-5.02025e-10 -5.08585e-10 -3.03183e-10 9.54061e-11 5.76462e-11 9.79985e-11 1.44296e-10 1.002e-10 7.33488e-11 
-7.36784e-11 5.86603e-11 2.8695e-10 -2.48401e-10 -6.34773e-10 -2.64952e-10 -7.91185e-11 1.19562e-11 2.09234e-11 
1.83741e-10 -1.44042e-10 1.19095e-11 3.07744e-10 9.565e-11 -7.77156e-11 2.40164e-11 3.39844e-10 1.09158e-10 
-7.55886e-11 6.89784e-12 -3.86279e-11 3.46464e-11 1.31548e-10 4.98584e-11 -7.54208e-11 -6.89784e-12 5.65623e-11 
2.57059e-10 8.53097e-10 3.33047e-10 2.90187e-10 3.58687e-11 -1.25541e-10 9.35174e-11 3.09751e-10 1.20981e-10 
-9.00571e-11 6.15475e-11 -1.9361e-11 -2.96571e-10 -8.22413e-11 -1.13644e-10 1.38432e-12 -3.70915e-11 8.68187e-11 
2.6478e-10 6.55291e-10 2.76021e-10 -2.56758e-11 -1.07606e-10 -2.78979e-11 4.94044e-11 -1.6557e-10 -3.48497e-11 
5.82533e-11 6.84767e-11 -3.26079e-12 -4.38803e-10 -3.12099e-11 -1.41004e-10 -1.66405e-11 8.80415e-11 -2.60864e-11 
1.06467e-10 -1.12694e-10 -1.86816e-12 -2.13032e-10 -8.36937e-11 -1.11592e-10 -3.70258e-10 -4.93089e-10 -2.59004e-10 
-7.42316e-11 1.95648e-11 -2.93472e-11 -2.25311e-11 2.91534e-12 -5.88472e-12 -3.26451e-12 -1.30432e-11 -1.6304e-11 
9.59073e-11 -1.76918e-10 -2.43031e-11 6.74348e-11 4.23903e-11 -1.6304e-11 -1.63828e-10 2.14269e-10 1.51321e-11 
8.21214e-11 -6.52159e-12 -1.36953e-10 1.48969e-10 3.89373e-10 1.61503e-10 -1.59269e-10 -2.78979e-11 -4.58323e-11 
3.66484e-10 4.42856e-10 2.42802e-10 1.05287e-10 -7.82591e-11 -2.28256e-11 -5.10574e-10 -1.53141e-11 -1.57766e-10 
-7.78604e-11 4.38396e-11 -2.39125e-11 1.25084e-10 3.54661e-10 1.43923e-10 2.75689e-11 -2.2956e-10 -1.00432e-10 
5.35284e-11 2.20582e-10 8.22332e-11 1.12817e-10 -7.44888e-11 -5.52297e-11 -2.29165e-10 -2.87722e-10 -1.55066e-10 
-2.1986e-10 6.19551e-11 -5.86943e-11 -4.88875e-10 -6.25655e-10 -3.34359e-10 -2.62351e-10 1.10867e-10 -3.91295e-11 
1.16559e-10 -6.98544e-11 1.40112e-11 5.45572e-11 -3.98542e-11 -7.97083e-12 2.96379e-10 2.41341e-10 1.61316e-10 
1.63674e-10 1.99271e-11 -5.38031e-11 3.21313e-10 1.97413e-10 1.55618e-10 -5.33092e-11 1.23548e-10 4.7825e-11 
-9.28235e-11 2.61977e-10 5.07461e-11 -2.01667e-10 -7.33679e-11 4.89119e-11 5.67016e-11 9.89787e-11 4.67041e-11 
1.39197e-10 1.59417e-11 1.19562e-11 -6.87746e-10 -1.32271e-09 -6.03137e-10 -2.80809e-10 3.78615e-11 2.59052e-11 
4.36387e-11 -2.4107e-10 -5.92293e-11 2.54705e-11 -9.94542e-11 3.66839e-11 -2.72756e-10 -8.92667e-10 -3.49627e-10 
2.74744e-12 7.97083e-12 -2.39125e-11 -3.29802e-10 8.21854e-11 -7.4285e-11 -2.72828e-10 5.86943e-11 -9.78238e-12 
2.47577e-10 2.64923e-10 1.5375e-10 3.08159e-10 -6.37667e-11 3.58687e-11 2.73052e-10 3.81909e-10 1.96488e-10 
-1.49339e-10 2.28256e-11 1.30432e-11 2.69262e-10 6.39175e-10 2.72531e-10 -9.95374e-11 -9.45631e-11 -8.31503e-11 
-3.83377e-11 1.31512e-10 2.79524e-11 9.81195e-11 9.8639e-11 -1.64398e-11 -4.03645e-10 -1.22944e-10 -1.57977e-10 
-4.75511e-11 1.03123e-10 -1.09848e-10 8.31443e-12 3.45199e-11 1.28503e-11 -8.9689e-12 7.68616e-12 -1.95717e-25 
3.41461e-10 4.37363e-10 2.33647e-10 2.00304e-10 -6.88552e-11 -4.16334e-12 -3.95733e-10 -4.40738e-10 -2.50941e-10 
-2.03128e-10 4.09929e-11 -9.4796e-11 1.99231e-11 -5.54685e-10 -1.60429e-10 -1.59393e-10 -5.08141e-11 -1.83827e-10 
-3.42077e-11 4.89292e-10 1.36525e-10 -1.56189e-10 1.59915e-10 7.35309e-11 2.15409e-11 -2.97141e-11 -2.45196e-12 
4.92217e-11 6.87484e-11 -8.07047e-11 4.69943e-11 1.5837e-10 6.16094e-11 -1.44768e-10 -1.69736e-11 9.92796e-11 
1.18443e-10 5.64838e-10 2.04984e-10 1.13998e-10 -2.03256e-10 -3.34775e-10 1.9074e-10 9.11194e-11 8.45578e-11 
1.06795e-10 -4.90393e-11 -5.45971e-11 1.03511e-10 2.06137e-10 9.28944e-11 1.63035e-11 -7.77156e-11 -2.30158e-10 
-8.92088e-11 3.9469e-11 -1.4922e-11 5.70059e-11 2.48092e-10 8.36937e-11 -2.40679e-10 2.88759e-11 -6.35409e-11 
3.96682e-11 -5.97812e-11 -5.97812e-11 1.90083e-10 7.96327e-11 8.09148e-11 3.67397e-11 -1.49453e-11 -1.79344e-11 
3.17159e-10 4.36411e-10 2.26071e-10 1.02977e-10 -9.565e-11 -4.7825e-11 6.26109e-11 2.28122e-10 8.72199e-11 
-1.25606e-10 2.61543e-12 -7.38859e-11 4.58279e-10 4.06681e-10 2.59488e-10 4.19696e-11 -7.77156e-11 9.26609e-11 
3.1738e-11 6.63406e-11 2.94236e-11 9.1836e-11 -1.49453e-12 1.19562e-10 -3.71075e-11 -3.39327e-10 -1.1293e-10 
1.07214e-10 -3.88578e-11 -6.12758e-11 2.77469e-10 2.79711e-10 1.67154e-10 1.13444e-10 2.31652e-10 1.53937e-10 
9.46181e-11 1.08078e-10 6.08087e-11 -1.30456e-10 -7.17375e-11 1.49453e-10 2.35434e-10 8.33214e-11 9.56266e-11 
9.31592e-11 2.06245e-10 3.58687e-11 -3.666e-12 -1.37847e-10 -4.2454e-11 7.01255e-11 -6.57594e-11 6.57594e-11 
6.1226e-11 2.33243e-10 8.83408e-11 -7.83058e-12 1.52442e-10 -1.38991e-10 3.51486e-11 -3.27775e-11 7.11339e-13 
-7.67662e-12 -1.93139e-11 5.24235e-11 4.05198e-11 -3.95857e-11 2.80225e-13 -1.14876e-11 1.64398e-10 2.69016e-11 
3.00123e-10 1.89569e-10 1.46908e-10 -3.27972e-11 1.87564e-10 1.63651e-10 2.85839e-10 2.4939e-10 1.60569e-10 
-3.02664e-11 4.7825e-11 2.39125e-11 -1.75548e-10 -2.18167e-10 -1.18115e-10 3.01118e-11 -4.18469e-11 2.98906e-12 
-5.95293e-10 -4.79495e-10 -3.22437e-10 7.08042e-11 1.02715e-10 -5.70639e-11 3.23501e-10 1.96953e-10 1.56136e-10 
-1.93018e-10 6.52159e-12 7.82591e-11 2.60833e-10 2.55544e-10 1.54913e-10 -1.29027e-10 7.82591e-11 -1.10052e-10 
5.10276e-12 -2.76921e-10 -8.15453e-11 1.80032e-10 1.10867e-10 -9.78238e-11 -4.62985e-10 -4.24393e-10 -2.66213e-10 
4.07743e-11 5.02162e-10 1.59417e-11 9.23322e-11 1.05867e-11 3.08757e-11 -1.63127e-11 -5.54335e-11 3.26079e-12 
-1.68414e-10 -1.3207e-11 -5.44862e-11 -9.76232e-11 -1.83369e-25 -4.59568e-11 -7.80103e-11 -1.16921e-10 -5.84794e-11 
1.44841e-11 1.09848e-10 1.23299e-11 -1.69478e-10 -6.8497e-11 -7.13926e-11 8.13304e-11 3.92487e-10 6.00112e-11 
-1.27005e-10 -1.14753e-10 -7.25272e-11 -9.91545e-11 2.29071e-10 -1.6304e-11 4.83272e-10 2.39707e-10 2.16894e-10 
5.8007e-12 1.67387e-10 4.7825e-11 4.67147e-11 1.30527e-10 5.31726e-11 3.2046e-11 5.9501e-11 2.34922e-11 
2.33283e-10 1.63234e-10 1.18955e-10 1.67949e-10 -6.70671e-11 -8.58421e-11 -5.28433e-11 2.26816e-10 5.21918e-11 
1.06474e-10 -7.17375e-11 -5.97812e-12 -2.3665e-10 -3.11978e-11 -8.03544e-11 -1.10189e-10 1.15546e-10 -1.35442e-10 
2.81186e-10 1.20936e-10 1.20637e-10 2.34491e-11 -4.18469e-11 1.55431e-10 -1.38619e-10 -1.03542e-10 -7.26482e-11 
4.78792e-11 -8.36937e-11 -2.69016e-11 1.39939e-10 1.48459e-10 8.65193e-11 -4.20912e-11 -8.36937e-11 4.48359e-11 
-1.54324e-10 -4.55697e-11 -5.99681e-11 -2.35087e-11 -3.28797e-11 1.06112e-10 -1.80208e-10 -3.95016e-10 -1.72567e-10 
-5.27199e-13 8.64111e-11 1.49997e-10 3.55311e-10 4.89765e-11 1.21286e-10 -3.72018e-11 9.70087e-11 1.27986e-10 
-2.86759e-10 -2.58978e-10 -1.63721e-10 -2.24214e-11 1.40486e-10 7.62211e-11 -2.28665e-10 -4.69562e-10 -2.09468e-10 
-1.20257e-10 -2.88444e-10 5.9034e-11 1.94148e-10 2.91108e-10 1.45577e-10 1.96282e-11 -2.22498e-10 9.58368e-11 
4.24393e-10 3.9641e-10 2.46241e-10 -2.5335e-10 1.33693e-10 8.80415e-11 -2.8855e-10 -3.31255e-10 -1.85942e-10 
5.29886e-12 5.21727e-11 1.33693e-10 -2.8145e-10 -2.93944e-10 -1.72618e-10 1.11984e-10 8.66828e-11 4.18469e-11 
3.39308e-10 4.71163e-10 2.43142e-10 3.71461e-10 2.15212e-10 1.75358e-10 -8.0713e-11 5.43252e-11 -7.91634e-12 
-8.06252e-11 -2.48092e-10 -1.46464e-10 -8.50355e-11 4.74802e-10 1.1693e-10 1.87548e-10 -9.94542e-11 -1.38584e-10 
4.87609e-10 1.78703e-10 1.99894e-10 1.25301e-10 5.57958e-11 2.19198e-11 -3.25033e-10 -3.25088e-10 -1.95036e-10 
-3.69093e-11 -2.69016e-11 2.69016e-11 1.04257e-10 5.54714e-11 4.79184e-11 6.42828e-11 -4.7825e-11 3.48724e-11 
-4.40098e-10 -4.42843e-10 -2.64882e-10 -5.72039e-11 -4.65289e-25 1.49453e-11 5.12942e-11 2.20318e-12 1.60492e-11 
-5.45434e-11 -2.60864e-11 -1.6304e-10 2.75906e-10 -1.74766e-11 7.75288e-11 4.97823e-11 -1.27533e-10 -8.76791e-11 
-2.71028e-10 -1.88773e-10 -1.37941e-10 -1.75356e-10 -2.18202e-10 -1.913e-10 6.94927e-11 2.84213e-10 1.06112e-10 
-7.01341e-11 -1.29526e-10 -1.3949e-11 -4.27045e-10 -3.60641e-10 -2.36306e-10 -5.87551e-11 1.53257e-10 5.86943e-11 
5.98945e-11 -1.32986e-10 -2.19276e-11 1.51691e-10 2.98906e-11 1.79344e-10 4.52525e-10 9.98198e-10 4.35217e-10 
1.47603e-10 -2.61842e-10 -1.64996e-10 1.06443e-10 1.94798e-10 9.03724e-11 7.7657e-11 1.37497e-10 -8.96719e-11 
9.68488e-10 1.81309e-09 8.34474e-10 -9.35363e-11 4.12491e-10 8.96719e-11 -1.83254e-11 -1.17233e-10 -4.06676e-11 
-7.46984e-11 -5.38031e-11 -6.27703e-11 2.20606e-10 8.63217e-10 3.25147e-10 -1.33885e-10 -7.17375e-11 -4.41461e-11 
-1.87367e-11 4.12503e-12 -4.38351e-12 6.86336e-11 2.56205e-11 7.68616e-11 -1.43258e-10 -1.33931e-10 -8.31566e-11 
4.25301e-11 5.97812e-11 -4.18469e-11 2.58113e-10 2.39413e-10 1.49258e-10 -1.06782e-10 -9.45631e-11 4.40207e-11 
3.63211e-10 7.32867e-10 3.28823e-10 1.33779e-10 -7.94236e-11 -4.03523e-11 3.33571e-10 2.52332e-10 1.75771e-10 
1.48135e-10 -1.67387e-10 -6.57594e-11 2.00385e-10 7.06317e-11 8.13052e-11 1.27533e-10 -6.91754e-11 8.32667e-11 
1.97386e-10 1.05002e-10 9.07163e-11 1.15061e-10 2.69016e-11 -6.52159e-11 -6.36832e-11 1.5578e-11 -1.44316e-11 
-1.01778e-10 1.08353e-10 1.38991e-10 5.60533e-12 1.95756e-10 6.04084e-11 -3.44714e-11 -1.79344e-11 -4.93195e-11 
-3.27842e-10 -1.99581e-10 -1.58227e-10 4.83633e-11 2.06245e-10 5.25221e-11 1.18258e-10 1.47955e-10 7.9864e-11 
-2.29978e-10 -8.96719e-11 -1.58847e-10 -2.03937e-10 -3.11421e-10 -1.54608e-10 -2.60877e-11 1.30432e-10 -8.15199e-12 
-1.07116e-10 -2.77392e-10 -1.15352e-10 1.06329e-10 1.25541e-10 -7.55806e-11 -1.97952e-10 -2.24244e-11 -6.6113e-11 
-4.86243e-11 3.45877e-11 6.40513e-11 1.0995e-10 2.89837e-10 1.19936e-10 -2.77336e-10 4.98177e-11 -2.98906e-11 
4.02236e-10 9.54051e-10 4.06886e-10 -5.59179e-11 -1.93691e-10 -7.71178e-11 1.93235e-10 3.71884e-10 1.69536e-10 
-1.22206e-10 1.60288e-10 -5.60449e-12 3.49402e-10 5.51286e-10 2.70207e-10 -8.06638e-11 -2.98906e-11 -1.25541e-10 
6.11754e-11 -8.89823e-11 -8.34207e-12 4.20429e-11 1.31059e-10 5.51827e-11 8.1937e-11 -5.5443e-11 7.94819e-12 
-7.9903e-11 -2.16019e-24 1.6304e-11 -2.7131e-11 -1.82556e-12 -8.68696e-12 7.90631e-11 3.2506e-11 -3.99787e-11 
9.02317e-11 4.73331e-11 4.12694e-11 3.12908e-11 4.40207e-11 -1.95648e-11 -2.53163e-11 -3.17831e-10 -1.02944e-10 
1.21014e-10 -1.10867e-10 -1.30432e-11 5.01905e-10 6.32495e-10 3.4032e-10 -4.02531e-10 1.54888e-10 -2.52712e-11 
-7.5292e-10 -1.07835e-09 -5.4938e-10 -5.69686e-10 -2.21938e-10 -7.17375e-11 -1.82852e-10 -4.1858e-10 -1.8043e-10 
-7.88358e-11 7.84629e-12 1.84948e-11 3.03455e-10 9.88226e-11 1.20683e-10 7.36056e-11 -7.57229e-11 2.45103e-10 
-1.95899e-10 -1.88009e-10 -1.15172e-10 7.07241e-11 5.97812e-11 9.565e-11 -1.05941e-10 8.80063e-11 -5.38031e-12 
1.79209e-10 -6.45637e-11 1.82482e-10 -2.54563e-10 -5.73272e-11 -9.3567e-11 9.2166e-11 -7.53244e-11 1.07606e-11 
1.97907e-10 1.11869e-10 9.29327e-11 1.35271e-10 -2.21734e-10 -1.47551e-10 2.09592e-10 2.50231e-10 1.37947e-10 
-1.72331e-10 -3.09776e-11 -1.85865e-10 2.29444e-11 2.41868e-10 7.94437e-11 8.06759e-11 -5.08141e-11 -3.28797e-11 
4.97362e-10 1.03453e-09 4.59568e-10 1.32098e-10 2.37817e-10 8.16388e-11 7.07733e-11 -2.34424e-10 -4.90953e-11 
-8.47768e-11 2.8695e-11 -1.43475e-11 1.45979e-10 1.82164e-10 9.84429e-11 5.87705e-11 -9.68456e-11 -4.48359e-11 
-4.57502e-11 2.91701e-10 7.37853e-11 -1.24102e-10 6.34601e-11 -2.20731e-11 5.07885e-10 2.43979e-10 2.25559e-10 
1.6762e-10 -4.82848e-11 2.34526e-11 9.94961e-11 2.15218e-10 9.44141e-11 3.9968e-11 1.10365e-11 -2.20731e-11 
3.18401e-10 2.77615e-10 1.78805e-10 2.10167e-10 -4.1387e-12 -3.24198e-11 1.76267e-10 2.09796e-10 1.15819e-10 
1.46203e-10 3.79381e-12 2.58669e-12 -9.63503e-11 -2.19369e-10 -9.47159e-11 -2.76885e-10 7.97083e-11 -1.43475e-10 
-2.35082e-11 4.25503e-10 1.20598e-10 -8.62771e-11 3.91295e-11 -8.15199e-11 -1.0898e-10 -7.77514e-11 -5.60194e-11 
1.57459e-10 -4.80967e-11 -8.82453e-11 -2.90505e-10 1.80708e-10 -3.29391e-11 8.21955e-11 1.06995e-10 -2.97548e-11 
7.02507e-11 2.55672e-10 9.77768e-11 9.23211e-11 -1.51752e-10 4.82848e-12 -1.40533e-10 -1.3159e-11 -4.61077e-11 
-6.19068e-11 -5.1044e-11 8.41536e-11 -1.93349e-10 -3.01787e-10 -1.48541e-10 6.59865e-11 1.64944e-10 1.19871e-10 
4.2556e-11 -1.51802e-11 8.21274e-12 8.78351e-11 -8.2774e-12 4.81124e-11 -1.24598e-10 -3.42946e-10 -1.40263e-10 
7.71544e-11 -1.14504e-10 7.17375e-11 1.46813e-11 1.77596e-10 5.76831e-11 -8.74412e-11 7.17375e-11 -1.61582e-10 
-8.16937e-11 1.67486e-10 2.57375e-11 -8.739e-11 1.2692e-10 -4.1387e-12 -7.34943e-11 -3.26526e-10 -1.20006e-10 
-1.51757e-10 1.80448e-10 -3.21532e-11 -5.57679e-11 -2.13248e-10 -8.07047e-11 -1.55426e-10 3.30159e-11 -1.7332e-11 
-3.19352e-10 -1.74543e-10 -1.48169e-10 -2.24189e-10 -6.55725e-11 -1.06205e-10 4.94706e-10 5.5999e-10 3.16409e-10 
1.55598e-10 -4.70777e-11 6.72539e-11 -3.02402e-12 1.46958e-10 4.31801e-11 -4.59031e-11 -2.99993e-10 1.30432e-11 
-1.501e-10 -3.32905e-10 -1.44902e-10 -7.80149e-11 1.17389e-10 -4.21228e-25 -1.66447e-10 -4.59575e-10 -1.87807e-10 
2.39729e-11 -7.53244e-11 9.77423e-11 -1.6352e-10 -2.9773e-10 -1.38375e-10 3.70422e-11 7.71178e-11 1.04916e-10 
-3.4301e-10 -5.73124e-10 -2.7484e-10 -3.96395e-11 -5.18424e-11 4.31474e-11 -1.20964e-10 -2.05297e-10 -9.78784e-11 
-1.87319e-10 -1.60128e-11 -5.12411e-12 -5.64652e-10 -1.46901e-09 -6.101e-10 -1.66684e-10 1.15351e-10 -3.38307e-11 
-1.33232e-10 -3.46462e-10 -1.43908e-10 1.39479e-10 -6.52159e-11 1.79344e-11 9.4999e-11 -1.17617e-10 -6.78544e-12 
-2.08525e-11 4.6117e-11 9.03124e-11 2.89828e-10 5.8027e-10 2.61029e-10 1.99241e-10 -4.29144e-11 -9.41555e-11 
1.82807e-10 2.27021e-10 1.22949e-10 -9.76602e-11 8.96719e-11 -3.17588e-11 2.16305e-10 1.17863e-10 1.0025e-10 
7.12147e-13 -9.62104e-12 8.33435e-11 -7.41616e-12 -1.4157e-10 -4.46958e-11 7.1734e-11 -9.11664e-11 -1.56926e-11 
-6.19966e-11 -3.25414e-10 -1.16223e-10 -5.2444e-11 1.06112e-10 5.97812e-12 3.2996e-10 4.28515e-10 2.27542e-10 
1.86511e-11 2.2418e-11 1.64398e-11 7.97517e-11 3.59967e-10 1.31916e-10 -8.02063e-11 8.96719e-12 1.27782e-10 
3.33054e-11 -1.31851e-10 -2.95637e-11 -5.12715e-11 2.69016e-11 7.95838e-11 3.03311e-11 1.08146e-10 4.15433e-11 
5.12378e-11 -3.73633e-12 -8.59355e-12 -6.52268e-11 -2.33913e-10 -8.97419e-11 -5.8196e-11 2.31652e-11 -3.43742e-11 
-1.35536e-10 -3.47384e-10 -1.44876e-10 -1.0437e-10 -4.52096e-11 3.62424e-11 1.99602e-10 1.79869e-10 1.13841e-10 
1.61861e-10 3.73633e-12 1.3675e-10 -2.85203e-10 -6.93482e-10 -2.93605e-10 -3.57673e-11 4.44623e-11 -4.44623e-11 
1.92743e-11 -1.82505e-10 -4.89692e-11 1.30251e-10 9.45291e-11 -9.34082e-12 -1.3644e-10 -2.65448e-10 -1.20567e-10 
-1.69701e-10 6.12758e-11 7.77156e-11 2.57143e-10 -2.02032e-10 1.65332e-11 -1.91274e-11 -1.33387e-10 7.7342e-11 
-2.92052e-10 -1.41596e-10 -1.30094e-10 3.03579e-11 3.81105e-11 2.39125e-11 -2.55639e-10 -7.20243e-10 -2.92765e-10 
-6.25689e-11 -7.69683e-11 3.62424e-11 1.1842e-10 3.92522e-10 1.53283e-10 -2.96897e-11 -4.7825e-11 -2.39125e-11 
2.84067e-11 3.92397e-10 1.26241e-10 1.14411e-10 3.1572e-10 7.28584e-11 1.70847e-10 3.40096e-10 1.53283e-10 
-2.09844e-11 3.2506e-11 -4.7825e-11 -1.8042e-10 -8.88294e-11 -8.07747e-11 -5.52623e-12 -3.54951e-11 3.47478e-11 
-8.38894e-11 -9.7556e-11 -5.44336e-11 4.87919e-11 8.66828e-11 -4.96932e-11 1.11548e-10 1.84089e-10 8.86911e-11 
-7.7457e-11 1.53723e-10 4.03523e-11 -1.06536e-10 -3.39822e-10 -1.33907e-10 -1.23128e-10 4.13131e-11 2.35789e-11 
5.88465e-10 8.22116e-10 4.23174e-10 -7.15039e-11 1.25541e-10 -5.38031e-11 -6.75612e-10 -6.84878e-10 -4.08147e-10 
-3.73216e-11 4.07128e-25 9.8639e-11 1.87337e-10 2.67274e-10 1.36383e-10 7.83381e-11 1.79344e-11 8.13945e-11 
-3.51577e-10 -6.92151e-10 -3.13119e-10 -8.56142e-11 6.34601e-11 1.07606e-10 -6.79158e-10 -1.02974e-09 -5.12671e-10 
-6.91333e-11 -3.88578e-11 -9.71445e-12 3.03651e-10 6.43041e-10 2.84008e-10 1.22248e-10 -1.09101e-10 -3.88578e-11 
1.61439e-10 1.80622e-10 1.02618e-10 -5.17738e-11 -7.32679e-11 1.9146e-10 -9.03742e-11 1.85277e-10 2.84708e-11 
5.82598e-11 -2.62743e-10 7.80719e-11 7.36608e-10 1.4451e-09 6.54511e-10 2.9111e-10 1.59417e-10 1.35504e-10 
1.74847e-10 3.1648e-10 1.47398e-10 6.58864e-11 5.57958e-11 2.39125e-11 4.55397e-10 7.80393e-10 3.70737e-10 
-1.34746e-10 1.6003e-10 -1.10365e-11 -1.67431e-10 -2.63351e-10 -1.29234e-10 -6.3321e-11 -1.95648e-11 -4.56511e-11 
-1.97959e-10 -6.25528e-10 -2.47046e-10 -1.93541e-10 -3.05474e-10 -5.45961e-11 1.40203e-10 -7.33232e-11 2.00641e-11 
-8.21513e-11 6.21725e-11 2.15212e-11 
METADATA
COMPONENT_NAMES
XX
YY
ZZ
XY
YZ
ZX

S_Mises 1 13235 double
0 0 0 0 0 0 0 0 1.3657523656e-11 
8.0728268747e-11 2.513713989e-11 1.6477696487e-10 0 0 0 0 2.1599272024e-10 7.7848545615e-10 
2.5729682776e-10 4.2269011552e-10 0 0 0 0 0 0 0 
0 0 0 0 0 0 0 0 0 
0 0 0 0 0 0 0 0 0 
0 0 0 0 0 0 0 0 0 
0 0 0 0 0 0 0 0 0 
0 0 0 0 0 0 0 0 0 
0 0 0 0 0 0 0 0 0 
0 0 0 0 0 0 0 0 0 
0 0 0 0 0 0 0 0 0 
0 0 0 0 0 0 0 0 0 
0 0 0 0 0 0 0 0 0 
0 0 0 0 0 0 0 0 0 
0 0 0 0 0 0 0 0 0 
0 0 0 0 0 0 0 0 0 
0 0 0 0 0 0 0 0 0 
0 0 0 0 0 0 0 0 0 
0 0 0 0 0 0 0 0 0 
0 0 0 0 0 0 0 0 0 
0 0 0 0 0 0 0 0 0 
0 0 0 0 0 0 0 0 0 
0 0 0 0 0 0 0 0 0 
0 0 0 0 0 0 0 0 0 
0 0 0 0 0 0 0 0 0 
0 0 0 0 0 0 0 0 0 
0 0 0 0 0 0 0 0 0 
0 0 0 0 0 0 0 0 0 
0 0 0 0 0 0 0 0 0 
0 0 0 0 0 0 0 0 0 
0 0 2.3724186161e-11 3.5540153951e-11 2.3323274368e-11 3.0394846236e-11 3.9884506476e-11 4.0769692565e-11 4.4747841142e-11 
3.6688516959e-11 1.9092040377e-11 2.7146698547e-11 2.4123973503e-11 3.6548534423e-11 2.9499094199e-11 2.2232003023e-11 1.4491614194e-11 1.4147099593e-11 
2.2666607919e-11 3.7630411644e-11 1.7889989652e-11 4.4702497418e-11 5.8057707363e-11 3.4998260321e-11 3.6124831674e-11 1.9925663561e-11 1.376760107e-11 
3.2662431441e-11 5.646942616e-11 3.2344474991e-11 1.6871109883e-11 1.4901204631e-11 2.6588257144e-11 7.4799015788e-11 6.9625479902e-11 9.230112289e-11 
5.6517248948e-11 4.0739088131e-11 8.289335915e-11 1.4798722681e-10 1.2908776443e-10 1.1331553522e-10 8.8876167373e-11 6.1917973219e-11 9.2445780885e-11 
9.0003454616e-11 9.4598228499e-11 9.8999561528e-12 1.0059426476e-10 1.2148720087e-10 6.7771540727e-11 9.4015743667e-11 4.4995345639e-11 4.8227893908e-11 
9.9015079196e-11 1.2440456526e-10 1.3553632543e-10 4.3724033322e-11 1.1129826317e-10 1.0110934898e-10 1.2056218955e-10 1.52705938e-10 1.0751117278e-10 
8.9950305696e-11 1.3343153071e-10 6.6086622209e-11 2.7458872802e-11 6.8340340149e-11 5.1992111503e-11 3.4412810605e-11 4.6506953082e-11 3.7901667904e-11 
5.791966674e-11 3.2725807612e-11 2.9694183992e-11 5.4123183317e-11 5.9278226699e-11 5.3669994501e-11 4.737130898e-11 3.1017545046e-11 3.1508524845e-11 
5.1519766218e-11 2.3129485596e-11 2.7690618551e-11 3.0176263459e-11 4.7736359693e-11 3.4824173872e-11 6.4913420789e-11 4.016944834e-11 2.0786271418e-11 
5.3793161403e-11 3.1615557942e-11 1.0448514565e-11 3.795238795e-11 3.3440486024e-11 1.1680594015e-11 1.8072694316e-11 2.2644355642e-11 1.9869127044e-11 
1.2041589526e-11 1.2764512847e-11 2.0467834691e-11 2.8631410532e-11 2.3592789604e-11 2.0763137866e-11 9.9976383906e-12 1.1795404109e-11 9.1608845317e-12 
1.0387442942e-11 1.7439654406e-11 1.1597783143e-11 1.7239335134e-11 7.674644646e-12 5.2592279128e-12 1.0423148645e-11 1.1895611748e-11 1.0859269307e-11 
4.2269132147e-12 5.4422846326e-12 2.6549376798e-12 2.887513471e-12 2.9431588557e-12 2.0179999008e-12 1.8168256931e-12 2.4177279059e-12 5.1073569223e-12 
7.1295949821e-12 5.9439514474e-12 1.1448919101e-11 9.7850968617e-12 1.2461598927e-11 1.873593535e-11 8.4776652473e-11 1.6466055512e-10 1.9015863413e-10 
1.0846527777e-10 1.5184714878e-10 2.1368586333e-10 1.4922850713e-10 1.8201073124e-10 5.3774481447e-11 2.7614616595e-10 1.8265593626e-10 1.7264288041e-10 
8.2121361859e-11 1.1147851093e-10 1.9598475354e-10 9.6571061912e-11 1.2596559847e-10 1.9298530042e-10 1.3754811002e-10 4.1501144901e-10 3.8571554122e-10 
1.5438437366e-10 1.4873873687e-10 1.9483424231e-10 8.9092643183e-11 5.0542124423e-10 1.9104349455e-10 2.2142857908e-10 1.4590472795e-10 1.6724301726e-10 
1.9255065787e-10 2.3399640899e-11 1.5643810466e-11 2.1711264202e-11 3.8992359878e-11 3.4949450775e-11 3.5252450984e-11 3.7854177914e-11 1.3546172774e-11 
1.8223601898e-11 3.5614952624e-11 1.5383579543e-11 2.5651189792e-11 2.7243544547e-11 1.2658436719e-11 2.048096467e-11 1.0890261953e-11 2.5374229944e-11 
5.2415335388e-11 1.907454671e-11 1.2966315602e-11 1.8936524003e-11 3.0916566475e-11 1.9129636569e-11 6.5877516061e-12 2.3273099602e-11 1.4131875367e-10 
1.1237205094e-10 1.1336682849e-10 1.8114666858e-10 1.021306653e-10 1.453145924e-10 1.5337106387e-10 1.7986623125e-10 1.6545848966e-10 1.1899979225e-10 
9.58065216e-11 2.5905239437e-10 1.917183093e-10 8.8128338737e-11 2.3841703508e-10 1.0189191514e-10 1.8792751222e-10 1.0548600299e-10 2.5416097003e-10 
6.8427449895e-11 1.6811115122e-10 1.2932378059e-10 1.4313085946e-10 4.3654758676e-11 1.2018689933e-10 6.0238225908e-11 1.1952716907e-10 7.1759928773e-11 
8.3959590298e-11 3.0489936833e-11 8.0174047252e-11 7.7602774444e-11 7.3879056118e-11 4.729460946e-11 5.3693674119e-11 5.4860731437e-11 6.0953285585e-11 
6.2154033309e-11 7.7823899431e-11 6.1152241615e-11 4.8801212653e-11 7.4179968457e-11 6.3886917558e-11 8.660676638e-11 5.4103907063e-11 4.7707451425e-11 
6.4887734987e-11 1.1260734024e-10 1.1935254734e-10 6.9448192328e-11 6.1829347374e-11 4.8939834177e-11 8.085763077e-11 6.71199819e-11 5.8133655283e-11 
4.7236854218e-11 4.1071653229e-11 8.238760858e-11 4.9718818949e-11 3.5281426915e-11 4.7656753062e-11 4.2739389988e-11 3.5229730189e-11 2.1860731632e-11 
3.8114163867e-11 3.3480903158e-11 3.6210536059e-11 4.9711196748e-11 4.5123070328e-11 3.8535185262e-11 3.8095291704e-11 3.3153996632e-11 2.7192412453e-11 
3.4674951354e-11 2.3290508386e-11 1.7509742303e-11 2.9523621041e-11 3.0528152861e-11 2.4830705796e-11 2.5787364594e-11 2.4734884308e-11 1.7678684137e-11 
2.5667883741e-11 1.1703583338e-11 2.8238389976e-11 3.2633635276e-11 1.1580584421e-11 3.3486063822e-11 1.6247563921e-11 3.2604599767e-11 9.3541575171e-12 
2.2803836781e-11 1.5159512934e-11 2.0370568326e-11 2.3983215956e-11 2.9840086114e-11 2.2344907012e-11 1.7979969375e-11 1.7258652897e-11 5.3814782355e-12 
8.7308008647e-12 5.8848009883e-12 5.9148469845e-12 1.3909448804e-11 1.074101909e-11 5.1551305312e-12 7.7700649022e-12 7.6755245988e-12 7.6589097928e-12 
4.8942577456e-12 4.3400529189e-12 3.2541983805e-12 2.2448755949e-12 2.0604973651e-12 1.9723643351e-12 2.0870877343e-12 3.6277004115e-12 3.8597070611e-12 
6.6508226903e-12 7.8117153108e-12 3.1652776559e-12 7.2209440497e-12 1.5994438577e-11 8.9415733065e-12 0 0 0 
0 0 0 0 0 0 0 0 0 
0 0 0 0 0 0 0 0 0 
0 0 0 0 0 0 0 0 0 
0 0 0 0 0 0 0 0 0 
0 0 0 0 0 0 0 0 0 
0 0 0 0 0 0 0 0 0 
0 0 0 0 0 0 0 0 0 
0 0 0 0 0 0 0 0 0 
0 0 0 0 0 0 0 0 0 
0 0 0 0 0 0 0 0 0 
0 0 0 0 0 0 0 0 0 
0 0 0 0 0 0 0 0 0 
0 0 0 0 0 0 0 0 0 
0 0 0 0 0 0 0 0 0 
0 0 0 0 0 0 0 0 0 
0 0 0 0 0 0 0 0 0 
0 6.7751145058e-10 5.376543617e-10 8.7495934666e-10 3.0494132113e-10 3.1689982464e-10 3.5544487719e-10 6.1974543511e-10 4.7225503822e-11 
9.4822909853e-10 3.959244698e-10 4.9442145753e-10 2.6805358251e-10 4.0154059596e-10 4.0864073628e-10 4.8504583792e-10 1.7742763589e-10 8.1632619911e-10 
4.0733542196e-10 4.8083131772e-10 2.8274171085e-10 5.7439478463e-10 2.3868586843e-10 2.8053259154e-10 8.1564459559e-10 3.7499417436e-10 3.2014278884e-10 
2.2978002093e-10 3.5096933872e-10 4.2663012528e-10 1.9156282684e-10 3.2884880846e-10 4.1805095304e-10 3.1423019387e-10 3.5766231029e-10 4.5580457473e-10 
3.8498581227e-10 6.3029731841e-10 2.7091061778e-10 1.565199143e-10 3.8742812073e-10 4.034839063e-10 2.9022473526e-10 3.8897903407e-10 2.7751600499e-10 
2.770491044e-10 2.5161412464e-10 1.9366250048e-10 2.9699748316e-10 3.0020434999e-10 1.6952609082e-10 1.9054797829e-10 2.0108810419e-10 2.6187782504e-10 
3.212988773e-10 1.9060631895e-10 2.4705810372e-10 9.4217635222e-11 1.8113537937e-10 9.0049291004e-10 6.3424018352e-10 2.873167458e-10 4.894639337e-10 
4.3866637242e-10 5.4713950335e-10 4.2313497639e-10 8.6954914668e-10 4.2592030489e-10 5.0190147791e-10 1.1197764069e-09 5.8953665509e-10 1.038204999e-09 
9.9343145382e-10 5.9784489776e-10 6.4271746562e-10 4.2319358883e-10 6.7932947236e-10 5.5879657506e-10 5.9497555894e-10 5.3401223043e-10 5.2322863284e-10 
6.7695787493e-10 3.0252710181e-10 4.2611345491e-10 5.2107848691e-10 6.7087498002e-10 6.6843000292e-10 5.3184691707e-10 2.6708808059e-10 3.8843674539e-10 
1.1736166417e-09 3.3109180386e-10 7.2435953585e-10 5.1589575785e-10 4.5735092569e-10 4.0115279715e-10 2.1875674494e-10 3.6512070396e-10 4.6982356423e-10 
5.825345802e-10 1.5501241496e-10 3.4257577671e-10 3.5835487803e-10 3.8641889658e-10 5.6062530369e-10 7.5014632144e-10 4.1797948014e-10 4.1947994581e-10 
4.1243274698e-10 6.3823850365e-10 2.8822098225e-10 5.4760118678e-10 4.9956543514e-10 7.2698550723e-10 5.8395980398e-10 2.9526834229e-10 2.0880740088e-10 
3.9420882998e-10 2.8995967576e-10 2.3029149427e-10 1.4704875053e-10 1.8276253429e-10 3.0409458179e-10 4.4901484041e-10 7.2931864956e-10 1.0023638513e-09 
5.1160173061e-10 7.1280203261e-10 5.4881877067e-10 1.7912664133e-10 3.8724882125e-10 1.171243295e-09 4.2245691487e-10 1.0386830494e-09 9.0936601582e-10 
9.9045706144e-10 6.8384447538e-10 3.2586920004e-10 5.6482432516e-10 1.7612050002e-10 4.734289228e-10 3.3134705641e-10 9.3751431752e-10 3.4539667846e-10 
2.2238835225e-10 1.2889120411e-09 8.6100275479e-10 9.3717419733e-10 5.0043456294e-10 5.2197415721e-10 3.5244868994e-10 3.7240632148e-10 3.3899825852e-10 
8.3158713649e-10 2.239182215e-10 3.8797587193e-10 5.2900796465e-10 6.5436582527e-10 3.2621673541e-10 1.9594862129e-10 3.7204355083e-10 3.7070570854e-10 
3.7686525798e-10 1.1929973861e-10 2.2815705785e-10 1.8182695927e-10 4.3969846257e-10 1.981801633e-10 1.5941115235e-10 1.7793553928e-10 8.3208145055e-11 
3.9112653691e-11 2.496504949e-10 2.8704220677e-10 2.0747872956e-10 9.5666655273e-11 3.0761328255e-10 1.9352155562e-10 2.7810742673e-10 0 
0 0 0 0 0 0 0 0 0 
0 0 0 0 0 0 0 0 0 
0 0 0 0 0 0 0 0 0 
0 0 0 0 0 0 0 0 0 
0 0 0 0 0 0 0 0 0 
0 0 0 0 0 0 0 0 0 
0 0 0 0 0 0 0 0 0 
0 0 0 0 0 0 0 0 0 
0 0 0 0 0 0 0 0 0 
0 0 0 0 0 0 0 0 0 
0 0 0 0 0 0 0 0 0 
0 0 0 0 0 0 0 0 0 
0 0 0 0 0 0 0 0 0 
0 0 0 0 0 0 0 0 0 
0 0 0 0 0 0 0 0 0 
0 0 0 0 0 0 0 0 0 
0 0 0 0 0 0 0 0 0 
0 0 0 0 0 0 0 0 0 
0 0 0 0 0 0 0 0 0 
0 0 0 0 0 0 0 0 0 
0 0 0 0 0 0 0 0 0 
0 0 0 0 0 0 0 0 0 
0 0 0 0 0 0 0 0 0 
0 0 0 0 0 0 0 0 0 
0 0 0 0 0 0 0 0 0 
0 0 0 0 0 0 0 0 0 
0 0 0 0 0 0 0 0 0 
0 0 0 0 0 0 0 0 0 
0 0 0 0 0 0 0 0 0 
0 0 0 0 0 0 0 0 0 
0 0 0 0 0 0 0 0 0 
0 0 0 0 0 0 0 0 0 
0 0 0 0 0 0 0 0 0 
0 0 0 0 0 0 0 0 0 
0 0 0 0 0 0 0 0 0 
0 0 0 0 0 0 0 0 0 
0 0 0 0 0 0 0 0 0 
0 0 0 0 0 0 0 0 0 
0 0 0 0 0 0 0 0 0 
0 0 0 0 0 0 0 0 0 
0 0 0 0 0 0 0 0 0 
0 0 0 0 0 0 0 0 0 
0 0 0 0 0 0 0 0 0 
0 0 0 0 0 0 0 0 0 
0 0 0 0 0 0 0 0 0 
0 0 0 0 0 0 0 0 0 
0 0 0 0 0 0 0 0 0 
0 0 0 0 0 0 0 0 0 
0 0 0 0 0 0 0 0 0 
0 0 0 0 0 0 0 0 0 
0 0 0 0 0 0 0 0 0 
0 0 0 0 0 0 0 0 0 
0 0 0 0 0 0 0 0 0 
0 0 0 0 0 0 0 0 0 
0 0 0 0 0 0 0 0 0 
0 0 0 0 0 0 0 0 0 
0 0 0 0 0 0 0 0 0 
0 0 0 0 0 0 0 0 0 
0 0 0 0 0 0 0 0 0 
0 0 0 0 0 0 0 0 0 
0 0 0 0 0 0 0 0 0 
0 0 0 0 0 0 0 0 0 
0 0 0 0 0 0 0 0 0 
0 0 0 0 0 0 0 0 0 
0 0 0 0 0 0 0 0 0 
0 0 0 0 0 0 0 0 0 
0 0 0 0 0 0 0 0 0 
0 0 0 0 0 0 0 0 0 
0 0 0 0 0 0 0 0 0 
0 0 0 0 0 0 0 0 0 
0 0 0 0 0 0 0 0 0 
0 0 0 0 0 0 0 0 0 
0 0 0 0 0 0 0 0 0 
0 0 0 0 0 0 0 0 0 
0 0 0 0 0 0 0 0 0 
0 0 0 0 0 0 0 0 0 
0 0 0 0 0 0 0 0 0 
0 0 0 0 0 0 0 0 0 
0 0 0 0 0 0 0 0 0 
0 0 0 0 0 0 0 0 0 
0 0 0 0 0 0 0 0 0 
0 0 0 0 0 0 0 0 0 
0 0 0 0 0 0 0 0 0 
0 0 0 0 0 0 0 0 0 
0 0 0 0 0 0 0 0 0 
0 0 0 0 0 0 0 0 0 
0 0 0 0 0 0 0 0 0 
0 0 0 0 0 0 0 0 0 
0 0 0 0 0 0 0 0 0 
0 0 0 0 0 0 0 0 0 
0 0 0 0 0 0 0 0 0 
0 0 0 0 0 0 0 0 0 
0 0 0 0 0 0 0 0 0 
0 0 0 0 0 0 0 0 0 
0 0 0 0 0 0 0 0 0 
0 0 0 0 0 0 0 0 0 
0 0 0 0 0 0 0 0 0 
0 0 0 0 0 0 0 0 0 
0 0 0 0 0 0 0 0 0 
0 0 0 0 0 0 0 0 0 
0 0 0 0 0 0 0 0 0 
0 0 0 0 0 0 0 0 0 
0 0 0 0 0 0 0 0 0 
0 0 0 0 0 0 0 0 0 
0 0 0 0 0 0 0 0 0 
0 0 0 0 0 0 0 0 0 
0 0 0 0 0 0 0 0 0 
0 0 0 0 0 0 0 0 0 
0 0 0 0 0 0 0 0 0 
0 0 0 0 0 0 0 0 0 
0 0 0 0 0 0 0 0 0 
0 0 0 0 0 0 0 0 0 
0 0 0 0 0 0 0 0 0 
0 0 0 0 0 0 0 0 0 
0 0 0 0 0 0 0 0 0 
0 0 0 0 0 0 0 0 0 
0 0 0 0 0 0 0 0 0 
0 0 0 0 0 0 0 0 0 
0 0 0 0 0 0 0 0 0 
0 0 0 0 0 0 0 0 0 
0 0 0 0 0 0 0 0 0 
0 0 0 0 0 0 0 0 0 
0 0 0 0 0 0 0 0 0 
0 0 0 0 0 0 0 0 0 
0 0 0 0 0 0 0 0 0 
0 0 0 0 0 0 0 0 0 
0 0 0 0 0 0 0 0 0 
0 0 0 0 0 0 0 0 0 
0 0 0 0 0 0 0 0 0 
0 0 0 0 0 0 0 0 0 
0 0 0 0 0 0 0 0 0 
0 0 0 0 0 0 0 0 0 
0 0 0 0 0 0 0 0 0 
0 0 0 0 0 0 0 0 0 
0 0 0 0 0 0 0 0 0 
0 0 0 0 0 0 0 0 0 
0 0 0 0 0 0 0 0 0 
0 0 0 0 0 0 0 0 0 
0 0 0 0 0 0 0 0 0 
0 0 0 0 0 0 0 0 0 
0 0 0 0 0 0 0 0 0 
0 0 0 0 0 0 0 0 0 
0 0 0 0 0 0 0 0 0 
0 0 0 0 0 0 0 0 0 
0 0 0 0 0 0 0 0 0 
0 0 0 0 0 0 0 0 0 
0 0 0 0 0 0 0 0 0 
0 0 0 0 0 0 0 0 0 
0 0 0 0 0 0 0 0 0 
0 0 0 0 0 0 0 0 0 
0 0 0 0 0 0 0 0 0 
0 0 0 0 0 0 0 0 0 
0 0 0 0 0 0 0 0 0 
0 0 0 0 0 0 0 0 0 
0 0 0 0 0 0 0 0 0 
0 0 0 0 0 0 0 0 0 
0 0 0 0 0 0 0 0 0 
0 0 0 0 0 0 0 0 0 
0 0 0 0 0 0 0 0 0 
0 0 0 0 0 0 0 0 0 
0 0 0 0 0 0 0 0 0 
0 0 0 0 0 0 0 0 0 
0 0 0 0 0 0 0 0 0 
0 0 0 0 0 0 0 0 0 
0 0 0 0 0 0 0 0 0 
0 0 0 0 0 0 0 0 0 
0 0 0 0 0 0 0 0 0 
0 0 0 0 0 0 0 0 0 
0 0 0 0 0 0 0 0 0 
0 0 0 0 0 0 0 0 0 
0 0 0 0 0 0 0 0 0 
0 0 0 0 0 0 0 0 0 
0 0 0 0 0 0 0 0 0 
0 0 0 0 0 0 0 0 0 
0 0 0 0 0 0 0 0 0 
0 0 0 0 0 0 0 0 0 
0 0 0 0 0 0 0 0 0 
0 0 0 0 0 0 0 0 0 
0 0 0 0 0 0 0 0 0 
0 0 0 0 0 0 0 0 0 
0 0 0 0 0 0 0 0 0 
0 0 0 0 0 0 0 0 0 
0 0 0 0 0 0 0 0 0 
0 0 0 0 0 0 0 0 0 
0 0 0 0 0 0 0 0 0 
0 0 0 0 0 0 0 0 0 
0 0 0 0 0 0 0 0 0 
0 0 0 0 0 0 0 0 0 
0 0 0 0 0 0 0 0 0 
0 0 0 0 0 0 0 0 0 
0 0 0 0 0 0 0 0 0 
0 0 0 0 0 0 0 0 0 
0 0 0 0 0 0 0 0 0 
0 0 0 0 0 0 0 0 0 
0 0 0 0 0 0 0 0 0 
0 0 0 0 1.9402336395e-11 5.6753077404e-12 1.3895785756e-10 1.4362287964e-10 1.0752316859e-11 
1.6191191997e-11 7.4335224028e-12 7.5361287654e-12 6.0095816468e-12 3.0593776981e-12 4.6641384309e-12 1.8890188884e-12 1.9390324829e-12 1.1852667795e-12 
5.2845967967e-12 3.4051540981e-12 5.7040694655e-12 4.545716967e-12 1.3276366765e-11 1.0270822905e-11 1.0090035235e-11 5.1695192364e-12 1.242052499e-11 
2.6569032922e-11 9.3399726934e-12 1.5996476426e-11 1.3926496553e-11 2.9816222094e-11 3.3072134509e-11 1.0212220206e-11 2.0581492183e-11 1.3294577578e-11 
3.1736551405e-11 2.8757144935e-11 1.6543817705e-11 2.0854903106e-11 5.2252742078e-11 4.4465904279e-11 4.5386908137e-11 5.5790888311e-11 3.4950935389e-11 
9.6632746129e-11 3.9519513768e-11 2.9736016674e-11 4.4663253167e-11 2.5296961824e-11 2.0528523398e-11 2.0292856673e-11 5.1966732266e-11 4.3058867711e-11 
4.6740982876e-11 7.8349675873e-11 5.440623364e-11 4.1533420274e-11 2.513144493e-11 3.2613654291e-11 7.7909258728e-11 5.2937110071e-11 6.9969918622e-11 
1.1042299461e-10 1.1866601641e-10 9.2976666745e-11 5.7001672791e-11 6.2206927225e-11 4.9208031929e-11 7.0372824501e-11 1.4884200609e-10 8.1606894932e-11 
4.3471806785e-11 9.7277537254e-11 5.9026287525e-11 9.8348995152e-11 7.1210426953e-11 7.6846404613e-11 8.2463208345e-11 6.9002082024e-11 8.3994085882e-11 
6.8586170636e-11 9.1684575479e-11 1.715406263e-10 1.3280095095e-10 2.329423961e-10 6.4000537481e-11 1.1118730874e-10 1.7909314713e-10 6.4939692697e-11 
1.3431457892e-10 1.3001540326e-10 6.982212881e-11 5.2206097906e-11 7.2886161787e-11 1.4190393231e-10 1.4667046604e-10 1.2210657039e-10 1.1616720927e-10 
1.3288919526e-10 8.8882994441e-11 1.5318804295e-10 1.0623647968e-10 7.641451566e-11 1.6932612712e-10 8.3854955758e-12 2.1675173105e-11 7.6003782385e-11 
1.5938699133e-10 3.0007000328e-11 2.5674614513e-10 2.6585149001e-11 1.6108585942e-11 1.0808064526e-10 1.1294763738e-10 1.9315931587e-11 2.1740043598e-11 
1.1265322308e-10 1.5570091901e-10 5.5030010378e-12 8.3691795937e-11 1.8428210222e-10 1.0650124598e-11 9.9360775365e-12 1.5037118036e-11 1.5568022789e-11 
1.8551687239e-11 1.1891695856e-11 1.641317735e-11 1.1254408613e-11 1.5144784898e-11 7.3143486531e-12 1.4589770559e-11 7.7601510764e-12 7.6036231722e-12 
7.4617676429e-12 5.5891532688e-12 6.1658749818e-12 5.5164570729e-12 1.0786408363e-11 7.7035745e-12 9.6346377821e-12 1.2218749357e-11 5.297271144e-12 
8.9832803268e-12 2.2291992385e-11 1.529572157e-11 1.2721684088e-11 8.1684055378e-12 2.6545659592e-11 2.0411649636e-11 1.4528945246e-11 1.32386003e-11 
1.5487355697e-11 9.9476962347e-12 3.3009645718e-11 2.2857431597e-11 2.4974159212e-11 2.4357220447e-11 2.4825747669e-11 1.4041317381e-11 1.5906327342e-11 
3.5732196484e-11 2.3354308807e-11 1.9146485834e-11 4.1972413127e-11 4.4293928752e-11 2.400737186e-11 1.0682670469e-11 5.9299743339e-11 1.9662930864e-11 
3.9698606906e-11 4.4391605625e-11 2.0316634114e-11 2.1297667952e-11 3.2331728072e-11 2.0190409012e-11 4.8750126932e-11 2.448149949e-11 2.9195167275e-11 
6.4309275589e-11 2.4971671861e-11 1.9724093962e-11 3.2625728584e-11 2.2634931177e-11 4.1412843604e-11 4.1065440044e-11 1.0799491957e-10 3.8548212859e-11 
7.6421566915e-11 2.4598780382e-11 6.7076812859e-11 8.8213825407e-11 3.3783084883e-11 6.3784688899e-11 4.12347948e-11 3.6576488574e-11 7.2576804386e-11 
6.1920167061e-11 5.2205061265e-11 6.0008662302e-11 2.9810743646e-11 4.3413711485e-11 1.932367568e-11 4.5303208151e-11 2.8622796901e-11 2.4328811208e-11 
4.9950613249e-11 5.9988132367e-11 4.696109393e-11 4.114469087e-11 1.0037588959e-10 4.6214953452e-11 3.9149981535e-11 5.1896952017e-11 3.7317480134e-11 
2.5502567699e-11 1.3635468241e-10 3.5059804568e-11 1.1552817467e-10 5.6057175999e-11 8.7694079411e-11 1.4239842345e-10 4.1771697832e-11 7.8035338705e-11 
7.4880943449e-11 3.2751688133e-11 7.819651355e-11 6.6512472564e-11 4.6698236721e-11 2.9143987245e-11 4.4354705119e-11 7.8696067188e-11 4.4797909597e-11 
1.2259851096e-10 9.9913297469e-11 8.2255117311e-11 1.4555436105e-10 1.4800670579e-10 1.2621082141e-10 1.1151713928e-10 1.5338860598e-10 6.7875063744e-11 
9.7944326498e-11 7.0623990965e-11 3.3655166003e-11 1.3626648439e-10 1.7567610168e-10 8.3903631153e-11 1.990619555e-10 7.3800966823e-11 5.4315921422e-11 
9.354297207e-11 1.9033082541e-10 1.071010733e-10 9.0830790155e-11 1.1109388129e-10 1.4017915211e-10 2.4004185619e-10 1.0038828335e-10 1.8179077885e-10 
4.3287513513e-11 1.0352398053e-10 1.3014269221e-10 6.9340945089e-11 1.6320700873e-10 4.7385644264e-11 1.7898269008e-10 1.2879757542e-10 8.7255907103e-11 
1.2263469971e-10 1.4680875378e-10 1.2518849674e-10 1.2234088941e-10 4.2822674741e-11 5.128273286e-11 9.6817152726e-11 2.9718197705e-10 1.1957283585e-10 
9.4190736998e-11 9.9109173765e-11 1.7573041972e-10 1.9933213441e-10 1.8540973541e-10 1.2994728743e-10 1.447207174e-10 2.9618778871e-10 2.3310155185e-10 
1.666823853e-10 1.3789949947e-10 1.8804958439e-10 9.9119361817e-11 2.0464218025e-10 7.2391022514e-11 8.0940180141e-11 5.2477425091e-11 1.2123232503e-10 
1.3838221304e-10 6.2074633715e-11 5.6314535409e-11 4.7666726562e-11 9.6416941497e-11 5.7709131708e-11 1.3444386371e-10 1.1426043041e-10 8.0231074759e-11 
2.6500607892e-10 2.4401088125e-10 9.6276664765e-11 3.2476605437e-10 1.723755767e-10 1.5932180891e-10 1.2076237028e-10 1.7313413704e-10 1.1380746181e-10 
9.5879196584e-11 8.2452499484e-11 2.041345776e-10 5.9198377639e-11 1.9640504983e-10 1.9354158471e-10 1.1289209158e-10 1.7613113803e-10 1.1174064143e-10 
5.2001879868e-11 2.270159914e-10 1.1909143729e-10 2.5859147598e-10 2.1263518523e-10 1.499001798e-10 1.6450129035e-10 6.8461296817e-11 5.4939408124e-11 
1.2122287602e-10 1.7526045223e-10 6.9183263262e-11 1.7917305565e-10 2.4332713105e-10 2.9446140805e-10 1.0504182737e-10 1.9067986168e-10 1.0075438927e-10 
1.7689601685e-10 1.3359833044e-10 1.2775778462e-10 6.6968286693e-11 1.873380483e-10 1.2388122168e-10 1.284438289e-10 1.1729012765e-10 1.5553066984e-10 
1.5736012605e-10 1.4461122722e-10 8.1783008397e-11 1.7001181754e-10 9.5535828215e-11 1.0932041867e-10 1.33635267e-10 5.3681654159e-11 1.2033761116e-10 
2.6583097271e-10 7.649459331e-11 5.7802390314e-11 6.954093989e-11 8.8501872497e-11 1.5004856646e-10 1.1220574379e-10 8.1727805647e-11 8.2004143926e-11 
8.4563250865e-11 9.8824613288e-11 7.5939403471e-11 2.1766235779e-10 1.1144699123e-10 4.8074834985e-11 1.2126389036e-10 8.4783103987e-11 2.8606011084e-11 
1.1973446869e-10 1.3699399069e-10 5.6035430392e-11 3.8659926505e-11 5.7602241782e-11 8.618523874e-11 1.860128451e-10 8.7219103451e-11 3.4494822425e-11 
1.2646698474e-10 2.2423931664e-10 4.3048230082e-11 3.9533951964e-11 5.4354953213e-11 3.8643966325e-11 3.6897584209e-11 6.4878058933e-11 5.6126509663e-11 
4.4214508157e-11 7.9201381868e-11 9.1509871258e-11 2.1941372578e-11 7.3729342236e-11 6.5750469994e-11 4.9785258208e-11 2.7660414189e-11 7.0642994937e-11 
4.9220955005e-11 3.7884833057e-11 7.5599554087e-11 4.5048451694e-11 7.8179632511e-11 3.5755880581e-11 7.9345463579e-11 6.5788250146e-11 8.6737164968e-11 
4.361229657e-11 7.6503333095e-11 6.716150489e-11 6.1717783604e-11 1.8784845575e-11 6.1755863716e-11 6.9698961266e-11 2.4492697671e-11 6.6340526139e-11 
3.3472287406e-11 3.6152830507e-11 3.5503920835e-11 4.6221758715e-11 1.9783011373e-11 5.2346465605e-11 3.3968752461e-11 9.1130846907e-11 4.8132840662e-11 
6.6648695124e-11 7.12909488e-11 7.311521635e-11 3.6067852703e-11 4.0599228394e-11 3.4383784827e-11 2.9038430945e-11 2.7410909093e-11 2.5373041478e-11 
3.5954707253e-11 2.2006078494e-11 1.0712517514e-11 2.7790854413e-11 3.5987527159e-11 1.246397983e-11 1.1475684691e-11 3.7722348615e-11 1.9245620162e-11 
2.6886432716e-11 2.863766523e-11 2.7046813395e-11 1.5816239419e-11 1.8660758805e-11 8.4628143534e-12 1.7255435256e-11 3.6216890599e-11 2.3785026201e-11 
4.2624889434e-12 1.9500091485e-11 1.655672501e-11 1.3190871441e-11 1.3143841479e-11 1.8493100689e-11 4.563305963e-12 8.9277268345e-12 1.0502265028e-11 
9.6146650383e-12 1.0263204749e-11 1.302106186e-11 1.3383924946e-11 8.2914477554e-12 1.0215513912e-11 6.2235027428e-12 5.2156996124e-12 3.4011253695e-12 
1.0839554393e-11 5.3357709658e-12 9.345851994e-12 5.1904573159e-12 6.5211206365e-12 1.5571741176e-12 5.8759708924e-12 1.4869255829e-11 6.3920085508e-12 
3.1416840119e-12 1.4076212648e-11 1.4813352845e-11 7.8454443339e-12 5.5421991215e-12 9.8725706535e-12 1.3382495688e-11 1.1754018674e-11 4.0791927069e-12 
3.1102590859e-11 1.6365112358e-11 1.7127048054e-10 6.7843856177e-11 2.8568898163e-10 1.8550292404e-10 1.3998884861e-11 9.7772315168e-12 3.3952831788e-11 
1.245688418e-10 6.2856006764e-12 8.1312008737e-11 1.6765122623e-10 1.7017451599e-11 2.354040851e-11 9.4212369794e-12 1.3148737217e-10 1.5079966642e-10 
1.2609681933e-11 1.8540584138e-11 2.2557232996e-10 1.7672183447e-10 1.5503809389e-11 2.9628999863e-11 1.507468447e-10 1.4973748989e-10 7.3443521515e-12 
8.9726954183e-11 9.4061367036e-12 4.1959282167e-11 8.5138804371e-11 1.3508249557e-10 9.1720676829e-12 7.9854564063e-12 1.5713186743e-11 1.5975282068e-10 
1.8083203868e-10 1.8716971728e-11 2.3907200623e-11 8.373319356e-11 1.0655965031e-11 6.6853218013e-12 8.273015239e-12 8.6090305992e-12 3.6323520506e-12 
3.4015576721e-12 5.1862189893e-12 3.1018573228e-12 4.5939032708e-12 6.1225761212e-12 6.5825482048e-12 9.8203573086e-12 9.8885764677e-12 1.0977692735e-11 
1.2313894639e-11 1.1225684581e-11 1.7034237439e-11 9.8706504637e-12 6.4511243622e-12 1.7386684395e-11 1.5287659859e-11 2.1989382486e-11 2.1323808182e-11 
2.9893182894e-11 1.6932432277e-11 2.6811618063e-11 2.366928736e-11 1.1723897394e-11 2.7590087888e-11 4.0629009301e-11 7.0944777352e-11 5.4223730597e-11 
2.3794803368e-11 3.427433495e-11 5.9864332772e-11 4.6335522386e-11 4.3540824695e-11 3.3448245248e-11 4.5357856678e-11 3.6943797612e-11 4.1429395169e-11 
5.4945576176e-11 5.501752447e-11 2.77525595e-11 1.6715915763e-11 6.613417723e-11 4.6966294488e-11 5.84946038e-11 4.8649447565e-11 9.7896780087e-11 
7.1599289229e-11 6.42003244e-11 3.3978525108e-11 1.0641155722e-11 7.9832455731e-11 6.1791913789e-11 4.1133593728e-11 4.2671761632e-11 2.2608287784e-11 
3.7005829642e-11 3.3257463179e-11 5.4058281e-11 9.546562992e-11 4.5516121691e-11 1.5976726913e-10 2.2832716558e-10 1.4887870525e-10 7.01603816e-11 
1.6801069897e-10 1.609081849e-10 1.6503449751e-10 2.1881838359e-10 2.0914014581e-10 1.0217917453e-10 1.8894490245e-10 1.2120329597e-10 5.4149141656e-11 
8.186210898e-11 7.8883286351e-11 1.7092615076e-10 1.2660102184e-10 8.2735632489e-11 2.0416014891e-10 1.2283231093e-10 1.2219552395e-10 2.4694755136e-11 
1.2859268445e-10 1.2522015915e-10 1.0868159881e-10 4.4901851808e-11 2.2588776733e-10 1.6327763512e-10 2.6156521514e-10 1.5626809171e-10 1.5232748242e-10 
1.5634679002e-10 2.9082207987e-10 8.8283928031e-11 1.1523934061e-10 2.0499769982e-10 1.3274286574e-10 1.0082808134e-10 6.847689512e-11 1.3843655529e-10 
1.1301429065e-10 8.4475934131e-11 1.2260883056e-10 7.0696283593e-11 9.5833358582e-11 8.9493401594e-11 1.7542871756e-10 1.9893983259e-10 1.7089908411e-10 
6.8166340736e-11 1.3309805102e-10 1.7945186015e-10 1.3138465708e-10 8.9417932077e-11 6.1970364432e-11 2.7260183917e-11 1.1635661369e-10 5.6800974172e-11 
8.4147849574e-12 5.5149263902e-11 5.3224624439e-11 6.1351117828e-11 7.928972857e-11 9.2189955204e-11 1.6434853334e-10 8.5997261799e-11 6.4550113981e-11 
7.9242631469e-11 5.4208836432e-11 2.6183261697e-11 2.9699716715e-11 4.2930737967e-11 6.0707870021e-11 7.1749753057e-11 6.780487731e-11 2.4215486528e-11 
2.3289859259e-11 5.4468961428e-11 5.0616621875e-11 3.1604472646e-11 4.9972021668e-11 6.5273213056e-11 1.444863321e-11 4.3611900369e-11 8.7613364032e-11 
1.2312874298e-11 4.9664008871e-11 6.6661449454e-11 2.7075325879e-11 5.7897563134e-11 5.4202098456e-11 2.7367784232e-11 3.1616953104e-11 3.0290644561e-11 
3.3859459414e-11 1.2329542853e-11 1.1351869168e-11 3.8565479881e-11 2.2584226319e-11 1.2486071995e-11 3.0135256018e-11 4.6989857587e-11 2.1500173795e-11 
2.1185148425e-11 4.0227534198e-11 1.887920728e-11 1.9280928526e-11 1.0053043179e-11 1.2241960298e-11 1.0379974401e-11 1.2421731757e-11 9.2021388325e-12 
6.6584238622e-12 7.7200953756e-12 4.3430043979e-12 8.6886988568e-12 4.9876792751e-12 5.3460896624e-12 2.2025391019e-12 4.8859983425e-12 4.7782447801e-12 
7.112496686e-12 1.4638180557e-11 1.2203009617e-11 5.5650016085e-12 1.0031998318e-11 1.5289093241e-11 4.1154309463e-12 1.0283933777e-11 8.4791656613e-12 
6.9786663995e-12 6.7239088278e-12 9.5538192084e-12 8.2761371123e-12 4.3945343354e-12 4.3187354063e-12 9.1291978255e-12 7.752138589e-12 1.2615936548e-11 
7.9093459104e-12 3.9166732e-12 9.9243813257e-12 4.5452162964e-12 5.2268385022e-12 1.14083929e-11 1.1342711629e-11 1.6871839127e-11 1.4655911861e-11 
8.8994503163e-12 1.3146740904e-11 1.6198293931e-11 5.2012823795e-12 1.7574339877e-11 1.1018414655e-11 1.0094815659e-11 2.7672456397e-11 2.160365487e-11 
1.265550274e-11 2.4683226782e-11 2.6839411825e-11 1.7530362586e-11 2.6946385982e-11 3.491068596e-11 2.5158546128e-11 2.4343656843e-11 2.8125555478e-11 
9.8974914556e-12 2.2465380721e-11 1.575487323e-11 2.9704385399e-11 3.6809551666e-11 4.679793064e-11 2.8430710056e-11 3.3652044171e-11 4.0112316404e-11 
3.698713016e-11 5.6804411989e-11 5.6783864342e-11 2.6097281337e-11 4.5278239665e-11 4.2987962668e-11 2.2662328768e-11 5.5379841423e-11 3.078051303e-11 
3.7726087243e-11 4.0422763998e-11 6.2475526065e-11 2.5595802518e-11 4.0759784663e-11 5.4897177938e-11 6.9770368342e-12 7.1415678877e-11 6.1220163614e-11 
1.978806111e-11 5.451630084e-11 4.0411440739e-11 3.2046940186e-11 1.294187355e-11 3.1047255432e-11 5.6180239103e-11 7.2217013274e-11 1.4705491476e-11 
1.0091698608e-10 3.9013630375e-11 8.0391479728e-11 3.5998951207e-11 5.8364149014e-11 2.4470474153e-11 2.8220160023e-11 6.0438653993e-11 6.2995394034e-11 
4.5276292848e-11 6.041972688e-11 2.7427794367e-11 7.4580626501e-11 1.0512522936e-10 9.0536350861e-11 7.2534561935e-11 7.0297731477e-11 1.0359940683e-10 
6.2372279584e-11 6.1812265008e-11 1.2865676858e-10 7.0688632654e-11 6.6821246644e-11 1.0616573605e-10 1.4330538623e-10 9.3554976688e-11 8.8407548014e-11 
6.4195555978e-11 4.5776214837e-11 5.308276068e-11 1.5048889967e-10 9.4284077309e-11 9.2998741269e-11 7.2314301112e-11 5.7971587588e-11 9.0789898155e-11 
1.5907679545e-10 1.1693941248e-10 7.791433566e-11 5.4683827203e-11 1.8211275838e-10 9.1392348988e-11 4.9876180747e-11 1.4623177371e-10 8.093096698e-11 
8.1089650469e-11 1.150805914e-10 7.7607977631e-11 9.1430474803e-11 2.2348895027e-10 1.8700589873e-10 6.3892236761e-11 1.9972390842e-10 1.2270355204e-10 
1.4786638146e-10 1.5560846433e-10 3.9745508001e-11 7.2143724788e-11 1.876334045e-10 1.2347707974e-10 1.8944498201e-10 2.1627628601e-10 2.1691456135e-10 
1.1073940314e-10 2.3270620414e-10 2.6175777506e-10 2.5641472367e-10 8.7272485246e-11 9.7030901032e-11 5.6954754584e-11 2.0173054687e-10 1.9653088945e-10 
2.3983843587e-10 7.0242876156e-11 1.942915862e-10 9.5080276332e-11 5.0202179872e-11 2.1254115041e-10 1.2531478871e-11 6.5350830275e-12 1.4421155722e-11 
6.925354119e-12 5.9172961239e-12 9.417382347e-12 9.000672691e-12 1.0940524226e-11 4.233038117e-12 2.7589262361e-12 1.4099955847e-11 4.8560440721e-12 
2.0849041913e-12 5.5608407747e-12 3.0291256998e-12 5.5789784053e-12 3.8153831095e-12 7.126270941e-12 5.2318577589e-12 7.4562060611e-12 5.5932501687e-12 
4.5145299905e-12 1.6098410739e-11 1.4089701863e-11 7.3828684179e-12 8.1904309708e-12 9.0825984203e-12 1.6641473285e-11 1.4601839138e-11 9.1181678811e-12 
7.8529047318e-12 8.3634542558e-12 8.5616818645e-12 1.4330170656e-11 1.7150984846e-11 1.7223764151e-11 1.9576269996e-11 1.371301207e-11 4.0138356243e-11 
2.543099796e-11 1.8927903172e-11 2.1958336997e-11 2.9843795488e-11 1.9187843651e-11 2.9711514717e-11 7.7338697752e-12 1.8126479958e-11 3.9076589044e-11 
2.6840896536e-11 7.2844693866e-12 2.0466084886e-11 1.0996636618e-11 1.8326449721e-11 2.2341310289e-11 1.5941699326e-11 4.1851428202e-11 3.566355547e-11 
4.5490053863e-11 3.0619548444e-11 5.4655828971e-11 2.1154663312e-11 3.4577229603e-11 3.328244414e-11 5.4965644556e-11 7.9346942748e-11 5.8494009192e-11 
4.0062303386e-11 4.7363807904e-11 3.2069217578e-11 2.7929425204e-11 4.8183267919e-11 7.0366007178e-11 3.1511919503e-11 7.3292195611e-11 4.0233759902e-11 
3.9246698733e-11 3.0549094354e-11 3.974686771e-11 2.1552149866e-11 4.2727330082e-11 4.1818299146e-11 4.6619586811e-11 4.6277339776e-11 4.1136092192e-11 
5.6813327555e-11 3.2303848159e-11 6.6210357112e-11 2.7666203469e-11 2.3389687454e-11 8.454743847e-11 3.0081757681e-11 5.3894437465e-11 4.8919750178e-11 
6.7533936154e-11 3.964455767e-11 6.4154989712e-11 5.4742477915e-11 4.0726578091e-11 3.3597381338e-11 8.7884813581e-11 7.3684363247e-11 5.1605487626e-11 
6.5683635643e-11 5.7686949974e-11 4.6413153726e-11 9.6457060513e-11 4.4879413292e-11 1.1331564173e-10 1.1006877831e-10 1.2984558439e-10 4.0207390289e-11 
5.8173857887e-11 9.7385807149e-11 7.3197344939e-11 7.6249911346e-11 1.1207806262e-10 8.5993815969e-11 1.1748522519e-10 7.9722737756e-11 1.2628240966e-10 
8.7188509538e-11 1.4649246647e-10 2.0891634031e-10 1.2998220775e-10 1.1346056483e-10 7.934168463e-11 1.6090733502e-10 2.23632889e-11 1.1103374295e-10 
1.0305988752e-10 1.0117369666e-10 7.7309386824e-11 1.0414523985e-10 4.4168419686e-11 9.0818256377e-11 4.1905885e-11 1.1082626596e-10 2.3063206161e-10 
1.5171359364e-10 1.5574993287e-10 5.2819088822e-11 1.4262668764e-10 1.1110866308e-10 1.5610324572e-10 2.8492010186e-11 2.3995200225e-10 7.9667678603e-11 
1.2020358396e-10 1.6894134544e-10 1.9473501147e-10 7.2801387995e-11 1.0889775793e-10 1.3536765817e-10 1.5168072753e-10 1.7671178493e-10 2.3605423944e-10 
1.9567747838e-10 2.2707939055e-10 6.177131959e-11 2.0493574635e-10 9.6630455469e-11 1.4288496525e-10 1.6926367979e-10 9.5202797324e-11 8.5442836714e-11 
8.7144917568e-11 3.4095239786e-11 1.1660961328e-10 1.0754500044e-10 1.8695895808e-10 8.4352635667e-11 9.8901391073e-11 1.7248500444e-10 2.1192124311e-10 
6.9022940755e-11 1.5661589981e-10 1.018083811e-10 1.4991392871e-10 1.9119246844e-10 1.0824483507e-10 2.4045818148e-10 1.4877402111e-10 1.3721159254e-10 
6.0885478781e-11 1.4526720582e-10 3.9153381733e-11 1.8428970855e-11 2.129727712e-10 1.576540154e-10 2.2816324981e-11 1.1892770491e-11 1.0687906601e-10 
1.4499481602e-11 1.1316922893e-11 1.5277151975e-10 6.6707314171e-11 1.7722701595e-10 1.4283099898e-11 8.6510032598e-12 1.6458357332e-10 2.0646655778e-11 
1.8439053063e-11 3.112560349e-11 1.3261029691e-10 1.2545198231e-11 1.5604405358e-11 4.4228739637e-11 2.3096570314e-10 2.6684284065e-11 3.0602568927e-11 
3.3091266677e-10 9.4967847246e-11 1.9370513732e-11 3.1575529646e-11 8.6388622976e-11 9.5562760232e-11 2.0619869012e-11 1.7346159114e-11 1.9524229062e-10 
1.4049506553e-10 2.3646552069e-11 3.2151262561e-11 2.2073716612e-10 2.3771849116e-10 1.6720041788e-11 6.1583871837e-11 1.1121029833e-11 1.5479835704e-11 
8.1678091984e-11 1.6954053843e-10 2.34391205e-11 1.9134855929e-11 8.6141733829e-11 1.4045274807e-10 2.6226946647e-11 3.874548377e-11 1.1810132347e-10 
2.0663372416e-10 2.4404056596e-11 2.7158125715e-11 9.0330470127e-11 8.3474091495e-11 1.4811888416e-11 8.2693207387e-11 4.9950249651e-11 2.0002100711e-11 
1.3595272436e-10 1.8927150976e-11 1.6942035224e-11 1.5541052593e-10 1.2677421147e-11 1.2638410665e-10 1.2155515573e-11 3.894801e-11 5.6460598747e-12 
8.5892606506e-12 3.7588912665e-12 8.2317684426e-12 1.0273371921e-11 6.5498262656e-12 5.2292144064e-12 4.2096863508e-12 8.1660179006e-12 1.1502543925e-11 
9.0630987188e-12 1.0491031463e-11 1.5032793297e-11 1.3706944114e-11 1.4903943298e-11 2.1607066529e-11 2.7522371197e-11 1.5084840753e-11 3.5572018318e-11 
3.1887873124e-11 3.4741819759e-11 2.2064410523e-11 3.3678169837e-11 3.900232342e-11 2.3548192504e-11 2.2574524324e-11 2.5807534004e-11 2.1136723597e-11 
2.7365111783e-11 1.5375301792e-11 4.4929917997e-11 2.0704452026e-11 6.5278898819e-11 6.2702829891e-11 6.8479255055e-11 1.2885242624e-10 3.8317077232e-11 
4.2428388577e-11 7.2895477402e-11 2.2929897489e-11 4.3072726778e-11 6.5542740149e-11 2.1548310549e-11 4.4699725453e-11 7.013978247e-11 1.0593237589e-10 
6.7230598821e-11 5.1931914888e-11 3.9596159223e-11 5.2367368348e-11 7.3579149685e-11 3.9569311236e-11 2.9659397071e-11 8.82255164e-11 8.8864604392e-11 
4.5177201611e-11 4.0713821018e-11 1.1737330463e-10 6.8250075821e-11 6.7252288757e-11 6.7392035959e-11 8.0142045743e-11 5.2925667631e-11 1.08961685e-10 
5.8222216872e-11 2.8517617205e-11 1.1608998723e-10 9.9377538101e-11 7.510719615e-11 1.222028595e-10 1.3116058812e-10 1.7053491776e-10 1.168359164e-10 
2.026387737e-10 1.0319409758e-10 1.5888355377e-10 2.6262892423e-10 1.8366395607e-10 1.1265614883e-10 4.921767512e-11 1.3169238659e-10 8.2598897043e-11 
1.0969651127e-10 2.3310522732e-10 3.9449580272e-11 8.6900677004e-11 1.0204441157e-10 1.3413255835e-10 8.6350091668e-11 3.5427730633e-11 9.5228999432e-11 
2.786483639e-11 5.3968415653e-11 1.2950770304e-10 1.3468685481e-10 6.0385824598e-11 3.2173039327e-10 1.7703375196e-10 4.5736494428e-11 1.2117133448e-10 
1.4701231046e-10 7.786207673e-11 1.0977761908e-10 1.5085050377e-10 1.1604366931e-10 2.2947150992e-10 1.1553773479e-10 1.1405139315e-10 1.4373704964e-10 
1.355845089e-10 1.2695632087e-10 2.1764592293e-10 1.7319320404e-10 1.4786072414e-10 9.7466296816e-11 9.2384100109e-11 4.48630764e-11 1.7226579429e-10 
8.4279278434e-11 8.1758045323e-11 7.1893844139e-11 1.3374908913e-10 4.4076773403e-11 1.242250984e-10 6.0955289352e-11 3.0620408146e-11 7.5178213066e-11 
1.392055398e-10 7.3896127077e-11 1.1467738857e-10 6.228001435e-11 2.9870909088e-11 8.0496717334e-11 3.8654471184e-11 9.0072397074e-11 6.5339398399e-11 
5.1631124439e-11 7.1715005018e-11 5.2145993038e-11 5.7609830645e-11 2.842811003e-11 2.2819479891e-11 6.6537094404e-11 2.731906756e-11 7.0147207637e-11 
1.6755803886e-11 6.7170021644e-11 5.1113655507e-11 2.620040667e-11 4.863357238e-11 5.1613909595e-11 2.168421781e-11 1.4867654201e-11 2.8636113964e-11 
3.9921276714e-11 2.4728986403e-11 2.0237675623e-11 3.0813776819e-11 3.0911495143e-11 2.4814708111e-11 2.2674435719e-11 2.0206169452e-11 2.5786904764e-11 
1.4075945543e-11 1.8504301031e-11 3.5185779482e-11 5.6513770023e-12 6.6702261988e-12 1.7781496761e-11 1.3705156836e-11 6.8512181028e-12 1.5193678138e-11 
7.4260989367e-12 7.5042131032e-12 7.7371026851e-12 8.6092577185e-12 5.5627500813e-12 1.4910185154e-12 6.2671266812e-12 2.7265402941e-12 1.2053608309e-11 
3.8430767287e-12 7.7557961874e-12 9.5249495624e-12 1.4150061259e-11 9.9265792488e-11 1.05344589e-11 7.9418147311e-11 1.0752859834e-11 2.1447536821e-10 
1.7392831523e-11 1.689533699e-10 8.041447205e-12 8.6881395981e-12 9.7494486898e-12 5.0379530674e-12 3.3529930956e-12 4.8418736936e-12 2.8554045475e-12 
4.1228746782e-12 5.4273636282e-12 7.0401069159e-12 6.0815854236e-12 1.7630609655e-11 9.9864079051e-12 3.5369359879e-11 8.8304762582e-12 1.2423708622e-11 
1.9968855853e-11 3.6695915596e-11 3.309285734e-11 1.9052542904e-11 5.5677943269e-11 3.5228583682e-11 6.5098822893e-12 2.8187278236e-11 2.8624518906e-11 
3.8181695039e-11 3.4822523343e-11 3.5371860582e-11 4.9361778789e-11 5.4166689766e-11 3.1737538954e-11 2.1117087451e-11 3.8647837874e-11 9.376282781e-11 
5.7196922029e-11 6.113749212e-11 3.8209080988e-11 4.4302758638e-11 6.4349727755e-11 3.9686713597e-11 8.5322918003e-11 4.303821378e-11 3.9062753467e-11 
6.3542741827e-11 3.6494239267e-11 2.9907407329e-11 6.2936127907e-11 8.9277358862e-11 1.4133104908e-10 7.7923302219e-11 9.944467262e-11 7.9679521779e-11 
1.1641419669e-10 1.5685798134e-10 1.2303731269e-10 4.7022402763e-11 7.4933750441e-11 1.3807193828e-10 1.9868479699e-10 9.7470114262e-11 1.2410947722e-10 
1.2320171932e-10 8.8141871964e-11 1.1503705157e-10 1.2053769365e-10 5.7760490384e-11 1.7938919581e-10 1.1620401817e-10 1.5995771118e-10 1.1453732497e-10 
1.7663140868e-10 2.0922394136e-10 1.4336788405e-10 8.2632437936e-11 2.1563317091e-10 7.5261774765e-11 6.4350320527e-11 1.0481444545e-10 1.3170240002e-10 
2.5419216451e-10 1.859847106e-10 1.8233623381e-10 2.015257471e-10 1.1644334932e-10 1.2405976041e-10 1.2847412087e-10 1.2719908813e-10 1.5900623931e-10 
1.2288318471e-10 1.9524387554e-10 2.5683212658e-10 2.8851240153e-10 8.1816985306e-11 1.1464759865e-10 1.1698222405e-10 1.5991345944e-10 1.0516104179e-10 
1.8523257194e-10 5.5137859373e-11 1.402809379e-10 1.8249386976e-10 1.4449938201e-10 2.3253011653e-10 1.4434501434e-10 1.7519408197e-10 8.1408019204e-11 
9.1846826965e-11 1.7025553547e-10 8.9271226887e-11 2.0698710981e-10 1.3116908957e-10 1.4767821846e-10 1.2762428686e-10 1.6196260095e-10 1.4669897498e-10 
6.7128767698e-11 2.2145322919e-10 2.0070796355e-10 7.0894622121e-11 5.3936195203e-11 1.7122696727e-10 1.2349744579e-10 9.7959814586e-11 1.5346453787e-10 
1.0700253254e-10 1.445924664e-10 1.2951848933e-10 8.1521843319e-11 1.5869244023e-10 1.719658222e-10 7.872239291e-11 8.2530858503e-11 1.0354908809e-10 
9.2489215664e-11 5.4970433614e-11 5.5693294724e-11 3.0796855253e-11 3.5448953893e-11 9.4363485676e-11 4.6960379856e-11 8.109176841e-11 1.4691876839e-10 
2.397324613e-11 3.8363651629e-11 5.8452202013e-11 3.8877287444e-11 7.1130587759e-11 7.0484337958e-11 7.9211810701e-11 3.189254653e-11 5.6863686059e-11 
5.2420830776e-11 5.9383308725e-11 6.3109271268e-11 3.7026693706e-11 3.4079807436e-11 8.9573232512e-12 4.3474309539e-11 1.8143070165e-11 4.9310399674e-11 
5.1317119727e-11 5.5906848776e-11 3.8409523652e-11 3.0728966916e-11 5.455686715e-11 3.5441768097e-11 1.4404609058e-11 1.0937852186e-11 1.4023610143e-11 
1.5326660398e-11 1.9493423657e-11 7.5821845273e-12 7.6724098805e-12 7.4881895053e-12 7.9531663996e-12 5.8356532948e-12 7.0245820154e-12 4.2600468642e-12 
4.8410923378e-12 3.1412926991e-12 6.5007384183e-12 8.4353449702e-12 7.7814597946e-12 8.3986592155e-12 2.044778213e-11 6.9195517597e-11 1.0278151576e-11 
1.9146384096e-10 1.5061336135e-11 1.3912953378e-10 9.8606712853e-12 4.5894328889e-11 2.0251016915e-10 1.5324487702e-11 1.4056880898e-11 1.1485938552e-10 
8.7381650328e-12 2.0253530229e-10 9.1323002511e-11 9.5430983421e-12 6.5326816139e-12 3.6509651696e-11 9.0102368117e-12 1.1982894022e-11 8.2665414785e-12 
4.5749229607e-12 3.5391792089e-12 2.7916204683e-12 5.3535228918e-12 5.1973010878e-12 2.481937622e-12 1.1354829896e-11 9.023672816e-12 1.8331224492e-11 
2.3345712599e-11 1.8086419487e-11 1.1988825955e-11 2.420351936e-11 2.6080928343e-11 3.1535129991e-11 3.7952796283e-11 2.0871841142e-11 2.6205535651e-11 
6.3955850364e-11 3.4798928338e-11 5.5165742551e-11 2.254544431e-11 3.1804344893e-11 3.6445614596e-11 3.711409014e-11 6.386011727e-11 4.2517691385e-11 
5.1038710571e-11 3.5252759895e-11 8.1404836059e-11 3.8299558565e-11 9.8419977837e-11 8.3127338394e-11 5.7738341173e-11 6.5833583143e-11 9.3116632995e-11 
4.1980954594e-11 4.7773258561e-11 6.1362770897e-11 4.9318155369e-11 3.8412525739e-11 4.8887816947e-11 5.6875812525e-11 9.6391310095e-11 7.2155809897e-11 
3.5669084932e-11 2.7110811634e-11 5.6852705325e-11 3.0139780448e-11 6.9152417917e-11 1.2213829735e-10 8.9077381755e-11 9.7465136766e-11 1.2265504932e-10 
1.4884304015e-10 1.6234510648e-10 1.0081806771e-10 1.3220733934e-10 1.2372360852e-10 1.3291397537e-10 9.8694635752e-11 1.0668012473e-10 1.329257093e-10 
2.4849460032e-10 3.1435996369e-10 1.9621681647e-10 1.1007886316e-10 1.0494598937e-10 1.6473776896e-10 1.9091194901e-10 8.7356422505e-11 2.4152902576e-10 
1.0489598857e-10 1.0328612464e-10 1.9547993366e-10 1.3264259888e-10 2.058119081e-10 1.3832597578e-10 9.378694691e-11 1.9145970212e-10 1.0265849652e-10 
8.1445668614e-11 1.8939294383e-10 7.9307451765e-11 2.8986870752e-10 1.1150010446e-10 8.1275914034e-11 9.084676885e-11 8.03457452e-11 6.3031237682e-11 
1.0050364626e-10 1.8257939454e-10 1.9902235934e-10 2.3492826485e-10 2.274758565e-10 2.8334254486e-10 1.3662369533e-10 1.7782451089e-10 2.3767283036e-10 
1.7728103211e-10 1.6098187216e-10 2.0110604962e-10 3.2314169248e-10 1.376882993e-10 2.6647505687e-10 1.8593795049e-10 2.9868054397e-10 2.0224809473e-10 
2.3526632937e-10 1.2376215763e-10 7.8105080297e-11 1.0312212425e-10 8.5590081718e-11 6.6143593684e-11 2.0215243793e-10 1.0477325059e-10 1.1737158643e-10 
5.7955703816e-11 5.8933363187e-11 7.6239688178e-11 1.0238181877e-10 1.5117387218e-10 1.5019773155e-10 1.6100465409e-10 1.0059655802e-10 1.469339252e-10 
6.523669073e-11 1.3339002691e-10 1.0375069296e-10 7.5708080843e-11 3.3636547361e-11 4.3555584205e-11 6.9339268766e-11 6.703985703e-11 3.6903719329e-11 
1.0635664518e-10 4.3862928579e-11 3.248398073e-11 9.4818452603e-11 5.0108143673e-11 1.0827007019e-10 4.2270262046e-11 8.6245416701e-11 5.570693234e-11 
3.902234286e-11 2.9317832311e-11 1.0144573149e-10 4.1467211989e-11 1.9034166515e-11 4.8411285664e-11 2.02862533e-11 1.9148562484e-11 3.2381987055e-11 
4.5845655778e-11 9.0400795679e-12 5.8130641918e-11 2.4326198626e-11 2.4342390239e-11 1.6306923501e-11 7.9313747105e-12 1.9420796512e-11 2.3397983519e-11 
1.3344364572e-11 2.0618802773e-11 2.0408026271e-11 7.6402951514e-12 8.6359667672e-12 6.1073552147e-12 8.2241725423e-12 6.1605994437e-12 6.975301546e-12 
6.8255814939e-12 7.8245527953e-12 8.0848557765e-12 5.4193873279e-12 4.0084271813e-12 7.5889592874e-12 1.2502754911e-11 8.7296008422e-12 8.1763893978e-12 
5.7192681948e-11 1.6291478169e-11 2.975019118e-10 1.0331728715e-10 1.1629704178e-11 1.1319375137e-10 1.4914003514e-11 2.2360809333e-10 1.5403948705e-11 
3.1380577794e-12 4.5453284094e-12 7.9812160528e-12 7.0310032023e-12 5.4130341748e-12 6.6070929681e-12 5.5868517166e-12 4.880578213e-12 6.7158571874e-12 
4.3618307091e-12 5.1644783591e-12 1.2239071334e-11 1.2809257926e-11 7.7874406879e-12 2.3147103268e-11 1.5943420422e-11 2.5227579692e-11 1.0647465575e-11 
3.6313424626e-11 3.7509424895e-11 2.0760697013e-11 1.5699319338e-11 2.2505715205e-11 3.14216554e-11 2.9996414804e-11 2.4059880036e-11 2.8207062032e-11 
2.1525873956e-11 2.8350702684e-11 6.0659655844e-11 4.1523793905e-11 4.440029713e-11 1.0823132752e-10 7.3632080306e-11 9.502333103e-11 5.6688665127e-11 
6.6084163673e-11 5.8758138485e-11 3.3173908871e-11 3.6950656992e-11 3.5509177318e-11 9.1536708142e-11 3.5571576078e-11 1.1277977511e-10 5.3666234745e-11 
6.7918032355e-11 7.4842805044e-11 4.5871471866e-11 1.0184007557e-10 5.3952882144e-11 1.802055613e-11 6.0539898833e-11 6.4826863818e-11 1.1638209318e-10 
1.0310100962e-10 1.5595460754e-10 1.3228747617e-10 7.8920225768e-11 9.7160277338e-11 1.0268507604e-10 1.4028137845e-10 1.6168461339e-10 1.6694528489e-10 
6.3123285269e-11 6.9412620712e-11 5.5441593344e-11 1.45744027e-10 1.2186830668e-10 7.4752360744e-11 3.9236023948e-11 7.0003051987e-11 9.0058241204e-11 
2.5394127677e-10 1.119171535e-10 1.2016147672e-10 1.528067638e-10 7.351459581e-11 8.3464565409e-11 1.6089110715e-10 2.2241431192e-10 1.9639739547e-10 
1.73289011e-10 1.1904809704e-10 1.7059594846e-10 2.8806092208e-10 1.5736431287e-10 1.4621082861e-10 1.6917927865e-10 3.1151563557e-10 2.2025028453e-10 
1.4434663258e-10 7.607236097e-12 1.5936706265e-10 6.5265487827e-12 1.514333405e-11 7.2898942006e-11 1.5916581987e-10 2.2031013214e-10 6.0120422871e-12 
4.6950735495e-12 1.4962835365e-12 4.0174880714e-12 9.0214442316e-12 2.9111548879e-12 3.9868473507e-12 2.915331981e-12 4.2967101935e-12 9.572853247e-13 
4.7599443861e-12 2.1086024971e-12 4.719194007e-12 6.6768212175e-12 8.421611401e-12 5.2979469823e-12 4.8841616886e-12 1.2519189547e-11 1.0224176035e-11 
1.3564112203e-11 1.4666687987e-11 1.9231311114e-11 1.2184835926e-11 1.5374546343e-11 1.5084387819e-11 2.5618062395e-11 9.9783073419e-12 2.2275752772e-11 
1.7582015292e-11 3.4675078905e-11 3.9529635627e-11 1.1143483608e-11 7.7456429689e-12 1.3967985591e-11 5.5164470821e-11 3.4460025984e-11 3.3149270932e-11 
4.4297296775e-11 2.3910680503e-11 1.7478115288e-11 2.7006771263e-11 2.6518982427e-11 5.407459538e-11 5.788489315e-11 5.9283490593e-11 1.0535577565e-10 
3.7779959753e-11 3.5259707858e-11 2.9333420441e-11 1.6993351161e-11 3.689170058e-11 7.6300693253e-11 5.1966745892e-11 6.4438397054e-11 6.2903732976e-11 
1.3142160894e-11 6.163617908e-11 3.3625590277e-11 4.6837562135e-11 6.4542533244e-11 8.3825507155e-11 3.3584097605e-11 6.4356526454e-11 5.9798168046e-11 
1.969919192e-11 4.0052590239e-11 3.1514651495e-11 6.8540379054e-11 6.5764335097e-11 5.6734575644e-11 7.8647516151e-11 5.4232463593e-11 4.145638076e-11 
4.6682364866e-11 4.7022933164e-11 1.0840117896e-10 3.7857585947e-11 4.3411783014e-11 4.1506114036e-11 1.3333098228e-10 4.3643770651e-11 9.51455855e-11 
1.221406157e-10 7.3661482877e-11 2.2147046535e-11 7.840655521e-11 3.9174784422e-11 7.506738152e-11 6.1076624104e-11 1.1433447771e-10 5.9786888496e-11 
1.4128523971e-10 1.2897178793e-10 4.9817601083e-11 6.2964905917e-11 5.1798468345e-11 7.3888183738e-11 2.0035531884e-10 1.2624070361e-10 1.7069108306e-10 
1.9763815513e-10 1.263408143e-10 1.0182457961e-10 1.4634894601e-10 5.8186215703e-11 1.4516922205e-10 1.0394205497e-10 1.2705299319e-10 1.572226555e-10 
8.9763788841e-11 2.1863642155e-10 1.4734902522e-10 5.3089382212e-11 1.2600209464e-10 1.1182991907e-10 1.5223464105e-10 1.320556134e-10 1.5384525874e-10 
1.8899047003e-10 1.68110118e-10 7.4719510589e-11 9.4694862305e-11 7.5694988079e-11 1.3303475467e-10 2.1553646819e-10 1.1366838892e-10 6.0577956763e-11 
9.9370500462e-11 4.8192343693e-11 5.9699864725e-11 8.931576448e-11 8.5331701404e-11 1.9760165745e-10 1.5552430424e-10 2.0762096541e-10 2.2124399042e-11 
1.7650551033e-11 8.7075426306e-11 1.071693711e-11 1.1268659287e-10 7.4202090255e-11 1.1080797355e-11 1.1921270078e-11 4.8761676234e-12 4.5824747152e-12 
5.6552602066e-12 8.5492463764e-12 4.174357251e-12 3.141887356e-12 1.0975916032e-11 2.4778090961e-12 5.8697630979e-12 1.6867183878e-11 1.2696948735e-11 
1.3726498188e-11 9.9237637591e-12 1.8324843099e-11 1.536060917e-11 1.8693412084e-11 1.3000055063e-11 3.0878849596e-11 2.4234348219e-11 9.8452793696e-12 
1.8414322893e-11 1.9261597614e-11 1.9494837235e-11 1.7537457473e-11 2.0403823311e-11 3.1184046692e-11 3.5914887332e-11 3.0621223507e-11 2.9943870331e-11 
3.4408482793e-11 2.2672753618e-11 6.1809477112e-11 8.8470431533e-11 7.3003147353e-11 2.8200355339e-11 5.5921576717e-11 5.6087635292e-11 4.9753214726e-11 
4.6082328842e-11 4.3070925665e-11 1.270013304e-11 2.067881496e-11 7.410375717e-11 5.8398937275e-11 3.0457986192e-11 4.9435022987e-11 6.8826137981e-11 
2.7134758266e-11 6.5888505117e-11 5.8468920864e-11 7.4596823047e-11 7.3835702107e-11 8.5352438077e-11 3.7315706253e-11 1.6022715485e-10 1.0762433062e-10 
8.4797911405e-11 4.8835337761e-11 1.1794449969e-10 1.4867286573e-10 1.0876537166e-10 1.1226427692e-10 1.5881083523e-10 8.4615392384e-11 9.7585131123e-11 
7.2785839936e-11 3.6136847126e-11 1.4688826858e-10 7.8490490994e-11 1.3936307907e-10 4.0294035866e-11 7.7126990408e-11 9.9556971753e-11 8.2741769108e-11 
1.354107017e-10 2.1835113256e-10 1.263635056e-10 1.4995727891e-10 1.0036224118e-10 7.3718837905e-11 1.2725652722e-10 1.5011375242e-10 9.8240313915e-11 
8.9507463901e-11 1.4655654799e-10 1.394887969e-10 1.5870037262e-10 1.5083688694e-10 1.0088089548e-10 2.3181410121e-10 9.3661713876e-11 1.6692307723e-10 
1.3293912258e-10 1.8684313231e-10 1.0963116214e-10 1.7560387886e-10 1.9142366394e-10 2.0447955892e-10 2.0248178779e-10 1.4371977234e-10 2.4141682486e-10 
1.7820076101e-10 2.5712237752e-10 2.005745796e-10 2.6125023515e-10 1.5817902986e-10 1.560965492e-10 1.2368356277e-10 1.1311629785e-10 1.0916488167e-10 
1.7843766905e-10 9.242690293e-11 9.6140159909e-11 9.2466814392e-11 7.3308786144e-11 8.6029902675e-11 7.8322847148e-11 8.9838488716e-11 6.5764821262e-11 
8.3372280971e-11 1.2923738188e-10 6.0020161076e-11 1.3825811639e-10 7.9879657742e-11 1.3621397133e-10 4.9624935832e-11 3.6885961082e-11 3.6527019958e-11 
8.8820210512e-11 3.273186237e-11 2.7465227265e-11 7.4956767152e-11 4.7303470703e-11 7.2556980545e-11 9.7732517345e-11 5.2061502123e-11 7.593134095e-11 
5.2801854509e-11 4.0865166487e-11 4.1561323356e-11 7.4452926933e-11 5.4779216945e-11 4.3158993391e-11 9.6094063154e-11 6.898932704e-11 2.0436997506e-11 
7.2229054265e-11 5.1271194569e-11 4.1457365205e-11 3.9227873454e-11 3.7982999022e-11 4.9517957679e-11 6.0591908367e-11 1.0383095758e-11 5.1923000972e-11 
1.7556906823e-11 3.6802570793e-11 5.4515060193e-11 1.639970396e-11 9.0567426096e-12 1.440639497e-11 1.5580967682e-11 1.3798261155e-11 1.0021921164e-11 
2.0759019488e-11 1.0699557846e-11 2.9311591093e-11 1.7909894205e-11 3.122589274e-11 9.8883580679e-12 1.5039668762e-11 6.1848323358e-12 1.5916297176e-11 
1.2338927111e-11 3.236672291e-12 7.4128129612e-12 9.0657301335e-12 8.4023062316e-12 1.1755388463e-11 1.0808415036e-10 1.1540596158e-11 1.0442377901e-11 
1.018709684e-10 8.1266786914e-12 2.8948717174e-10 1.2276185529e-10 4.5588282033e-12 1.141961154e-11 1.3468425078e-10 1.1144029605e-10 9.7725596469e-12 
1.3972172642e-11 9.8822521847e-11 1.2707116753e-10 1.292167292e-11 3.4028823561e-11 2.1360856119e-10 1.0524058335e-11 1.8451797196e-10 8.4872408403e-12 
9.1398356406e-11 1.74974395e-11 1.3767124503e-10 2.4101338895e-10 3.0095306117e-11 2.3985091146e-11 3.3728959375e-12 1.3946647816e-10 6.6549964201e-11 
1.7318457807e-11 1.5164775007e-10 1.7576620685e-11 3.9920796303e-11 8.8876449593e-12 2.1823362077e-10 2.4905504548e-11 2.8437906674e-11 1.06577127e-11 
7.2754056277e-11 1.0829799671e-10 1.5619963504e-11 2.2585525667e-10 5.8943519873e-12 1.6821058726e-11 7.7240868173e-11 3.3696696149e-12 1.4614062964e-12 
4.7109537267e-12 2.8553245117e-12 5.1582003536e-12 2.0889995161e-12 3.1314369398e-12 7.501383711e-12 9.2020680691e-12 8.3033320067e-12 8.3312275992e-12 
1.4638850548e-11 2.3709428526e-11 2.8455359022e-11 1.5193575511e-11 1.6397097882e-11 1.6890969215e-11 1.8292762422e-11 3.0954780438e-11 1.959046192e-11 
2.8836636305e-11 3.8966650745e-11 3.1119347284e-11 2.5671473718e-11 5.4077561196e-11 2.2541594533e-11 5.4148369157e-11 3.8668932872e-11 5.0335576448e-11 
6.6231062617e-11 4.6106738896e-11 2.6768015374e-11 4.3169821509e-11 3.0054391661e-11 2.372073814e-11 5.9303415197e-11 7.6363567231e-11 5.4228651447e-11 
5.2408710417e-11 6.7331669532e-11 8.0787113463e-11 8.1273290412e-11 6.4621029567e-11 7.3189562835e-11 5.870730539e-11 5.5505895033e-11 4.7783375375e-11 
3.4965277303e-11 1.1399479167e-10 5.6721899472e-11 8.3300468036e-11 3.7368864181e-11 1.1621907704e-10 1.1800915492e-10 2.0791735245e-11 3.5942425693e-11 
4.9316880848e-11 1.1776061049e-10 8.7308323827e-11 5.3966244265e-11 7.3502505626e-11 1.638547861e-10 1.0160277512e-10 8.1646841054e-11 9.4234401182e-11 
1.7734091762e-10 1.4428169153e-10 1.6019723609e-10 2.8971403705e-10 8.4031202823e-11 1.5016715631e-10 1.8278911737e-10 2.0199066313e-10 1.6025473392e-10 
3.34439768e-10 1.0067030007e-10 1.5314365832e-10 1.4182976627e-10 2.7727412986e-10 2.2019734767e-10 2.2730749951e-10 2.4361640307e-10 1.8145510503e-10 
1.3090232337e-10 8.2976679488e-11 3.5827207783e-11 1.885403277e-10 2.5156583176e-10 1.3772482684e-10 7.7449860487e-11 2.0209417553e-10 1.1385685127e-10 
2.4744286795e-10 1.1719779351e-10 2.3652561711e-10 2.1699711286e-10 2.0603027496e-10 1.1490700791e-10 7.9307359422e-11 1.4202120131e-10 2.5235497323e-10 
1.1024949599e-10 7.1165362863e-11 2.4128554114e-10 2.1227867481e-11 1.7351114667e-10 3.1004925888e-10 1.4465877538e-10 9.6779660742e-11 1.0781963902e-10 
5.8461651071e-11 2.2146899378e-10 1.8896041412e-10 9.0227770725e-11 3.3857820148e-11 1.937665695e-10 1.2614521787e-10 8.5398989372e-11 2.0276363983e-10 
8.4817431375e-11 5.9286121056e-11 1.4894535688e-10 1.2528589742e-10 8.7367213049e-11 3.7277388944e-11 8.7331164755e-11 7.6224912503e-11 7.8684525099e-11 
1.2060503547e-10 3.9244694936e-11 6.3063299162e-11 7.5692326362e-11 1.071052113e-10 5.3813636362e-11 6.1721030758e-11 3.9483241003e-11 7.1219364736e-11 
8.7942229386e-11 5.0493705287e-11 4.4016769338e-11 8.5022599294e-11 4.568597246e-11 6.123185152e-11 7.5466258682e-11 5.0266115246e-11 9.898168724e-11 
4.613688057e-11 4.2117288845e-11 5.6137111748e-11 5.2637477378e-11 4.4613413785e-11 5.1240425635e-11 4.5222656197e-11 3.8477658669e-11 2.366612736e-11 
8.4681978282e-12 3.7999787083e-11 4.6408505662e-11 5.4224285374e-11 4.0665695213e-11 4.5140903892e-11 2.7941018667e-11 3.0758422803e-11 2.7976844932e-11 
2.9370318926e-11 1.2015691618e-11 1.090933941e-11 8.3029261477e-12 1.2263389191e-11 1.8072483895e-11 1.5993240486e-11 1.5015941632e-11 4.4444087817e-12 
2.3208726047e-12 8.0742208852e-12 4.8344604234e-12 4.6617527878e-12 5.2889053083e-12 4.8306096174e-12 4.3987991966e-12 1.0552556204e-11 8.860287756e-12 
5.0725730356e-12 8.7601410022e-11 1.0862767553e-11 2.3626648869e-10 1.5372282232e-11 1.1912882539e-10 1.1392937349e-11 9.4599569895e-11 1.0239811215e-11 
1.4408667496e-10 1.7922303995e-11 2.422250126e-10 5.8742591771e-12 4.4395030553e-11 1.4513874492e-11 3.9608899626e-11 9.5716983193e-12 2.0487094264e-10 
9.7157145047e-12 8.1770857564e-12 5.6190740847e-12 4.9278150018e-12 7.6952578365e-12 3.0314176872e-12 6.9202906622e-12 7.450629266e-12 7.7021012968e-12 
1.180430723e-11 6.6624364619e-12 1.2625346351e-11 2.3682443896e-11 1.6900495044e-11 9.0467401795e-12 1.2349750613e-11 2.7831513892e-11 3.2962117066e-11 
2.0564069048e-11 1.704079362e-11 3.1778592173e-11 1.8431322255e-11 1.4274475865e-11 2.6658221375e-11 2.4147366151e-11 2.6781958658e-11 3.4905322629e-11 
2.7274843808e-11 2.377243439e-11 2.6370045013e-11 3.6876865164e-11 4.2996982796e-11 3.4284749088e-11 4.4998972436e-11 2.7807385457e-11 4.9257688806e-11 
2.8175148631e-11 3.5373415925e-11 2.0122002872e-11 7.6442147543e-11 1.1300657514e-10 3.6637697733e-11 5.6893313049e-11 3.7312129151e-11 5.0879303406e-11 
4.4327312246e-11 2.0557445794e-11 1.5694632155e-11 5.7194535936e-11 4.5079912456e-11 2.8052598731e-11 3.5359920445e-11 9.5766007374e-11 8.3219797058e-11 
3.1067026012e-11 1.8916769793e-10 1.0980896101e-10 6.6211059064e-11 1.3241716904e-10 1.0089184709e-10 5.7542595106e-11 8.7768035411e-11 1.4134198044e-10 
1.3228452441e-10 1.0731715919e-10 1.1978543143e-10 1.480064741e-10 8.3250851256e-11 7.2801466705e-11 4.3765381042e-11 1.5047877043e-10 1.5382150049e-10 
9.0547310462e-11 1.1834213356e-10 2.205590771e-10 9.2185791613e-11 1.3330379615e-10 8.1784922869e-11 9.5301533537e-11 6.9538775174e-11 2.2540942675e-10 
9.1391048725e-11 8.8398963099e-11 1.9022837351e-10 7.327897773e-11 7.8976748218e-11 6.5127735312e-11 8.1824968495e-11 5.936872368e-11 1.6498339183e-10 
1.1667423656e-10 7.293928646e-11 1.0150185787e-10 3.4945536147e-10 2.2776156052e-10 1.9742463655e-10 1.1865593357e-10 8.2386109944e-11 7.4524687426e-11 
1.7785748986e-10 9.0085527657e-11 1.4996762655e-10 1.6704795765e-10 1.7475405523e-10 1.3800068703e-10 1.482828264e-10 2.690127392e-10 1.053168011e-10 
6.1216659869e-11 1.1385443195e-10 5.8866158819e-11 1.5824949746e-10 6.9286202528e-11 1.1009006829e-10 7.6196694865e-11 3.1785954373e-11 7.8247354892e-11 
4.8319107713e-11 9.6734975158e-11 1.2699832717e-10 5.1090005764e-11 3.9927460889e-11 4.9036260225e-11 7.9723791053e-11 1.1346320431e-10 7.0682293452e-11 
4.8971983912e-11 3.5762299027e-11 3.8918010921e-11 3.389175585e-11 4.286056547e-11 5.513166193e-11 4.4892296001e-11 7.1566546001e-11 8.5418101466e-11 
4.7995694369e-11 5.55218962e-11 8.4639058627e-11 2.0215789186e-11 3.7965592484e-11 3.4371944164e-11 3.1635932088e-11 6.0251169198e-11 6.3942356914e-11 
5.8964181472e-11 3.2865160251e-11 3.4395618795e-11 4.2266842935e-11 4.5920949532e-11 5.2378116319e-11 3.4639097068e-11 2.4850444839e-11 3.4536081932e-11 
1.00810961e-11 3.980127869e-11 1.4885912623e-11 1.4230204616e-11 1.8882517849e-11 3.8849121361e-11 2.6971437913e-11 8.6647842916e-12 1.9667375888e-11 
2.242348586e-11 1.4739274036e-11 5.5403716833e-12 7.3345248487e-12 1.3839927395e-11 1.1755502189e-11 1.101837156e-11 3.8970265769e-12 9.7159566837e-12 
5.9215118209e-12 3.4314370036e-12 4.1443387926e-12 3.5099539399e-12 4.2893467942e-12 3.1943314114e-12 3.4115781999e-12 9.6041300142e-11 5.2844075468e-12 
8.4047649427e-12 1.2098527318e-10 8.7357370268e-12 8.995274664e-11 9.5820003975e-11 1.0373690766e-11 1.5169613003e-10 1.5152829294e-11 9.2361959212e-12 
1.9575091151e-10 1.2386518232e-11 1.5331087788e-11 2.1081509672e-11 8.7133975946e-12 1.4456182015e-11 9.4057219453e-12 1.4693057759e-11 6.504122628e-12 
1.6053628899e-11 1.4157373711e-11 1.5411406274e-11 2.1705511962e-11 1.4990092973e-11 3.5067415346e-11 2.8654458246e-11 2.0459409693e-11 1.8646476338e-11 
2.9745834276e-11 4.6758813834e-11 3.2770459171e-11 3.4416515518e-11 3.7991878802e-11 3.7075610153e-11 1.8480603479e-11 2.1510354932e-11 3.8593771665e-11 
5.5576595004e-11 3.1870750219e-11 6.9230653616e-11 5.0141118803e-11 4.5667411477e-11 4.8804515187e-11 9.9454862482e-11 8.8981647147e-11 6.3322316334e-11 
8.7722777303e-11 6.7049317676e-11 3.6802481528e-11 7.5820637988e-11 8.8022751539e-11 1.0647523433e-10 7.6248579864e-11 8.2608788727e-11 9.8453887772e-11 
1.3551355801e-10 8.0030207774e-11 9.3682431113e-11 9.3156307718e-11 7.5232850109e-11 1.3256275666e-10 3.3673822022e-11 7.9333921207e-11 8.6113596205e-11 
9.1290581758e-11 6.0766257033e-11 1.0967218334e-10 5.5586857061e-11 7.3908304949e-11 2.4536328309e-10 1.9136421704e-10 1.199655236e-10 1.6585027e-10 
1.3860972378e-10 1.8434703448e-10 1.2985874403e-10 1.1370701479e-10 6.8082577993e-11 1.4750795044e-10 5.8684524448e-11 1.0186832618e-10 8.0795702543e-11 
1.6879978374e-10 1.0857630591e-10 7.3331490494e-11 5.9789563514e-11 2.2611031574e-10 1.0543855581e-10 6.4491270452e-11 1.993338719e-10 3.6183139294e-10 
1.5609742398e-10 1.0179136139e-10 2.054977916e-10 1.6997812701e-10 2.0496147917e-10 1.4063082795e-10 2.274777592e-10 1.6462419929e-10 1.4236810893e-10 
1.1756087461e-10 1.3785072253e-10 1.6228340316e-10 1.1093855418e-10 8.7702831825e-11 2.668498516e-10 2.147474102e-10 1.6294267513e-10 2.2268957429e-10 
5.309348278e-11 3.0078408515e-10 2.2691461656e-10 1.5826062864e-10 1.8299324994e-10 1.9884766386e-10 1.768126463e-10 1.5447184685e-10 2.4367675923e-10 
2.1796123363e-10 1.4616637705e-10 1.3469479105e-10 1.1444954764e-10 1.190186995e-10 1.651552225e-10 1.9640094447e-10 6.2171180865e-11 1.3659916948e-10 
1.0883838675e-10 1.0654567398e-10 1.1010922495e-10 1.7438846624e-10 1.3994264341e-10 2.3620541677e-10 1.0128616193e-10 9.2346037519e-11 1.0354968385e-10 
1.6314149215e-10 1.2456699383e-10 1.0697008647e-10 1.1172263579e-10 8.7349868881e-11 8.880139787e-11 2.6418473191e-11 1.6015679095e-10 3.1224582251e-11 
6.4948656273e-11 5.6016370994e-11 7.3166230179e-11 8.3328306491e-11 1.2676351003e-10 7.4077061462e-11 9.1748043475e-11 4.645981921e-11 9.4847408983e-11 
1.037718622e-10 6.569266078e-11 5.871312813e-11 3.3841301239e-11 5.1378312097e-11 8.4282530974e-11 9.5856759401e-11 5.6563929798e-11 7.209368906e-11 
3.973046732e-11 4.7484943332e-11 2.9486704421e-11 1.8136680369e-11 1.5595699783e-11 5.2653557036e-11 3.4381204007e-11 6.3703573308e-11 4.623953362e-11 
2.7883912067e-11 3.1083606333e-11 3.5787681951e-11 1.6951337698e-11 2.7320081483e-11 2.2680582958e-11 2.2367223151e-11 7.6880537541e-12 2.9899085028e-11 
1.1086488688e-11 1.2169986599e-11 5.2503036328e-12 9.4146497454e-12 1.0549559395e-11 1.852407781e-11 1.1606679981e-11 1.1654638373e-11 8.5093255619e-11 
1.004564869e-11 1.2305648964e-11 3.142374942e-10 1.9316504646e-11 9.4955218952e-11 1.3628092371e-10 1.1637961066e-11 3.3323759739e-11 1.3528850941e-11 
1.9349017235e-11 7.6706215442e-11 1.413854949e-11 1.1950957848e-10 9.6897498308e-12 2.942084705e-10 3.624632578e-11 1.1621779524e-11 1.5210951233e-10 
8.8416755327e-12 5.8885645099e-12 1.4393002991e-10 9.9921880626e-12 8.9900363176e-12 5.5234378851e-12 7.6967737529e-12 7.3267870898e-12 6.0879648808e-12 
7.3261601782e-12 9.559650676e-12 8.2568402339e-12 8.5851046496e-12 7.9360628771e-12 1.607829402e-11 1.8125634816e-11 3.0550337704e-11 1.2383135999e-11 
3.1424565483e-11 1.3487288876e-11 2.0415812745e-11 1.248538979e-11 2.9028971595e-11 4.2707422033e-11 3.6655490297e-11 5.7398027684e-11 2.4370261435e-11 
2.0385864987e-11 2.2995313896e-11 4.5033573081e-11 2.5744104482e-11 3.5577786525e-11 4.0954108233e-11 3.2737064823e-11 2.7638115658e-11 4.5283793217e-11 
3.256558187e-11 7.2203867136e-11 2.9161956953e-11 7.5468157817e-11 3.9582394921e-11 3.7107817185e-11 2.3449878983e-11 6.0776185062e-11 3.2238636912e-11 
2.0862215645e-11 5.6347738316e-11 6.6388156296e-11 7.204013456e-11 5.5698556054e-11 8.3051380113e-11 7.878854969e-11 7.5662677267e-11 5.9943215324e-11 
6.897550596e-11 4.5003040554e-11 1.3242054637e-10 1.3066290946e-10 6.9741440945e-11 3.7439773486e-11 1.4561048843e-10 1.0710827825e-10 1.2525243004e-10 
8.128926005e-11 4.2627634028e-11 1.8800502303e-10 1.1582794355e-10 8.6691326744e-11 9.7940529157e-11 3.2856882543e-11 1.7537346262e-10 9.2497517184e-11 
1.1987042434e-10 1.481018256e-10 2.2032350281e-10 1.2009800466e-10 7.886039421e-11 8.2422770648e-11 2.180239527e-10 1.4447359037e-10 2.4048746096e-10 
2.4517155466e-10 1.9513352505e-10 1.0321279694e-10 1.6969784278e-10 1.0822175491e-10 7.1301519295e-11 6.1534682034e-11 2.4991927251e-10 1.1777851843e-10 
7.0620628171e-11 8.5116125596e-11 2.4323130298e-10 1.4185270323e-10 1.3399531538e-10 1.8621988605e-10 9.9691302256e-11 1.7807742294e-10 1.7677713301e-10 
4.3128552573e-11 1.5497058145e-10 1.3007794542e-10 2.1336515264e-10 1.1831856726e-10 6.4731222868e-11 1.0689423365e-10 6.8641002271e-11 1.6159896595e-10 
1.8284054306e-10 1.6772061561e-10 8.6537331677e-11 1.6307177971e-10 3.2616394473e-11 6.7249500723e-11 4.3827726402e-11 7.4745261661e-11 1.3036443399e-10 
4.7115013466e-11 5.9923945234e-11 1.7846499535e-10 1.4076872369e-10 1.0674937794e-10 8.9198540305e-11 3.5537225081e-11 1.4540479827e-10 7.1320113704e-11 
9.9688788134e-11 7.3505571499e-11 9.134670164e-11 6.8837594993e-11 6.6776222141e-11 8.9998428414e-11 4.8594049914e-11 6.3639815695e-11 7.2735599977e-11 
5.8817490723e-11 3.8050998261e-11 7.3458522954e-11 3.1769210932e-11 1.9986596086e-11 4.607185698e-11 6.6863886121e-11 6.9558479394e-11 6.19455994e-11 
7.4278817701e-11 9.5830679612e-11 4.3275504657e-11 3.1097345518e-11 4.6135530186e-11 5.4245046795e-11 5.1531015365e-11 4.4819340387e-11 4.386500439e-11 
4.672413899e-11 4.2413651751e-11 2.5578048338e-11 1.9149815473e-11 3.4667760863e-11 3.0902974609e-11 2.5323263651e-11 3.5620445201e-11 1.421234788e-11 
3.7262929904e-11 3.0351375826e-11 1.6964229843e-11 1.7312712642e-11 9.0972281939e-12 2.0387206433e-11 1.6946386068e-11 7.830414205e-12 1.8048388963e-11 
6.2104882739e-12 1.0063917042e-11 1.2429486842e-11 1.0467448398e-11 8.5726305791e-12 1.1215026854e-11 6.8144244993e-12 1.1851293671e-11 1.4144160715e-11 
9.3235958044e-12 1.7167822479e-11 1.0810352573e-10 7.0134101893e-12 1.9301331647e-10 1.0691569463e-11 5.2406237222e-11 1.3561592805e-11 8.6760203417e-11 
1.5512095753e-11 5.7939648675e-11 1.894728129e-10 3.1946472447e-12 8.7023420054e-12 1.0768475091e-10 1.118441485e-11 1.90444985e-12 5.6768179613e-12 
5.9479612223e-12 3.4770496683e-12 6.957911512e-12 6.5259886655e-12 1.0817468159e-11 4.2837606366e-12 8.8737152905e-12 9.0584267383e-12 8.4258519688e-12 
1.3630057138e-11 2.0273435685e-11 1.8791728679e-11 1.9300939162e-11 1.7080450043e-11 1.9445905721e-11 1.2009230128e-11 3.0456070985e-11 2.0689727599e-11 
2.1728948067e-11 4.0212145502e-11 2.3390186143e-11 4.0735951178e-11 3.232620821e-11 1.8195295498e-11 3.4754904488e-11 3.0034782477e-11 5.977444933e-11 
2.3741993719e-11 5.5553604061e-11 2.5295676633e-11 2.5280560916e-11 2.3183629454e-11 4.7818146431e-11 3.9045498573e-11 5.1561220448e-11 1.8606283045e-11 
3.6213086294e-11 2.0437814686e-11 4.3250865476e-11 2.7040541691e-11 4.1643154905e-11 6.0019099274e-11 4.2853210474e-11 5.0364525204e-11 6.5308310905e-11 
2.6548491948e-11 5.0988604625e-11 4.1343898976e-11 4.5803972657e-11 8.3248491412e-11 1.3188364903e-10 1.3969397552e-10 8.3675195249e-11 1.5492501938e-10 
1.3864881869e-10 9.659937748e-11 1.302813997e-10 1.521878938e-10 1.4737518017e-10 1.0719816839e-10 1.0308205644e-10 8.7589728049e-11 1.092189689e-10 
1.9998560869e-10 5.5609358285e-11 7.5535292102e-11 1.256308068e-10 1.2289488234e-10 2.4900494699e-10 2.142954174e-10 1.8732262061e-10 5.6160990256e-11 
1.9150354887e-10 3.1872177893e-10 1.8466472898e-10 7.4799083478e-11 1.4511439844e-10 1.2244947685e-10 1.1630759783e-10 1.0625745865e-10 7.5000334814e-11 
1.6932518875e-10 1.5015385718e-10 1.3079802912e-10 1.0337032786e-10 1.0164898911e-10 2.6403460732e-10 2.4038935113e-10 9.9191318165e-11 2.6745349628e-10 
1.9796685758e-10 1.29121889e-10 1.4019762872e-10 8.407344378e-11 1.5214510688e-10 1.39225185e-10 9.767742692e-11 7.3221746514e-11 7.1240403533e-11 
1.1727573057e-10 1.2723042488e-10 1.1068314991e-10 1.0556304771e-10 2.6270332527e-11 1.4489073048e-10 6.3508593536e-11 1.4679203297e-10 5.8718433409e-11 
4.9280122773e-11 6.5341620537e-11 8.5625625423e-11 1.4825255255e-10 3.4728213294e-11 1.7872931193e-10 1.2155252489e-10 1.7296902041e-10 9.853137607e-11 
2.9875414821e-11 6.9036998778e-11 1.4477033022e-10 7.9534554938e-11 5.1249876572e-11 4.4852624859e-11 1.0073204447e-10 5.3027055137e-11 3.8996182837e-11 
6.0126972283e-11 5.4265700474e-11 6.0567432217e-11 4.7086705601e-11 3.7560551968e-11 8.1957957713e-11 4.5143001133e-11 1.439834022e-11 3.6867980511e-11 
3.1293369714e-11 1.0121036261e-10 4.6058351103e-11 5.5527682044e-11 5.1058125166e-11 3.3776829209e-11 1.0413248348e-10 2.3133244802e-11 1.874827198e-11 
6.7824082372e-11 5.1324920078e-11 3.9583744797e-11 1.6568104795e-11 5.0265173998e-11 2.2096197912e-11 1.4696049681e-11 2.8120573752e-11 1.3438511596e-11 
1.7307440361e-11 2.2692287987e-11 3.3488277233e-11 2.283563979e-11 5.0267350053e-11 5.3153969675e-11 2.2355987427e-11 1.738081455e-11 9.2458853532e-12 
5.8962207505e-12 1.544887705e-11 1.1859075283e-11 1.7184599298e-11 2.6370206241e-12 6.6850292437e-12 6.5136505917e-12 7.7136891417e-12 3.277371769e-12 
4.6583314836e-12 3.10069805e-12 3.7175214565e-12 1.1326748886e-11 1.4815203889e-10 3.6529466356e-12 1.404555801e-10 1.332251264e-11 9.5539571254e-12 
1.4757637562e-10 1.3477512304e-11 9.1386225177e-11 1.3527116915e-11 7.734791158e-11 1.4766792082e-11 1.1829168786e-10 6.5300242634e-12 6.782384985e-12 
3.3096946738e-12 3.1729587552e-12 1.8687170368e-12 2.3959110792e-12 3.5495304877e-12 6.0513933091e-12 2.8279403443e-12 3.7952672586e-12 8.2373507043e-12 
1.0517676968e-11 1.6895412707e-11 5.2728365787e-12 1.574858227e-11 1.0133825528e-11 1.2061398808e-11 2.2273129787e-11 1.8273063897e-11 6.4909059766e-12 
2.3441174427e-11 2.5438302461e-11 2.5872191744e-11 4.0007463477e-11 3.9559428217e-11 1.3144898204e-11 1.8778798004e-11 1.6542689232e-11 1.2580136168e-11 
3.6807175235e-11 1.1820670548e-11 2.8556434369e-11 3.4292197719e-11 4.4980671228e-11 3.4561163583e-11 3.0651995509e-11 5.2880205303e-11 3.7603193042e-11 
4.4744902628e-11 6.603678176e-11 6.9048973264e-11 2.9798345044e-11 4.2507044008e-11 4.6254353463e-11 4.2496076088e-11 6.5601487805e-11 3.5828283975e-11 
6.3659162045e-11 3.1778755198e-11 9.6846378946e-11 4.0824494426e-11 6.8125975963e-11 5.2708982634e-11 7.7067975976e-11 5.8994039307e-11 4.6862270129e-11 
8.0706090441e-11 5.1737309393e-11 4.2173852143e-11 1.3119869526e-11 4.662321793e-11 9.9268433697e-11 4.2753165897e-11 8.8555036356e-11 6.5530128929e-11 
1.3856202272e-10 9.9426900654e-11 6.6210159203e-11 4.0304800605e-11 3.7117640048e-11 9.2133118679e-11 7.3892914592e-11 1.2328817016e-10 1.3819104542e-10 
5.6226590941e-11 5.2023050751e-11 2.3327146072e-11 1.3175934921e-10 1.390081357e-10 1.0696744833e-10 7.6756556085e-11 1.5834991735e-10 8.443044115e-11 
6.9854494235e-11 8.9869372544e-11 1.0892320562e-10 8.7074199645e-11 3.8731324966e-11 1.0613532549e-10 7.6750365336e-11 7.0485783896e-11 8.1376793322e-11 
5.7502219701e-11 7.2626985647e-11 4.5005865742e-11 6.6292994427e-11 6.595745097e-11 7.9517937239e-11 8.1810907063e-11 1.0420826378e-10 1.039493503e-10 
7.0925915205e-11 1.4267703548e-10 5.475778213e-11 6.8066949098e-11 1.0614299133e-10 5.2081466822e-11 3.4848690831e-11 6.2022814044e-11 1.5953858595e-10 
4.8460619972e-11 9.3324526741e-11 3.0243091304e-11 4.5762077305e-11 4.916350283e-11 1.0272950391e-10 6.1181983396e-11 7.0105000969e-11 3.0842281642e-11 
6.7208472643e-11 2.4048758502e-11 5.4694255727e-11 1.1872232306e-10 1.1040931679e-10 6.2003959615e-11 5.020085622e-11 4.7320854198e-11 3.5939109038e-11 
4.3712009335e-11 5.5970595033e-11 5.0948123039e-11 6.2755052321e-11 3.6555247572e-11 2.6585741674e-11 4.2186817205e-11 3.0220654181e-11 4.020906636e-11 
3.3476574839e-11 2.8435537171e-11 7.5931303074e-11 2.9046533088e-11 5.59219479e-11 2.9149283764e-11 6.8524689345e-11 5.6417866917e-11 5.179780045e-11 
2.4965382648e-11 5.6392358741e-11 3.8737817326e-11 3.0597552602e-11 3.4693770708e-11 3.7146592604e-11 2.5867899119e-11 1.5552052663e-11 4.4036130659e-11 
3.1555684833e-11 1.5600960123e-11 3.684467689e-11 7.6900301088e-12 9.2943063693e-12 2.9306656773e-11 1.956526943e-11 2.6982480679e-11 2.078090099e-11 
8.6553756001e-12 9.7018642567e-12 1.4512255015e-11 8.2001191879e-12 7.6665129319e-12 7.8868036122e-12 5.1386023061e-12 7.031082806e-12 4.1416249176e-12 
3.491122068e-12 1.9370056144e-12 3.6620986001e-12 2.9993717738e-12 4.1046242441e-12 6.60565073e-12 3.0869686163e-12 4.2270483058e-12 6.5957885708e-12 
2.7560237692e-10 2.1323508822e-11 1.1498591892e-10 1.081793531e-11 1.2104166152e-11 1.0418600474e-10 1.2479231066e-11 1.0901004188e-10 9.2493807815e-12 
1.123124465e-10 1.4944302796e-11 8.1259048352e-11 2.5809233898e-11 2.0458434705e-10 1.2801475056e-10 1.6600501657e-11 9.8184755776e-12 1.4902694109e-10 
3.2345106735e-10 4.5008350411e-12 8.2941628291e-12 1.5163777561e-10 1.3310713532e-11 2.4512709632e-11 1.4865503034e-11 1.00211444e-11 5.99072851e-12 
8.3549486078e-12 7.8193535126e-12 6.4235261549e-12 1.8847892808e-11 1.3981491418e-11 7.5172577222e-12 2.1483179375e-11 1.8490102446e-11 1.5055620942e-11 
1.4003550353e-11 3.7760832642e-11 3.0240031003e-11 6.3623075198e-11 5.2780342131e-11 3.6668044134e-11 2.7290352191e-11 4.6718479633e-11 7.1160712912e-11 
6.4359876624e-11 2.5119854901e-11 3.9392991632e-11 4.1932307856e-11 8.5029973551e-11 3.516873856e-11 2.3136128198e-11 1.1623235256e-10 1.0803265801e-10 
1.1690223262e-10 8.7793745011e-11 1.2948454672e-10 8.371789136e-11 5.1651727899e-11 6.9547226056e-11 7.3739058292e-11 6.2430435286e-11 1.4198935637e-10 
7.2020641632e-11 1.0487166136e-10 7.8267335336e-11 7.0775774361e-11 5.407736724e-11 8.3823644019e-11 1.0997601091e-10 1.2350776715e-10 7.9581825565e-11 
1.1553078567e-10 1.2615412129e-10 1.1625375961e-10 1.2849002765e-10 1.8803745901e-10 9.6536016358e-11 7.2272117364e-11 1.6053414364e-10 1.1383032065e-10 
2.0441326012e-10 7.3719034669e-11 1.6988815715e-10 1.3906736704e-10 1.9154377345e-10 1.608019461e-10 1.4031732441e-10 2.2977357819e-10 1.2358052442e-10 
1.2917690402e-10 2.0986836599e-10 1.6651761188e-10 3.1043662936e-10 3.2231087537e-10 2.1307400701e-10 1.9140169736e-10 1.8482733447e-10 5.922411835e-11 
2.8974091014e-10 3.314525089e-10 3.858574368e-10 2.3968123812e-10 2.0778137985e-10 3.3170061053e-10 3.9528858879e-10 3.7021047388e-10 8.7298955667e-11 
5.8448818931e-11 1.6670569097e-10 1.3170882745e-10 8.8838298335e-11 9.6407495114e-11 2.9214591672e-10 1.977428101e-10 2.3925950431e-10 2.5579837262e-10 
2.2876923999e-10 1.2727974426e-10 2.1073838725e-10 2.070306252e-10 1.8891656571e-10 1.7040189603e-10 1.9984354607e-10 2.5359634968e-10 8.9540011039e-11 
1.5681987253e-10 2.999630741e-10 3.3417522767e-10 2.8109640189e-10 2.972777512e-10 1.5213377479e-10 1.1736488487e-10 1.5893831237e-10 1.4066412956e-10 
8.0666671629e-11 1.0769722056e-10 1.0697327091e-10 7.0081336778e-11 7.5885350847e-11 1.5335929449e-10 2.7937082771e-10 4.1815569944e-11 1.0280396824e-10 
4.951332957e-11 1.077593917e-10 1.7937968591e-10 1.2346467571e-10 2.6180383283e-10 1.3774312172e-10 1.0097100857e-10 3.9794696621e-11 1.7150155208e-11 
9.8823041831e-11 6.2930471219e-11 4.0405947198e-11 5.9062342424e-11 3.3927232916e-11 9.0943855959e-11 1.129492472e-10 1.7775999999e-11 1.1527435479e-10 
1.0243221545e-10 5.685597978e-11 1.9147520989e-10 5.3239138441e-11 1.1222573986e-10 1.7935041595e-10 5.2570583341e-11 1.2394145803e-10 9.8262780291e-11 
8.2325784457e-11 6.2505624111e-11 5.8194406894e-11 4.3312204871e-11 5.4678308222e-11 3.7976803097e-11 6.0517061284e-11 4.4998699924e-11 5.0963625127e-11 
1.2551788115e-11 2.7508197539e-11 4.8036927415e-11 4.0778364221e-11 2.5495729414e-11 2.9915716886e-11 2.1786732904e-11 4.6239482683e-11 1.9827445726e-11 
2.3852390314e-11 1.0271019894e-11 9.9615650245e-12 2.3200312019e-11 1.1513709913e-11 1.4016984292e-11 1.111071335e-11 8.082870367e-12 6.8834006079e-12 
1.6047485634e-11 1.2889049754e-11 1.6710583885e-10 1.1753542241e-11 6.8085828043e-12 1.0581990685e-10 6.0043505594e-11 1.8228496295e-12 9.0733503735e-12 
4.3957603913e-12 3.363589628e-12 3.4989514496e-12 1.7494459918e-12 3.2694000523e-12 9.3602625428e-13 1.4312933843e-12 2.5393252218e-12 3.636353757e-12 
2.2693789729e-12 3.5929310519e-12 3.2122583822e-12 4.5882623922e-12 5.993732957e-12 8.1228611189e-12 5.312369624e-12 8.1813066124e-12 1.0899274726e-11 
7.2241858448e-12 1.8481960413e-12 9.8352810719e-12 1.130584252e-11 1.0557326412e-11 1.4326699824e-11 1.4728960255e-11 6.4309018841e-12 6.9222738748e-12 
4.1870157993e-12 7.8502382365e-12 7.7202751189e-12 2.0265936935e-11 1.0234791247e-11 1.8226875239e-11 1.5646399678e-11 1.8433644881e-11 5.2511321567e-11 
2.1615243269e-11 2.6389397123e-11 1.8358555137e-11 2.2188801719e-11 1.5945269465e-11 3.6464507706e-11 9.024650056e-12 1.8633670646e-11 2.8873049246e-11 
3.7149853076e-11 3.8726164038e-11 1.6035389628e-11 2.1207953027e-11 1.662036447e-11 1.9611879311e-11 9.4192408556e-12 2.8087865092e-11 1.7316752811e-11 
4.2053378973e-11 4.1890431919e-11 7.1905634679e-11 2.4106604759e-11 3.6722423875e-11 3.4318912338e-11 5.5924176451e-11 2.9396160185e-11 1.0153145644e-10 
3.3326533287e-11 7.7324257744e-11 5.5289973087e-11 8.0729491341e-11 5.5961445443e-11 3.3532055446e-11 3.6418325761e-11 8.058823537e-11 5.3246524873e-11 
3.4049693844e-11 3.2867635159e-11 4.7089390785e-11 2.9650987936e-11 2.4704741434e-11 4.7574547711e-11 6.5749990729e-11 1.9122169112e-11 7.8808858633e-11 
4.7784819532e-11 6.9743766126e-11 5.1603116233e-11 1.6296788526e-11 5.2425673739e-11 8.6483418614e-11 6.7124342579e-11 5.4802826583e-11 8.415214789e-11 
5.0873272397e-11 3.089782431e-11 6.8716304143e-11 1.1175161595e-10 7.5383243017e-11 5.3593633707e-11 6.9112027393e-11 8.5219739483e-11 8.8199238811e-11 
6.4976428127e-11 3.8096584505e-11 1.0482023074e-10 4.0071003819e-11 9.4601217834e-11 5.9736560173e-11 1.2897867343e-10 6.6283489133e-11 9.8709318526e-11 
1.135465252e-10 2.0594706539e-11 7.3409454152e-11 2.92376983e-11 1.264758241e-10 6.7661504173e-11 1.2448721566e-10 1.0643322685e-10 1.1918466152e-10 
1.2975627714e-10 9.3004308726e-11 1.3806703203e-10 1.2292113051e-10 4.3047038405e-11 6.0168209816e-11 1.1088377731e-10 6.4011416242e-11 7.5029368234e-11 
1.1770855839e-10 1.299683609e-10 6.8494153505e-11 5.9669755647e-11 5.3057747573e-11 1.077899734e-10 1.0481609397e-10 1.0856592789e-10 7.2440222133e-11 
4.8656791846e-11 8.0245316452e-11 5.4806043061e-11 1.251982165e-10 4.1926300389e-11 1.1839552818e-10 1.2860385574e-10 1.2806745457e-10 7.5541578293e-11 
1.3264972218e-10 2.6181537696e-11 1.753440238e-10 9.3739481806e-11 1.8717537586e-10 8.844011112e-11 1.6883564764e-10 6.3304069565e-11 1.9800546745e-10 
9.0284710869e-11 1.1826522157e-10 4.4841442657e-11 1.3272746385e-10 1.7301515974e-10 1.4289798938e-10 6.9100078252e-11 6.1066347142e-11 8.4465934939e-11 
1.2170931937e-10 1.3182724268e-10 1.3457458219e-10 6.8263751452e-11 1.881560062e-10 1.9982843286e-10 2.5155360124e-10 8.8384582427e-11 6.4807391185e-11 
4.4871697289e-11 6.3956754684e-11 1.4594872069e-10 1.0864638907e-10 8.2736574059e-12 1.4054510124e-10 1.1808592585e-11 2.4736572615e-10 1.0971711579e-11 
8.3395507346e-11 1.3846716064e-10 1.3709515281e-11 3.4291790085e-12 1.3585769823e-10 6.1177731152e-12 5.1357636012e-12 4.0778569772e-12 3.8320083799e-12 
1.2563202273e-12 3.4523014712e-12 4.954508258e-12 6.483578187e-12 1.1843056819e-11 6.6438157053e-12 1.0410341685e-11 1.146221507e-11 6.2785613315e-12 
1.1554808175e-11 1.0522604951e-11 2.650000091e-11 1.7408514461e-11 2.1101178558e-11 1.5065024775e-11 2.3458067997e-11 3.1651500602e-11 5.7299604973e-12 
1.259684749e-11 5.9702309632e-11 4.4471948138e-11 4.5226900165e-11 5.1842020716e-11 2.7305558862e-11 3.5303470782e-11 5.2678268183e-11 4.3175177796e-11 
4.4193400136e-11 8.2330362531e-11 2.1109823906e-11 2.7957689773e-11 2.8752171277e-11 6.6172569295e-11 3.4195115029e-11 4.4177377805e-11 8.6870152905e-11 
6.3198394935e-11 1.3326542452e-11 3.9517893616e-11 4.3169942943e-11 3.2874891928e-11 2.7676133606e-11 2.7825945666e-11 6.672922994e-11 3.0387236807e-11 
7.839685294e-11 6.9593455994e-11 9.1030814806e-11 4.8089758553e-11 7.6176175347e-11 3.7141422466e-11 8.1769881189e-11 9.4121762244e-11 1.5887908072e-10 
8.0132999173e-11 1.1873916602e-10 4.2853716964e-11 5.3169503717e-11 4.3533779041e-11 7.5298253871e-11 1.0441313084e-10 1.7878808989e-10 1.9125090555e-10 
1.4460228101e-10 5.8748591895e-11 5.1399754676e-11 6.9652773427e-11 2.2561892573e-10 1.2471816411e-10 1.5047662818e-10 8.2555699188e-11 7.8844893438e-11 
9.1514993581e-11 1.0668480552e-10 1.301210142e-10 6.2916198299e-11 7.1066745118e-11 5.8880622514e-11 1.4955892732e-10 1.4264549686e-10 2.4662583164e-10 
2.2788981195e-10 1.8608154892e-10 1.2822901292e-10 1.3606089581e-11 5.7660832035e-11 2.7680868436e-12 8.7118671149e-12 9.8017585434e-12 4.7708240843e-12 
3.999444979e-12 3.6195340123e-12 2.8323727418e-12 5.028953818e-12 2.8763830348e-12 7.9362444313e-12 9.2584821293e-12 1.3394261686e-11 9.8977637918e-12 
1.8860355555e-11 5.8987475479e-12 1.0951533579e-11 2.03889551e-11 2.1767357403e-11 1.8030649051e-11 1.8210739232e-11 4.6794822296e-11 2.5534050203e-11 
2.0636502475e-11 2.380657858e-11 1.7608422135e-11 4.4358439446e-11 3.352304344e-11 2.5419188086e-11 3.3852647869e-11 2.4270010631e-11 2.1709031267e-11 
1.771691632e-11 5.0234053302e-11 4.7360481337e-11 8.0982837359e-12 3.4150700724e-11 5.4835191612e-11 4.5267276308e-11 3.9316752854e-11 5.8371158711e-11 
7.4282143872e-11 5.2193903595e-11 6.9078770635e-11 3.4842330798e-11 3.875681887e-11 9.6431345782e-11 5.8598239895e-11 2.304544487e-11 1.2066567748e-10 
4.0805413802e-11 9.082930295e-11 1.6604266998e-11 5.3861596191e-11 4.0193446488e-11 6.678734526e-11 4.1689503679e-11 4.9201587809e-11 3.6209205815e-11 
7.0525280503e-11 8.7124046417e-11 1.0146049112e-10 1.4393790669e-10 1.3803038241e-10 7.0138607693e-11 5.6739675373e-11 8.1572280544e-11 1.6443287196e-10 
1.1620873563e-10 1.851700998e-10 1.2302528851e-10 1.3851552443e-10 1.2848664668e-10 7.0817413011e-11 7.3065435555e-11 9.4907118457e-11 5.8902243867e-11 
7.8141838876e-11 8.1038273873e-11 1.773483652e-11 1.3189286577e-10 1.0047927199e-10 2.5043752627e-10 1.5075170041e-10 6.6707737329e-11 1.0292814737e-10 
4.1563416756e-11 1.4615430988e-10 7.0762834541e-11 8.0534698473e-11 1.3565149938e-10 1.1325813512e-10 1.6900615791e-10 4.4388883707e-11 1.1011408202e-10 
1.2443235918e-10 1.1808214789e-10 2.7702126367e-10 2.4216689507e-11 9.1328280046e-11 5.9068579234e-11 9.4904772514e-11 2.1298652869e-10 1.0232535329e-10 
3.1153002082e-10 1.4886748728e-10 1.5629084028e-10 1.7751074669e-11 2.1500792308e-10 1.0238476509e-11 2.3828218767e-10 7.289173047e-12 6.6259997845e-12 
3.5201304423e-12 2.9897152483e-12 3.6286031903e-12 4.2876163648e-12 2.6991017213e-12 5.6611483493e-12 7.8997165125e-12 8.9010966493e-12 2.5059667372e-11 
9.5935575098e-12 1.5977700563e-11 2.1316728606e-11 1.660822997e-11 2.1712979908e-11 1.3771340415e-11 3.542099184e-11 3.8470957977e-11 2.7686844906e-11 
3.4311595217e-11 1.7340044367e-11 2.1935359752e-11 2.6809417786e-11 1.8179695783e-11 1.5521484883e-11 4.4065572352e-11 3.7248478272e-11 2.3192318808e-11 
3.6054106452e-11 5.8851127054e-11 4.4722179137e-11 2.8965603906e-11 9.9137580368e-11 8.0459127691e-11 7.0082211001e-11 1.7549168262e-11 5.5752511558e-11 
5.4098572875e-11 4.9122910525e-11 6.8522508608e-11 8.3712839295e-11 3.5732924506e-11 4.3804409017e-11 4.7619664316e-11 5.8476400704e-11 7.3245765012e-11 
5.8755667268e-11 5.9085933632e-11 8.080093592e-11 1.0427086574e-10 6.1339482517e-11 4.852309527e-11 7.9039342008e-11 7.0782930808e-11 7.9196617493e-11 
8.8163184153e-11 7.9014350518e-11 1.1606856618e-10 1.8297769779e-10 7.1200147354e-11 1.0257073853e-10 8.0555403023e-11 1.3925366332e-10 1.1893022725e-10 
7.5327312478e-11 1.0164987719e-10 5.6165423587e-11 8.2386442955e-11 6.6034158443e-11 1.661929229e-10 9.1823582052e-11 1.2255047179e-10 7.0400808768e-11 
7.8819135098e-11 6.4483162164e-11 1.2899807534e-10 8.0017898717e-11 9.1784510962e-11 8.6748388045e-11 2.033257694e-10 6.7685984637e-11 1.3215237029e-10 
1.8548430987e-10 2.6374988417e-10 1.396235956e-10 1.6307818498e-10 1.3012738514e-10 1.5858698347e-10 1.2490027877e-10 9.1893003558e-11 1.6501420997e-11 
2.1034169499e-11 2.3176290646e-10 1.6603585616e-10 1.0160503941e-11 8.7260308931e-12 1.5960408387e-10 1.7317449114e-10 1.2377703733e-11 1.7989197949e-11 
2.3825978062e-10 1.1491112459e-11 2.0420908751e-10 8.847112968e-12 2.0953869626e-10 5.9658845174e-12 8.4685145927e-11 1.7895316769e-11 2.2448965413e-10 
1.0948742503e-11 9.4778462739e-11 8.648294287e-11 1.6492447639e-10 1.501454709e-10 8.8902632527e-11 7.7767764216e-11 2.1100138573e-10 2.6472957418e-10 
1.8515330623e-10 1.7849068401e-10 1.8347266338e-10 1.4700148861e-10 1.513261342e-10 6.0706036314e-11 1.2997820975e-10 1.0483506574e-10 8.370646534e-11 
1.470155482e-10 7.4261145079e-11 5.8081500545e-11 3.455291816e-11 1.9018763668e-11 2.1898034042e-11 5.7637371725e-11 5.5446333475e-11 1.3300299777e-11 
5.6648186162e-11 4.4281765901e-11 2.784567972e-11 3.5005289622e-11 5.465777724e-11 6.6718626968e-11 1.7571825573e-11 1.5293549638e-11 2.5139609038e-11 
1.6804023125e-11 1.2884906398e-11 1.7781216501e-11 1.7302313818e-11 1.0525470957e-11 2.2445041758e-11 8.6108565102e-12 1.0375018972e-11 1.0162438355e-11 
7.4775303731e-11 2.1047756457e-10 1.3511754219e-11 7.2123068413e-12 8.287810299e-12 2.9646781987e-12 2.3190774884e-12 5.3518183763e-12 5.2235521545e-12 
1.014844266e-11 2.8585011038e-11 1.9703855368e-11 3.6289250854e-11 7.2342166166e-12 3.2609069128e-11 1.6944890872e-11 1.3852559153e-11 1.7827865528e-11 
3.4489372348e-11 4.7723677519e-11 8.3336562492e-11 8.3390422803e-11 5.7823646944e-11 9.0416680791e-11 5.7358260428e-11 5.5601301711e-11 8.0513159701e-11 
7.799429077e-11 4.7059906011e-11 6.8117192007e-11 1.2040411208e-10 2.3484281493e-11 2.6873347108e-10 1.3617977539e-10 5.1291739483e-11 1.1018104732e-10 
1.1982408494e-10 1.4082664866e-10 1.7467836469e-10 1.3668507074e-10 7.7681690382e-11 7.2896646944e-11 3.8429888734e-11 6.6287908095e-11 9.45145989e-11 
9.5809759876e-11 9.9688220433e-11 1.4535985243e-10 1.5783988814e-11 8.0209889686e-11 1.7766294533e-11 1.4457380541e-10 5.4839981593e-12 2.257207268e-10 
1.935360174e-11 1.8114815478e-10 1.4837022752e-11 1.2149065159e-10 1.4900974192e-11 1.1149858857e-10 9.3320003368e-11 7.6044303792e-12 3.9366031857e-12 
1.942214453e-10 5.8151336724e-12 3.8914380858e-11 1.5954538855e-11 1.3398830849e-11 9.5956614802e-12 7.9920804204e-12 1.3860009213e-11 3.5940200948e-11 
1.5120276291e-11 1.988928947e-11 8.0245695108e-12 1.9312732652e-11 2.1261512638e-11 3.4867950478e-11 4.2243909902e-11 2.7521235139e-11 1.9714747492e-11 
4.875598037e-11 2.1725352592e-11 4.585941635e-11 9.1294267842e-11 8.6825544228e-11 4.6823444127e-11 3.0477853997e-11 4.3609867087e-11 3.650844771e-11 
6.3113486168e-11 7.3113209111e-11 1.7799014593e-11 2.4246161073e-11 1.6831529092e-11 4.5713960386e-11 6.3552405097e-11 9.321214716e-11 2.2249685305e-11 
3.3771598873e-11 3.1349127463e-11 6.9385051216e-11 5.396901879e-11 4.3813709298e-11 6.2728451833e-11 1.0223020473e-10 4.2789353485e-11 9.4070507211e-11 
2.494702409e-11 6.1892083282e-11 4.5852065564e-11 8.5978428516e-11 5.851664598e-11 8.0459810947e-11 8.0595654388e-11 1.0180226747e-10 1.02902743e-10 
9.7895571452e-11 1.0974870181e-10 1.3288092313e-10 6.9001779086e-11 6.6068580422e-11 1.4912857845e-10 1.3784496477e-10 1.4568657512e-10 1.1945889902e-10 
8.5858070884e-11 7.3745731297e-11 1.8101517916e-10 1.3353056561e-10 1.0109217396e-10 8.4853097068e-11 1.4713371458e-10 9.0409746098e-11 1.722682821e-10 
1.1295806858e-10 1.3314938593e-10 8.7750950487e-11 1.2482351995e-10 8.8552583121e-11 1.6225367553e-10 1.20886036e-10 9.1807675106e-11 5.493137108e-11 
9.8478101302e-11 4.0871867545e-11 2.8005170154e-11 4.0623955466e-11 8.2733368872e-11 6.4798007004e-11 1.6268534654e-10 6.356694735e-11 1.0167336497e-10 
1.0029292072e-10 6.306849836e-11 4.8960201467e-11 9.3891914628e-11 8.871297644e-11 1.441794961e-10 7.9060650578e-11 4.400937732e-11 3.0220356479e-11 
2.8977749011e-11 4.0009925931e-11 3.0553823204e-11 3.0053055818e-11 8.1304119526e-11 2.7343187643e-11 3.2998963643e-11 5.813985962e-11 2.8964455237e-11 
5.825045515e-11 5.5785603797e-11 2.7899587103e-11 5.9794786456e-11 5.1743818747e-11 6.9000546749e-11 3.434998271e-11 2.3385554228e-11 6.4198072542e-11 
2.9850854753e-11 3.4097692147e-11 4.6622523955e-11 5.3134198001e-11 3.0001520118e-11 5.2118616842e-11 3.1052767931e-11 3.8465930555e-11 2.5065604875e-11 
1.5658148847e-11 1.7143920428e-11 1.1521743009e-11 1.6428061213e-11 2.6742079554e-11 1.3924335264e-11 3.3558063591e-11 2.802513096e-11 2.2317266361e-11 
2.3614997241e-11 5.8085295032e-12 2.3063888882e-11 1.7294820285e-11 6.9579559453e-12 7.5859685363e-12 5.8906564056e-12 6.5458356834e-12 3.976907952e-12 
1.3344078245e-11 6.9965508504e-12 1.625063638e-10 5.0270748503e-11 2.3252549928e-12 1.0585387084e-11 1.7740028981e-10 7.3151398728e-12 8.251582994e-11 
5.9947311663e-12 6.5514241064e-11 1.3480633834e-10 5.8194572462e-12 8.9052423194e-12 1.0620329281e-10 5.5957944984e-12 1.0626680697e-10 5.4779682148e-12 
6.4043998214e-11 6.3590247935e-12 1.8368904418e-10 4.0726399101e-12 6.5708619154e-11 2.7552446975e-12 2.631034232e-11 5.0629210125e-12 1.1411942769e-10 
1.4350405126e-10 1.3099003074e-11 1.8946686344e-11 1.6373156427e-11 8.7003395746e-11 8.5882492786e-12 1.4692858887e-10 7.1399937657e-12 1.9090713987e-10 
1.6637919058e-11 1.9920808955e-10 2.5551891067e-10 3.6295423304e-11 2.3869079027e-11 5.9614851874e-11 5.0777633763e-11 7.5573464794e-11 2.2813623911e-12 
2.2736250424e-11 3.8231981727e-11 1.5580707743e-10 2.8121867008e-11 7.8986016468e-11 8.7883948308e-11 3.3294175311e-11 2.2407454013e-10 1.3147840544e-11 
1.28449734e-10 2.4476555579e-11 1.6731351226e-11 4.2245445149e-11 3.2287717334e-11 6.1274487524e-11 2.0939951472e-11 2.0840742113e-10 1.0077634726e-11 
1.983433321e-10 6.871428778e-12 3.0048097909e-11 1.004024726e-10 1.3074438309e-10 2.7022414801e-11 2.2455948031e-11 7.2461794235e-12 4.5005587344e-11 
2.1775102829e-11 8.6069586298e-12 8.2735802888e-11 1.0666506295e-11 2.8023193877e-11 4.2392088998e-11 3.449932736e-11 8.3835742585e-11 1.4265189304e-10 
8.32034211e-11 2.5353058634e-10 1.6173040863e-10 1.1445951941e-10 1.2362804032e-10 1.2449384098e-10 1.4039540452e-10 1.485129833e-10 1.4498657811e-10 
1.4520655743e-10 2.3468149988e-10 1.0979987001e-10 5.5188130969e-11 1.3882679581e-10 5.0442954856e-11 1.5909241837e-10 7.3818463835e-11 9.2366344025e-11 
8.0755635263e-11 2.228073428e-10 1.499684438e-10 3.9773391722e-11 1.5942529646e-10 1.058762132e-10 1.0317192069e-10 8.7472818968e-11 1.4098630214e-10 
1.8703602837e-10 3.8012182658e-11 3.3845314287e-11 6.0898582756e-11 8.9045167163e-11 7.1306247199e-11 1.1544153058e-10 5.6536737746e-11 1.5391409779e-10 
7.5452254213e-11 9.5594550388e-11 8.0639933486e-11 5.004215077e-11 1.4081941533e-10 1.170764189e-10 7.9478392979e-11 2.4531738304e-11 8.7330863438e-11 
9.2241672829e-11 6.1574178475e-11 4.8406445407e-11 4.616411246e-11 9.3429745887e-11 2.5894153708e-11 4.8503010198e-11 8.4980894712e-11 4.9311219329e-11 
4.0604516317e-11 3.2257703956e-11 1.7031122969e-11 3.183790814e-11 2.9321302014e-11 5.2606439059e-11 6.3383123271e-11 3.946915299e-11 2.9641890363e-11 
5.8973239686e-11 7.2452303963e-11 5.2095028518e-11 4.0549832526e-11 2.6486776628e-11 3.7134793264e-11 2.35234883e-11 3.6134274774e-11 2.0173245489e-11 
1.7382699251e-11 2.1693186014e-11 1.420407509e-11 2.5669478686e-11 2.8065377294e-11 2.0297429969e-11 1.3735293297e-11 1.5992778681e-11 1.4986399009e-11 
1.5906853199e-11 1.7125354962e-11 5.6209841339e-12 3.7613558733e-12 1.3591716161e-11 6.0300397361e-12 1.740082341e-12 2.3194171592e-12 1.5707446715e-12 
3.748230448e-12 1.7896499151e-12 6.6197264152e-12 6.3183487259e-12 7.9397629601e-12 1.2044147944e-11 8.8530063721e-11 7.9098211829e-11 4.6085150678e-11 
6.966121968e-12 1.243309956e-11 1.6293895116e-11 5.0036361743e-11 2.3767216202e-11 9.7210771388e-12 6.7888074504e-11 1.1708180776e-10 1.3052789237e-11 
2.3790488942e-11 5.7231748044e-11 1.2698020557e-10 8.9604572408e-12 5.30574527e-12 5.1457437537e-11 1.1048294739e-10 2.126462175e-10 1.333318654e-10 
1.1144851996e-10 5.8344775886e-11 7.966271276e-11 1.3161291564e-10 1.2074474734e-10 6.8831450952e-11 9.1518937052e-11 7.4371960707e-11 1.7107201532e-10 
6.6413128002e-11 1.2484208737e-10 9.7655187681e-11 1.5463250252e-10 2.8454007495e-11 4.9833547811e-11 3.743385341e-11 1.0703722439e-10 1.0052264736e-10 
5.9578125031e-11 6.8119292657e-11 1.4224252343e-10 8.0522810806e-11 5.4882213173e-11 1.1423631508e-10 4.6860884941e-11 1.116411203e-10 7.3721131595e-11 
5.0117068457e-11 1.3544321074e-10 5.2985438887e-11 9.9382586805e-11 9.4334123017e-11 6.0999850391e-11 8.1775187054e-11 4.6832957758e-11 2.7523933143e-11 
2.9104662594e-11 4.6892804301e-11 3.8132894073e-11 4.3879930857e-11 7.0390306531e-11 6.3661512052e-11 2.3908097777e-11 6.5818420985e-11 3.2588029589e-11 
4.6595673577e-11 6.1800785412e-11 7.9943929765e-11 5.1616414494e-11 3.8400803856e-11 3.3124077653e-11 7.5526420408e-12 6.475915589e-11 4.5793579197e-11 
6.7021938265e-11 2.7372706891e-11 2.4459595889e-11 3.8767046159e-11 3.7353401188e-11 2.758956691e-11 2.7863765201e-11 2.5142371535e-11 1.6682616616e-11 
1.7978034038e-11 1.3550528785e-11 1.4756755732e-11 3.0167647157e-11 3.0772252314e-11 2.5290913302e-11 3.067181183e-11 2.156910401e-11 1.4099886847e-11 
1.8988565692e-11 1.7401283254e-11 1.4461053944e-11 1.0626301116e-11 1.1608966706e-11 8.6412727287e-12 3.1003299453e-12 1.0044687939e-11 8.3366593615e-12 
6.9249043302e-12 6.0417828909e-12 4.5270516698e-12 5.4298225472e-12 9.6143684633e-12 7.9445008961e-12 5.0431608966e-12 7.2339926163e-12 1.788757912e-11 
5.2433725802e-12 9.6595405347e-12 1.0347509252e-11 1.5284631915e-11 6.9537497399e-12 1.1475376481e-11 4.6961959973e-12 5.0305886953e-12 4.3072179176e-12 
3.0914329569e-12 6.2021284323e-12 8.5453306031e-12 8.2024406374e-12 6.8336942198e-12 9.3263431323e-12 9.0810488917e-12 1.4957010988e-11 9.5227211478e-12 
2.3127677221e-11 1.0824357858e-11 1.9002063726e-11 1.0034851234e-11 3.3372809234e-11 2.4141323487e-11 3.5659447329e-11 1.7418040898e-11 2.6507263934e-11 
2.5689182218e-11 1.7955705066e-11 2.8415834602e-11 3.5280301355e-11 1.6901240481e-11 5.8664223298e-11 2.064082849e-11 3.0791758675e-11 4.1270650777e-11 
3.4130632068e-11 4.5908294414e-11 6.590502266e-11 4.3863101347e-11 3.1713359057e-11 4.4007614115e-11 4.2710317839e-11 7.4782658231e-11 8.7954216042e-11 
1.7517637634e-11 2.9618031346e-11 3.9875098362e-11 4.6232958217e-11 7.7321772294e-11 2.9762300119e-11 4.2067544965e-11 4.5942402731e-11 4.9315381086e-11 
6.3124714631e-11 8.8984623302e-11 1.0497407414e-10 7.7851518557e-11 7.6043008691e-11 6.9210506038e-11 1.0165111815e-10 1.1050100486e-10 2.0815418146e-10 
5.7585181599e-11 1.0466512305e-10 1.1790301873e-10 5.857004186e-11 7.0989312926e-11 7.6860067254e-11 1.0376441405e-10 6.4191502374e-11 8.1963606211e-11 
1.1736900305e-10 1.8267363528e-10 1.912430173e-10 1.974769744e-10 1.165987356e-10 1.4420033476e-10 8.617470643e-11 7.3312807839e-11 1.5470560172e-10 
1.5560742564e-10 1.2366708906e-10 3.7918499921e-11 1.7333453984e-10 5.6150590989e-11 1.1769770589e-10 2.1195601828e-10 4.9209407178e-11 1.2703564677e-10 
1.2056737138e-10 1.1128995627e-10 1.1945014431e-10 1.3585454146e-10 2.6337860081e-10 2.0767173911e-10 1.2331550672e-10 8.793692473e-11 8.8321193312e-12 
1.3609518067e-11 2.3682339212e-10 2.3370427764e-11 6.847753715e-11 2.199338078e-11 1.99055128e-11 1.2477405743e-10 1.6717640813e-10 1.2492353504e-11 
9.706797251e-12 1.405651433e-10 1.9759055987e-10 1.8043133376e-11 1.5844971652e-10 1.7502800823e-10 1.203238456e-10 6.552341659e-12 1.9313987136e-11 
1.3626242574e-10 1.1576068461e-10 6.3561946905e-12 1.7660001634e-11 1.6173846987e-10 2.3101767614e-11 9.6449754374e-12 5.9860663911e-11 1.9907371904e-10 
1.7583629319e-11 1.7450462739e-11 1.4682713455e-10 1.2601124704e-10 1.090103684e-11 1.136798464e-11 8.9737189782e-11 4.2547882575e-11 7.5006091046e-12 
8.8609423673e-11 1.5988712178e-10 1.2733896243e-10 1.0059031221e-10 9.1590692328e-11 3.7853882159e-11 1.6528672073e-10 1.0331973394e-10 1.0076046889e-10 
1.8562736121e-10 1.6316940362e-10 2.6221959056e-10 1.0842214954e-10 1.5181701265e-10 1.5785720619e-10 1.6876964458e-10 6.0122489814e-11 1.0519903883e-10 
1.5812532796e-10 1.7627278906e-10 7.2771328021e-11 1.8977081751e-10 1.5258587053e-10 1.0622277397e-10 9.1762078607e-11 3.0989858534e-11 5.329872015e-11 
1.7272327394e-10 1.55173234e-10 7.2196649311e-11 4.2415276838e-11 1.063580406e-10 4.8158148712e-11 9.6035488687e-11 2.8560996263e-11 6.5242800442e-11 
6.7020527688e-11 1.3687610743e-10 4.7698824469e-11 3.7892227255e-11 2.8143137272e-11 1.5006230118e-11 5.5322626485e-11 3.1303922361e-11 4.3142060129e-11 
3.7382344127e-11 1.8755953903e-11 3.4371153165e-11 2.3818020656e-11 3.4197643526e-11 1.7331269287e-11 3.0848854909e-11 3.2835702096e-11 4.4787014831e-11 
3.5099309203e-11 3.808767649e-11 1.0534005828e-11 1.9694948551e-11 8.4471462086e-11 7.4243518469e-11 6.10392839e-11 7.2061960506e-11 4.1732859333e-11 
4.1962760894e-11 3.0068501421e-11 2.4526442798e-11 3.6477110765e-11 2.017995777e-11 2.4214778767e-11 1.3275542669e-11 2.1140301148e-11 1.5204439057e-11 
2.7046685305e-11 1.2237213984e-11 1.1129618443e-11 1.0301237302e-11 1.5532069872e-11 1.6245807421e-11 8.397839797e-12 7.5105598197e-12 9.0994134902e-12 
1.1818512983e-11 9.2244867496e-12 4.3218811307e-12 6.5462124507e-12 5.4122746515e-12 3.6752337538e-12 4.6060078629e-12 4.4451243641e-12 5.7616161992e-12 
5.206891976e-12 1.9023244597e-12 6.6526711214e-12 1.3036783991e-11 1.5210350786e-11 3.1537123629e-12 5.4139217114e-12 5.1668590367e-12 3.2956297808e-12 
1.2757950345e-12 9.2206792169e-12 4.4508813824e-12 7.6020240937e-12 4.8995834742e-12 4.381667919e-12 9.2520802283e-12 8.3304742443e-12 1.8976255635e-11 
6.6523659972e-12 1.5634389157e-11 1.4905605715e-11 2.253254099e-11 2.985768353e-11 1.2236807968e-11 2.5419597933e-11 3.0006331726e-11 2.0993351949e-11 
2.4257108196e-11 2.3406101234e-11 2.1189234109e-11 2.4554668217e-11 7.528290071e-12 3.2025175529e-11 2.5533109125e-11 4.2176738054e-11 2.0360178979e-11 
6.9183555435e-11 6.5291253176e-11 6.5972624027e-11 8.9188958719e-11 4.6212569117e-11 6.60861367e-11 9.2253601821e-11 4.684705264e-11 4.8330874657e-11 
2.8824517341e-11 4.2568356474e-11 4.6211703294e-11 8.0089759239e-11 7.4770839569e-11 4.2100081149e-11 3.0092703769e-11 4.3651467837e-11 6.843306423e-11 
5.7536261828e-11 2.3703637462e-11 2.034877571e-11 4.9132378989e-11 3.9766601541e-11 1.2298591974e-10 8.7296740469e-11 7.740547855e-11 6.2160765961e-11 
6.3984552582e-11 5.52934959e-11 8.4312751022e-11 6.4788618131e-11 5.8976363553e-11 1.0055359509e-10 8.2805128852e-11 5.7743719749e-11 6.1289601928e-11 
4.4919617005e-11 9.5368847497e-11 1.4567642211e-10 5.7889443097e-11 8.8059629396e-11 2.0068857251e-10 2.0577271599e-10 1.2530858012e-10 3.8798831654e-11 
8.6768709062e-11 1.634767793e-10 1.3011154874e-10 7.7489117449e-11 1.2282668174e-10 1.7336890801e-10 1.9516268206e-10 1.5602558419e-10 1.5560842862e-10 
1.9006085557e-10 1.3772092662e-10 7.3737668621e-11 1.4217744245e-10 1.09287012e-10 1.8298950511e-10 1.5114362232e-10 2.0190140951e-11 7.5086301408e-12 
1.542636721e-10 8.0438526275e-11 8.0267141806e-12 4.2357895726e-11 1.2575394358e-10 1.0985894739e-11 1.3642460321e-11 4.6399401732e-11 2.0810290873e-10 
1.0703332734e-10 1.1102702554e-10 1.3782049104e-10 1.902695913e-10 1.2289571535e-10 2.4697716295e-10 1.3682102161e-10 1.9355257905e-10 1.6456054735e-10 
1.8094496164e-10 5.3184319514e-11 4.569546692e-11 1.2994024982e-10 1.503072393e-10 1.5653431204e-10 1.7582041528e-10 1.9479901968e-10 1.449236013e-10 
1.1386776973e-10 2.1187795346e-10 1.170952441e-10 1.417225782e-10 1.9508828199e-10 1.7335040554e-10 1.6619599978e-10 1.7710900905e-10 9.3877541484e-11 
9.3676022435e-11 8.7256549581e-11 7.4589135651e-11 1.0140596067e-10 2.6735668622e-11 7.8391415346e-11 9.9687827822e-11 4.0530852664e-11 7.0891123932e-11 
9.1429917434e-11 9.3092835498e-11 1.6464407666e-10 1.2429229759e-10 7.1740133621e-11 1.1834450553e-10 1.400150204e-10 8.0784663472e-11 1.6981397186e-10 
1.2028252343e-10 7.2753421487e-11 9.1305099372e-11 1.1051962212e-10 8.341596641e-11 1.1332667645e-10 4.5885578098e-11 5.9631464697e-11 1.0791233446e-10 
1.2904908e-10 1.2671253756e-10 1.0937597285e-10 1.4195312266e-10 1.5290116354e-10 1.3306253054e-10 1.2535581004e-10 1.2392807028e-10 1.1793367151e-10 
1.0707556408e-10 8.2235197919e-11 1.4557814394e-10 4.5735328641e-11 1.1218061989e-10 7.3852678393e-11 5.4590468606e-11 7.9463671076e-11 5.6094530377e-11 
1.2142651458e-10 2.4034132858e-11 2.941791617e-11 6.9006536725e-11 3.6152707125e-11 6.634837571e-11 5.8332336771e-11 3.7951604439e-11 7.4622761393e-11 
4.7789471207e-11 1.7641276422e-11 3.391062579e-11 3.6821430471e-11 5.4184535123e-11 4.600287172e-11 2.5722890933e-11 5.4489229934e-11 5.2211846359e-11 
5.9215726577e-11 5.3025983457e-11 2.1265015872e-11 3.3149850845e-11 5.0248833491e-11 3.6834656007e-11 5.2902052502e-11 3.5859339727e-11 2.7001067487e-11 
5.1806460058e-11 3.9351350545e-11 5.1163892225e-11 3.9771565374e-11 6.8471609367e-11 5.2630822322e-11 9.0397278055e-11 1.5789728683e-11 4.4929342831e-11 
2.6332048295e-11 8.0541628612e-11 4.0761778771e-11 4.5651886805e-11 1.8489570803e-11 5.9074585762e-11 7.6220963536e-11 2.310772191e-11 2.4091474834e-11 
5.7715049561e-11 1.6308138389e-11 5.0410273765e-11 3.3540619237e-11 2.6622126535e-11 2.3011648158e-11 3.7865786604e-11 1.9669880252e-11 3.0978588796e-11 
1.956819291e-11 1.8148428636e-11 1.2197771342e-11 2.5321620807e-11 2.9191865915e-11 2.680597745e-11 2.8046222025e-11 2.9833303495e-11 3.0148614676e-11 
2.0979438279e-11 4.8752508911e-12 2.0746473369e-11 1.6304077918e-11 2.2501613368e-11 2.6648487763e-11 1.7382187931e-11 7.4889249244e-12 3.3270691979e-11 
1.3055091611e-11 2.0820882321e-11 1.4054234998e-11 1.4060676133e-11 1.0532317983e-11 1.0714059502e-11 1.5896638248e-11 1.3710099977e-11 1.6450200708e-11 
1.4664712932e-11 2.0819708675e-11 8.3831885343e-12 1.0241133189e-11 6.9506682499e-12 7.2792292348e-12 7.5909612587e-12 1.2002705538e-11 5.1309959384e-12 
1.1051375187e-11 3.5991164104e-12 3.8218681419e-12 3.6836568018e-12 8.8527282571e-12 6.1040895526e-12 2.573696561e-12 1.0035838844e-11 8.20316175e-12 
4.7369708105e-12 6.3585287853e-12 2.7598348373e-12 5.2066320407e-12 1.8604943759e-11 1.1575624041e-11 1.9423376819e-11 5.4521700036e-11 1.0557899541e-11 
1.4812171164e-10 1.4076461612e-11 1.5295267828e-10 9.1697005843e-11 1.0747685262e-10 2.4282781618e-10 1.2147418952e-10 1.0428092982e-10 1.4107990182e-10 
8.4852808123e-11 1.6953712204e-10 7.2188279734e-11 1.2010841874e-10 1.7837313898e-10 1.1352100371e-10 1.2558977613e-10 9.3848863324e-11 2.053682244e-10 
7.7836732523e-11 1.1487009185e-10 1.5507366945e-10 1.201165332e-10 1.8233206197e-10 8.561496676e-11 1.0575750916e-10 9.7175428317e-11 4.1507359311e-11 
8.6784565742e-11 4.5835626639e-11 1.7760465171e-10 7.0746372021e-11 8.3682468163e-11 1.405520416e-10 8.34231012e-11 9.8042931389e-11 9.0884690804e-11 
8.4135961729e-11 7.1062760789e-11 7.0081692342e-11 2.5781490539e-11 6.000174014e-11 6.4149213654e-11 5.4922065341e-11 5.7481637613e-11 2.229991285e-11 
2.8587044666e-11 1.9347096295e-11 7.2007448827e-11 5.9011505339e-11 7.7713402611e-11 3.1107999416e-11 4.2273833984e-11 6.8959240397e-11 2.6484359155e-11 
3.2665956e-11 2.5930852043e-11 2.1678949074e-11 3.0331263657e-11 2.9810288753e-11 1.1436373076e-11 1.9917071704e-11 1.149523766e-11 1.7181959345e-11 
2.3498206414e-11 1.0892331805e-11 1.1446506305e-11 9.7569403893e-12 1.2134674734e-11 7.6649740108e-12 8.1645686862e-12 4.7353970286e-12 6.7140762723e-12 
8.5873581615e-12 1.2779355522e-11 5.1137477192e-12 6.2285152859e-11 7.6792285491e-12 1.2000438267e-11 1.0813678051e-10 2.0121091633e-10 1.6465615337e-11 
1.19748329e-11 1.4027337289e-10 1.9064784938e-11 1.4415205018e-11 4.6616383293e-11 1.9975849508e-10 8.4118876367e-11 1.1903829178e-11 1.4943630143e-11 
7.3942112402e-11 1.1237666618e-10 5.4064585633e-12 8.5730366711e-11 2.0615653914e-11 7.8518270758e-12 2.0122234015e-10 1.0806507783e-10 1.1799980663e-11 
1.5159592732e-11 1.1025229401e-10 2.0669644946e-10 3.0229029673e-11 1.2588155264e-11 1.6278791039e-10 3.1106527468e-11 1.8341509563e-11 1.2936272694e-10 
1.7611850597e-10 1.2643116079e-10 1.0532304231e-11 1.2181007479e-11 1.3187227769e-10 1.8951685164e-11 2.0938211242e-10 1.9772363027e-10 2.0180111558e-11 
1.5142011515e-11 9.801251382e-11 1.8546634376e-11 5.6080473652e-12 8.0042174473e-11 7.2567779942e-11 1.8430649923e-10 1.1080673933e-11 1.3029204014e-11 
1.8366460706e-10 1.5077457688e-10 7.9226915754e-11 1.0250544226e-10 1.6473102327e-10 8.9639484281e-11 1.291375786e-10 1.4962572965e-10 1.6838234998e-10 
7.6531896516e-11 8.8477375645e-11 1.5297887998e-10 9.204967431e-11 1.5987680836e-10 2.8717566686e-10 9.4403094464e-11 5.2040608488e-11 2.3033509267e-10 
2.1473836062e-10 1.6114285973e-10 1.5112111537e-10 1.1151547361e-10 2.9932802556e-11 1.135284555e-10 9.5125924022e-11 7.5446809286e-11 5.58821905e-11 
1.1674650083e-10 1.1338038963e-10 7.0332358746e-11 1.3722473858e-10 6.1127216094e-11 5.7313175035e-11 1.5043784311e-10 1.1218149867e-10 5.4213094448e-11 
1.2309030292e-10 1.0673802734e-10 2.6246433011e-11 5.1877793413e-11 4.5140692522e-11 5.2378188543e-11 2.3560362437e-11 4.3101478587e-11 4.8748380332e-11 
8.6414788608e-11 4.7628874374e-11 5.4753875427e-11 2.1510183251e-11 3.8311449983e-11 3.7915553264e-11 4.0111241315e-11 6.1766110917e-11 3.4327203587e-11 
2.6995846686e-11 8.1662309439e-11 5.7530557105e-11 5.0083611341e-11 5.8177463384e-11 1.7056805228e-11 5.9734192621e-11 4.0012078925e-11 3.3100515668e-11 
1.4029905893e-11 1.1220776797e-11 2.4754828884e-11 3.7109510272e-11 3.8280521205e-11 3.7626630879e-11 2.344565392e-11 2.5751008169e-11 3.2467190421e-11 
1.7229757406e-11 1.701176701e-11 1.6722460982e-11 1.2625740417e-11 1.0971963139e-11 9.1398947897e-12 1.6364922779e-11 5.9879917728e-12 5.8640739348e-12 
9.0128401645e-12 4.6420079288e-12 3.0496534803e-12 4.7589008356e-12 7.5131771353e-12 6.6824996911e-12 6.5938210336e-12 8.0251060583e-12 1.2764883012e-11 
1.0863525012e-11 2.1467420901e-12 7.5103631535e-12 6.2439832254e-12 5.0364436288e-12 4.4319958662e-12 6.9613909099e-12 6.4549729906e-12 6.6858236919e-12 
7.1459632324e-12 3.162388893e-12 1.7974754545e-11 8.5714902942e-12 4.9101735275e-12 8.4416921688e-12 6.5969769038e-12 8.4536318038e-12 2.9463408047e-11 
4.1626078308e-11 2.974132164e-11 2.8704619917e-11 1.9446894543e-11 2.6894695694e-11 1.923814509e-11 2.5712231159e-11 4.237898047e-11 2.0279183504e-11 
1.0815334203e-11 2.1678844446e-11 6.6867144263e-12 3.3987607796e-11 3.2597939353e-11 2.982024924e-11 2.3607177584e-11 6.2469963962e-11 6.2205437628e-11 
6.4450066713e-11 3.9983167942e-11 4.8685641922e-11 2.087612785e-11 1.3656375168e-11 4.5759194114e-11 6.2447948467e-11 9.1863896806e-11 1.8216928571e-11 
2.7743455879e-11 5.6639678904e-11 6.7010511346e-11 6.1742734185e-11 4.2939238805e-11 9.9835082506e-11 3.4830138083e-11 1.7940190281e-11 7.0876203983e-11 
1.3871871686e-10 1.0475615051e-10 1.1449513365e-10 8.6321800654e-11 7.0129155248e-11 6.5003361832e-11 1.1156173623e-10 1.113472204e-10 1.4750639306e-10 
1.9100712465e-11 6.3413367162e-11 7.8262095879e-11 6.5426461921e-11 5.8043104141e-11 2.9312032462e-11 9.0701870279e-11 1.3672620787e-10 1.6768534018e-10 
1.0900492011e-10 8.3178328626e-11 1.1326314176e-10 7.7021636584e-11 1.8869982302e-10 1.4249322455e-10 9.0250325152e-11 8.2093932229e-11 6.1520476805e-11 
1.432118893e-10 1.2913699203e-10 1.7105493495e-10 1.1743194424e-10 1.3997974165e-10 2.72342495e-10 1.604854174e-10 1.4929617418e-10 6.4815008504e-11 
5.8952615439e-11 7.5316283203e-11 1.3410239718e-11 1.6572870019e-10 1.3298335275e-11 1.2021728661e-11 1.9894071153e-10 1.4644476325e-10 1.2480928496e-11 
3.419583352e-12 1.2188815055e-10 8.730124688e-11 1.2368839111e-11 4.1742520696e-11 1.7816542461e-11 1.8018742369e-10 9.1656770414e-12 2.0576702601e-11 
1.7988233607e-10 2.8297055647e-10 6.3998489773e-12 1.2413024525e-11 5.8713075955e-12 5.6709487154e-11 1.1079540914e-10 2.1018573995e-11 1.7901345133e-10 
1.336492543e-10 3.8317843607e-12 1.0364685115e-11 5.0796934426e-11 1.1411751757e-11 9.7093143894e-11 1.0416669957e-11 9.9626904747e-11 1.4320245289e-10 
8.3201611761e-12 9.0190142789e-11 8.5409881147e-12 6.8424988112e-11 1.8079712615e-11 1.4725039475e-11 1.1449931941e-10 1.5487512777e-10 4.5642836509e-11 
1.0488907052e-10 1.9424934347e-10 1.4008927593e-10 7.8934058282e-11 2.0835562951e-10 1.4254225818e-10 1.5449276102e-10 7.80205027e-11 1.4020865031e-10 
1.8821991688e-10 1.0989697679e-10 2.4811002735e-11 2.5907015501e-11 1.9027508206e-11 5.7048854215e-11 8.3632905251e-11 8.5796532148e-11 2.2320919759e-11 
1.2081571888e-11 4.0476565847e-11 2.5298099593e-11 1.434463894e-11 8.9906703447e-12 1.7086090514e-11 1.5822162381e-11 1.7376384369e-12 5.1894301218e-12 
8.1865803236e-12 4.123817672e-12 1.6126204355e-11 9.2611984873e-12 1.5688713055e-11 1.1548278883e-11 1.1151176924e-11 2.7574140213e-11 7.1920370059e-12 
7.3653040999e-11 5.8050126291e-11 5.0760840993e-11 3.8378735165e-11 7.0241821891e-11 1.3364393284e-11 5.7181604898e-11 6.872191229e-11 5.7706759162e-11 
5.9722824342e-11 3.9154132178e-11 3.2204443816e-11 9.7437751646e-11 7.6518811028e-11 1.1029721085e-10 3.4374376508e-11 8.9206284082e-11 1.510794596e-10 
7.1361412442e-11 2.9217573883e-10 1.5020192091e-10 9.1282097273e-11 2.5561987548e-10 8.6494382234e-11 7.1938178312e-11 1.7081615192e-10 3.1879031429e-10 
1.0218613778e-10 1.1117263428e-10 6.3010458438e-11 1.1540314051e-11 8.829306071e-12 1.0723681135e-10 1.3182804834e-10 8.4691598142e-12 8.7896010049e-11 
1.2451609905e-10 1.614134503e-10 1.1879254684e-10 1.1073425677e-10 1.6165570297e-10 5.9574673531e-11 6.6535837048e-11 6.3333738885e-11 1.2163213047e-10 
1.4000798231e-10 3.0618885643e-11 1.5969200667e-10 1.6357285833e-10 9.215809305e-11 6.9401174626e-11 9.7971195313e-11 1.2822084291e-10 1.5389711663e-10 
1.1397134223e-10 1.2529931831e-10 9.3130364701e-11 1.6470685259e-10 9.9052003411e-11 1.2145520112e-10 7.9690448239e-11 1.159014193e-10 7.9995185257e-11 
9.5597530354e-11 1.1978240198e-10 6.5394722573e-11 1.4927551758e-10 1.2540456633e-10 3.4658930668e-11 1.1219455341e-10 6.7862077013e-11 6.1938321646e-11 
4.3681185443e-11 2.9620429495e-11 8.0322613922e-11 4.5335618265e-11 2.5879123508e-11 7.3541883098e-11 5.8435173249e-11 5.3483197112e-11 3.0842346496e-11 
5.2202990863e-11 4.8760364525e-11 2.3944614711e-11 6.9515358496e-11 3.7230537758e-11 3.7824704138e-11 7.1063866032e-11 6.9125886936e-11 5.7824557059e-11 
5.2424539007e-11 5.4499448748e-11 2.8560007959e-11 2.7803075615e-11 5.4296216186e-11 4.8170206039e-11 3.727200441e-11 3.5687936086e-11 9.8889568251e-12 
2.8133197039e-11 5.0082863243e-11 4.0980367345e-11 2.2736479406e-11 1.8244348261e-11 1.2030428133e-11 3.3579822259e-11 1.5031039584e-11 2.3528705423e-11 
1.1868966827e-11 1.0604503973e-11 1.0586137092e-11 1.6208013403e-11 1.1035663123e-11 8.6337719999e-12 7.15441618e-12 6.0005200547e-12 1.225749128e-11 
1.6993373555e-12 2.8251012272e-12 2.2386969453e-12 3.419436919e-12 4.0487678776e-12 3.0377489514e-12 4.5506668283e-12 4.8977600674e-12 1.2543729269e-10 
1.6631973331e-10 1.0643033273e-10 1.0003371795e-10 1.4389584149e-10 6.9287396761e-11 5.6631254557e-11 8.9318418185e-11 7.0907475004e-11 9.3241116438e-11 
5.8596967318e-11 7.4033610771e-11 6.6801384099e-11 7.8690259607e-11 1.1448791666e-10 4.831548046e-11 1.2386433981e-10 5.1406427686e-11 3.7903946578e-11 
9.2493033681e-11 1.3223741306e-10 7.1763533915e-11 8.1363645132e-11 9.7400303247e-11 8.8291811432e-11 9.9884026933e-11 4.0751226108e-11 9.1608200334e-11 
7.074330315e-11 7.12968314e-11 6.1100198303e-11 1.1678904458e-10 8.118531932e-11 3.1059843818e-11 6.2840776369e-11 7.616686521e-11 8.2898227976e-11 
2.9003718588e-11 9.407610436e-11 4.8779922701e-11 3.9367708156e-11 5.3609806425e-11 9.7794354147e-11 7.6924842057e-11 4.1337544897e-11 7.0091854953e-11 
6.4244951908e-11 5.6888815061e-11 1.924516102e-11 5.6426570307e-11 5.0310840754e-11 2.7282806284e-11 5.5004292501e-11 4.8700570778e-11 3.8268728322e-11 
5.75987449e-11 6.4150138094e-11 2.9490996119e-11 4.3455025314e-11 4.9282059179e-11 4.7079903001e-11 2.5253347391e-11 2.0526094812e-11 1.2832165958e-11 
2.878429944e-11 2.4592462621e-11 5.0165398405e-11 1.5950408436e-11 3.1947593855e-11 3.0557468155e-11 1.7835032363e-11 1.4624669092e-11 3.4698840356e-11 
1.0735406462e-11 6.9341362528e-12 1.6714549862e-11 1.6343165574e-11 8.261363139e-12 4.4095261488e-12 4.1652395718e-12 7.0098819983e-12 1.5400185772e-12 
4.780181322e-12 1.7732933521e-12 3.3771187906e-12 2.6176757327e-12 2.6785885599e-12 4.4975237541e-12 3.7699582258e-12 6.5119884868e-12 9.8737457371e-12 
1.2720329963e-11 1.2868146198e-10 1.9117136953e-11 7.438153545e-12 1.3520067458e-10 1.0413903203e-10 1.2884838604e-10 7.789252089e-11 9.9173785876e-11 
1.7176230978e-10 6.7294345222e-11 1.5083435648e-10 1.6851406267e-10 9.8448886855e-11 1.1668972005e-10 1.4498508119e-10 1.5666488216e-10 1.2536959423e-10 
1.6380183988e-10 8.3010615823e-11 1.5740901502e-10 8.6343970422e-11 4.5847293107e-11 8.0745450321e-11 1.8835898744e-10 8.588746451e-11 1.4994610518e-10 
4.0294343666e-11 3.0070362577e-11 2.0041011968e-10 9.9888801515e-11 3.3905156342e-11 1.0646593772e-10 7.8364454685e-11 1.8343952947e-10 5.838470344e-11 
2.0831110698e-11 1.3130363488e-10 4.4273932422e-11 2.0481647238e-11 1.1531036524e-10 4.1330250432e-11 5.3306259325e-11 5.6847912798e-11 5.3591822089e-11 
1.5584462844e-11 4.631731579e-11 2.8029117258e-11 2.7116186115e-11 3.7808832223e-11 6.269919948e-11 4.9178101641e-11 7.4033225248e-11 5.5906742492e-11 
2.4417003582e-11 5.3624537424e-11 3.9834387725e-11 2.6715851561e-11 2.7983878462e-11 1.1339665623e-10 3.6907460264e-11 1.0420822747e-10 2.7263899792e-11 
3.9642476773e-11 1.6533937198e-11 1.2690610192e-11 3.5292362444e-11 5.4859248217e-11 1.4479576394e-11 2.8859931386e-11 2.4108248619e-11 2.106948306e-11 
2.029321742e-11 2.2530552843e-11 2.5523273649e-11 2.4033890393e-11 3.1173842694e-11 1.8999104863e-11 9.7403545753e-12 9.0460758636e-12 1.560503766e-11 
1.0760926953e-11 5.6023691405e-12 1.111522591e-11 6.4673950471e-12 5.8075096137e-12 4.3694540599e-12 2.9986255239e-12 7.0939019345e-12 8.4007151214e-12 
4.9021410053e-12 4.7880223605e-12 9.8858819198e-12 1.0881458011e-11 1.0690074288e-11 4.3882442711e-12 5.9626906273e-12 5.4580811077e-12 3.4332412848e-12 
3.1531014089e-12 8.6169520119e-12 8.2558864347e-12 4.6769721641e-12 1.1551827719e-11 1.4744619994e-11 1.0590614712e-11 1.3510959863e-11 9.4172759507e-12 
8.9918926835e-12 1.8737354941e-11 2.1088872891e-11 1.8203989044e-11 2.2960472326e-11 1.9518608012e-11 2.6828492597e-11 1.4870033998e-11 3.4916265391e-11 
2.0778910665e-11 1.9239630988e-11 2.77633438e-11 2.9372181038e-11 3.7186807742e-11 2.9375989608e-11 7.9715379258e-11 6.31494757e-11 1.5643226679e-11 
5.4307769165e-11 7.4004733562e-11 2.8628027819e-11 5.4571827099e-11 3.8922430016e-11 1.1044531841e-11 2.9442528533e-11 3.9431120637e-11 2.6305821136e-11 
6.8131763203e-11 3.8799491896e-11 6.6524911909e-11 5.8371336674e-11 6.1279104839e-11 4.4237456197e-11 3.4160524012e-11 1.1662704244e-10 4.6137758308e-11 
4.3532575862e-11 3.3370570601e-11 5.6901690871e-11 1.0269673862e-10 4.6224610702e-11 6.9669365122e-11 7.3869546064e-11 6.229971769e-11 1.0736530405e-10 
1.0459000604e-10 1.389770288e-10 1.0603101495e-10 7.6030433863e-11 9.3000777989e-11 6.1431815854e-11 9.0937476819e-11 1.7247743505e-10 1.9228007423e-10 
8.1730449676e-11 4.0467666782e-11 6.9418018641e-11 1.3308790343e-10 1.3584841627e-10 2.4354816258e-10 1.5539432077e-10 1.111146495e-10 3.4972698203e-10 
1.3327001783e-10 1.3540413442e-10 1.0550881785e-10 6.6525236727e-11 1.7535717765e-10 2.4578678164e-10 2.6621450631e-10 2.5924688284e-10 1.5547375671e-10 
2.5018071957e-10 1.3522482365e-10 1.3206733589e-10 1.4705507833e-10 7.1670109066e-11 1.100793851e-11 1.321635636e-11 1.6012223338e-10 1.7246250321e-10 
1.2654120205e-11 7.7553036316e-11 1.3178260532e-11 1.3410759802e-10 1.3565629451e-11 7.9983450497e-11 1.0182429284e-11 6.7541410969e-12 1.3015843807e-10 
9.60786917e-11 1.0992161354e-11 1.9071469731e-11 1.6847939344e-10 8.1426902603e-12 9.4921496533e-11 8.9890971249e-11 1.1707869313e-11 8.225736575e-12 
7.7137346898e-11 1.0534115483e-10 2.0345957212e-11 2.2005508392e-10 1.7318864278e-11 2.095012751e-11 1.1977734749e-10 1.5608303629e-11 9.576475781e-11 
5.9687260232e-11 2.3006817653e-11 1.0519345719e-10 7.2600926155e-12 1.6527904922e-10 9.0678337484e-12 1.9562677108e-10 1.6670778867e-10 1.158216712e-11 
1.2965238313e-10 5.1761438411e-12 1.5549469876e-10 1.2091042286e-11 1.6233350301e-10 1.8056396336e-10 1.2420128326e-11 9.9574614679e-12 7.7836162419e-11 
1.1313310505e-10 9.5134535142e-11 9.1810549215e-12 1.1493913069e-10 5.816322989e-11 1.021059768e-11 2.150484113e-11 8.8305061806e-11 1.1636746671e-10 
9.4613557848e-12 6.8133549969e-11 2.0142438208e-10 7.1448013284e-11 1.2207671952e-10 1.0460727448e-10 4.0845982137e-11 3.8074108906e-11 1.2861610905e-10 
2.7738832039e-10 7.3464222149e-11 1.4775504441e-10 1.7284490403e-10 1.0800291273e-10 4.7988482954e-11 3.3350930212e-11 7.5232235463e-11 1.5622631707e-10 
1.0377513172e-10 1.391355988e-10 1.676864888e-10 7.8092655685e-11 1.1001395856e-10 7.268549281e-11 1.6756921724e-10 1.0249824319e-10 7.675445976e-11 
8.8144194706e-11 5.2429088805e-11 6.0332837595e-11 1.1402253684e-10 3.1432755797e-11 1.0027468781e-10 7.0928139663e-11 5.3936457072e-11 3.9185365947e-11 
4.1303399532e-11 4.1136721371e-11 5.9486129597e-11 5.42616669e-11 2.6893929161e-11 6.7037481725e-11 5.3039750624e-11 1.0356646232e-10 3.1058585142e-11 
4.756805613e-11 6.5004131516e-11 8.5403778195e-11 6.6281706812e-11 4.4760281004e-11 7.8642421082e-11 6.7255957796e-11 4.641996403e-11 5.6996079245e-11 
2.2228251011e-11 2.8252751696e-11 3.1736635919e-11 5.7119400601e-11 3.179719218e-11 2.3576254382e-11 1.8868456199e-11 3.0634805651e-11 2.4362904064e-11 
1.9271969148e-11 2.4525120122e-11 1.2910324997e-11 4.1396803576e-11 1.8697177835e-11 1.8525008673e-11 3.0198098192e-11 2.5137453561e-11 1.4225902149e-11 
1.7283618298e-11 3.346789945e-11 9.9337911698e-12 7.8811403284e-12 6.2592633449e-12 5.2549712109e-12 2.2374900782e-11 1.4709192368e-11 9.8985948167e-12 
4.290807376e-12 6.5668388397e-12 6.088092352e-12 2.6293754254e-12 1.7993016446e-12 2.6445378093e-12 4.405649714e-12 4.4676269339e-12 3.1628467045e-12 
5.8943056661e-12 9.9839136484e-12 7.4546888141e-12 7.6802758918e-12 2.1640678292e-12 2.9106828791e-12 2.4407696547e-12 3.6632734228e-12 5.2196483048e-12 
3.0154845909e-12 3.2332441725e-12 4.0504682016e-12 6.3642757735e-12 7.2110140161e-12 8.702573052e-12 7.8207132575e-12 1.0382148646e-11 9.1892094418e-12 
5.7416619399e-12 1.345154433e-11 2.6768211963e-11 2.2687422974e-11 2.5202183314e-11 2.4629361704e-11 1.0496006222e-11 2.6021261153e-11 1.369303521e-11 
1.0442100832e-11 1.9580690632e-11 1.1077724915e-11 2.7792116143e-11 5.1208593064e-11 5.1330190647e-11 3.5557741145e-11 5.0046176347e-11 7.9763812439e-11 
3.9444362666e-11 6.1210125961e-11 6.9177813261e-11 1.6815020426e-11 6.5630743116e-11 6.6388063449e-11 6.3802732234e-11 6.7443354766e-11 4.5058614817e-11 
7.0633821823e-11 3.0359111581e-11 4.7571428436e-11 4.8890515667e-11 7.4410219328e-12 4.8677866266e-11 7.6035602548e-11 2.2229530084e-11 4.60473694e-11 
4.6480013198e-11 3.6625510949e-11 5.7965143928e-11 5.4814233775e-11 3.6297829615e-11 8.8965851912e-11 8.5989126119e-11 4.232690362e-11 5.102623724e-11 
2.8637059628e-11 1.2845395884e-10 1.156006801e-10 1.4025360528e-10 1.4779327941e-10 9.8098585215e-11 7.4460857701e-11 7.7454127572e-11 1.7462452521e-10 
1.3033384283e-10 8.3297865599e-11 3.207759462e-11 9.54969409e-11 1.7180080659e-10 2.1380339111e-10 1.161783398e-10 9.7138075615e-11 2.0921568535e-10 
5.9036114618e-11 1.5928026309e-10 1.8206533996e-10 5.274662825e-11 7.2257761935e-11 6.4589188859e-11 7.8827809906e-11 1.3861828368e-10 8.3528105698e-11 
9.6771119334e-11 1.1363836032e-10 1.8207419011e-10 1.1652832219e-10 1.2960639557e-11 1.1925286344e-10 1.2061858363e-11 1.290739279e-10 7.1853362383e-12 
1.734614522e-10 1.2415687259e-10 2.8181063465e-11 1.4787514555e-10 1.2100018577e-10 1.3367774269e-10 1.3074004937e-10 2.0207687713e-10 1.248984342e-10 
1.5127837653e-10 4.4614716841e-11 1.3409699054e-10 1.2260236081e-10 1.5870492685e-10 7.2442360219e-11 1.2046820366e-10 1.4642000555e-10 1.4732085756e-10 
8.1335210086e-11 1.5565343393e-10 8.7503473605e-11 1.0701875173e-10 5.4158212952e-11 1.2946905626e-10 1.1889567732e-10 5.8624638838e-11 8.4567167519e-11 
1.2130477748e-10 1.3352386304e-10 9.9579463705e-11 8.4299533255e-11 1.4043795403e-10 4.8033754552e-11 1.0134572949e-10 7.8329048773e-11 1.2068107724e-10 
1.9824226179e-10 2.2707021294e-11 1.1437745874e-10 6.5065486201e-11 8.4336624938e-11 5.2660932983e-11 1.030495019e-10 8.3021632705e-11 1.0011744206e-10 
1.6001226429e-10 1.4042001393e-10 6.7268867788e-11 1.2210933281e-10 4.9239163431e-11 7.0859968514e-11 4.8665489234e-11 1.2536641006e-10 6.2304812321e-11 
1.4128847546e-10 1.3711196095e-10 1.92586684e-10 4.9943391993e-11 1.243329402e-10 9.2532901608e-11 1.2938731881e-10 7.23164541e-11 1.4542707365e-10 
9.1573496084e-11 1.3213244263e-10 6.77108308e-11 7.5859624257e-11 1.4141739545e-10 7.091400382e-11 7.640465663e-11 9.5356547635e-11 6.1725097074e-11 
6.1064712478e-11 7.8662510274e-11 1.5548329699e-11 2.4801800997e-11 9.2385789836e-11 2.401415431e-11 7.5669107556e-11 4.5131081366e-11 2.6939270084e-11 
3.3802919309e-11 7.0005514708e-11 7.1685229243e-11 7.1837382758e-11 5.7164100221e-11 7.8500994332e-11 2.7370804363e-11 3.1001617272e-11 1.0217777388e-10 
1.1834360381e-11 5.1249464026e-11 6.1336039299e-11 6.3667260545e-11 3.1812818574e-11 6.9375064933e-11 4.4836146658e-11 4.7501505716e-11 7.7579306008e-11 
2.7010562731e-11 5.6291878307e-11 3.814844891e-11 4.6549209965e-11 5.5188689411e-11 2.7308079758e-11 2.3999479885e-11 2.3170186436e-11 3.4503069855e-11 
2.5715223491e-11 5.1700557527e-11 5.660866721e-11 6.6041057049e-11 4.0289689621e-11 7.4766455806e-11 3.0634977133e-11 6.1287908172e-11 5.5425599179e-11 
2.9297478816e-11 1.222996678e-11 2.871594091e-11 4.0183374867e-11 2.2735627731e-11 1.4670988695e-11 3.2309423119e-11 1.0965908479e-11 1.3016081334e-11 
2.3976920869e-11 1.2579994987e-11 7.6778990739e-12 1.0562043387e-11 1.8985407388e-11 1.9211748881e-11 2.1533052687e-11 2.5528206296e-11 1.2593453146e-11 
1.739005261e-11 2.8588884278e-11 3.1167178847e-11 3.6014121056e-12 3.5556402454e-11 3.7345786773e-12 3.4559107362e-11 1.8839215854e-11 1.0159516233e-11 
2.5509463422e-11 1.757584888e-11 1.7339596445e-11 2.0070022952e-11 1.4597588721e-11 9.1691907383e-12 1.3448300306e-11 8.8355940136e-12 9.3239433209e-12 
6.775765143e-12 8.3287441382e-12 8.893018134e-12 1.670042818e-11 6.9169293806e-12 8.9663538572e-12 4.4235829501e-12 6.6815961398e-12 3.5630105064e-12 
9.9115701788e-12 2.1188093442e-12 3.5114775524e-12 3.1376632343e-12 3.8803467361e-12 5.9708092687e-12 4.6590430891e-12 3.4428708017e-12 2.2850614793e-12 
2.9107040066e-12 5.3053547189e-12 7.8718638387e-12 7.4463257325e-12 7.7648308132e-12 1.5021279579e-10 4.5498695322e-12 1.6570221649e-10 1.8529790508e-11 
6.0782571953e-11 1.3199797652e-11 7.2245988495e-12 1.014629502e-10 1.51923147e-10 1.5281615137e-11 1.4632528734e-10 4.6251486861e-11 1.2237049421e-10 
9.3151629668e-11 1.0162768527e-10 8.6753722347e-11 1.2151143852e-10 1.1937925914e-10 1.1340266777e-10 1.4177943569e-10 1.5204819098e-10 1.4562724451e-10 
5.868002405e-11 9.882946693e-11 6.3408257096e-11 9.3124881846e-11 6.1565854293e-11 1.0978167379e-10 1.0151207614e-10 1.0001733903e-10 1.0001733638e-10 
8.4933992134e-11 7.619918683e-11 1.6082464075e-10 1.5294436461e-10 1.1268124199e-10 5.7521157596e-11 8.2268047812e-11 1.1409487449e-10 8.1683112397e-11 
1.0148741637e-10 1.350363021e-10 5.7435292266e-11 1.5100638056e-10 1.4642440833e-10 1.1694458916e-10 8.6755869878e-11 7.3995431973e-11 8.8058085022e-11 
6.7579399688e-11 1.0034597787e-10 8.3575693871e-11 2.4217566792e-11 1.1392728765e-10 1.1799391452e-10 3.3110051937e-11 8.9743224137e-11 4.9159951541e-11 
8.7936352387e-11 8.1485014527e-11 5.6206381767e-11 5.0897646177e-11 6.3152313478e-11 4.9470565229e-11 3.3393271366e-11 1.0414749004e-10 6.6681362743e-11 
7.6822336752e-11 1.3407391817e-10 1.1916831611e-10 1.4600451092e-10 1.4620558865e-10 7.5327140636e-11 1.0018587392e-10 4.2393988743e-11 4.9872009109e-11 
5.9757323071e-11 7.5982133017e-11 1.4075002656e-10 3.3356501826e-11 4.4278646737e-11 6.4570658308e-11 3.6611057714e-11 4.1762237843e-11 4.255348604e-11 
1.1730162529e-10 6.0112889072e-11 4.4955869555e-11 1.1495334243e-10 6.458447279e-11 6.9747884544e-11 4.1646423691e-11 4.0964822977e-11 9.3925229536e-11 
1.67540954e-11 5.8444338083e-11 7.2332279078e-11 5.1004279982e-11 4.5429663183e-11 8.8538404064e-11 3.5639080623e-11 7.3727213422e-11 2.6230126174e-11 
4.2670200071e-11 7.8303721679e-11 9.3847327442e-11 3.3474216453e-11 4.0130362921e-11 6.1427088158e-11 5.1147340231e-11 2.4243418884e-11 3.0566757047e-11 
4.7772564584e-11 5.6516173299e-11 3.0155556243e-11 5.9893950861e-11 5.063304478e-11 4.5592254855e-11 6.5434861561e-11 2.5897384895e-11 8.3512014363e-11 
5.0687324846e-11 6.5002317967e-11 4.5013643792e-11 6.2791906038e-11 5.5708853434e-11 4.2715694017e-11 4.2086984776e-11 4.760517149e-11 3.7468615353e-11 
1.5720340825e-11 3.813612314e-11 2.3933009878e-11 1.7325744354e-11 2.6608879433e-11 4.1186820297e-11 2.7015946139e-11 3.0661604766e-11 4.4754659789e-11 
2.0002562712e-11 2.5530750927e-11 3.2710926785e-11 1.5026585111e-11 1.6413977964e-11 1.6075378395e-11 2.0553340717e-11 2.4306951577e-11 3.869929834e-11 
2.3919508455e-11 2.4500078815e-11 2.2748562462e-11 2.7044302353e-11 2.3917934297e-11 1.9329954486e-11 1.4940277581e-11 1.0284358397e-11 1.7367524043e-11 
1.6279803721e-11 6.054177888e-12 4.3972782187e-12 1.3032921199e-11 7.2456685492e-12 3.4465043217e-12 1.0417551369e-11 6.0455107628e-12 6.0957346539e-12 
7.145366945e-12 7.2180544024e-12 2.9062811499e-12 6.9834603244e-12 5.8806636826e-12 2.8626460187e-12 4.286733057e-12 5.1962945299e-12 2.7041948773e-12 
2.4390002601e-12 1.5258085207e-12 2.7657519133e-12 1.3276632959e-12 1.7317368116e-12 3.0029375513e-12 1.7404749173e-12 3.7832552143e-12 1.5151059429e-12 
4.6430157942e-12 3.4999532693e-12 9.6463687174e-12 3.5686790205e-12 1.4427077682e-10 6.163816468e-12 3.9449757297e-12 9.4327171648e-11 1.83803253e-10 
6.9672851387e-12 9.5886500868e-11 7.2936449388e-11 1.9344495066e-10 6.7733379451e-11 6.5390021276e-11 2.6181053179e-11 9.171751024e-11 8.3793000973e-11 
8.7234496597e-11 1.0421228983e-10 7.8519171665e-11 1.0621116819e-10 1.1088931771e-10 8.980756028e-11 6.1605026886e-11 1.9442976873e-10 1.3172305253e-10 
1.4234254385e-10 1.4706141458e-10 1.4508697799e-10 1.0790805579e-10 1.6680210894e-10 2.0298200416e-10 1.1734458486e-10 8.3333234862e-11 8.2712725368e-11 
7.3089589359e-11 9.6643358283e-11 1.1259494721e-10 6.7191476867e-11 6.5488863097e-11 6.298517126e-11 1.3547617211e-10 6.699225972e-11 4.0570100756e-11 
6.556843008e-11 1.0731739199e-10 4.3649803414e-11 2.4162946858e-11 3.9781882622e-11 3.2559023594e-11 2.3056483704e-11 3.1289850995e-11 5.561897824e-11 
2.6383205349e-11 3.9363150131e-11 2.3578832334e-11 4.2607644606e-11 1.3542239089e-11 2.5648928467e-11 4.2636275924e-11 3.2685626175e-11 2.3278473357e-11 
3.9726242445e-11 5.5023707142e-11 5.2592301713e-11 1.6336523017e-11 3.8615461764e-11 2.5034320907e-11 5.0555397825e-11 5.0502660637e-11 4.4671241128e-11 
1.3597077715e-11 1.9592733873e-11 3.3866005837e-11 1.5603541205e-11 1.8131876588e-11 2.7206699744e-11 2.6722263053e-11 1.3151942249e-11 8.5071141733e-12 
1.9451391745e-11 1.284085698e-11 1.3364897167e-11 1.7105907909e-11 7.3019148253e-12 1.1342415185e-11 1.8257970971e-11 8.1253012507e-12 7.9880318801e-12 
4.5575920026e-12 5.5891508535e-12 5.1985902012e-12 2.458670477e-12 2.8959690117e-12 3.1276009362e-12 4.062091065e-12 5.7322619215e-12 7.2775080203e-12 
1.0182644056e-11 5.4709085457e-12 2.9012730325e-12 2.2204408764e-12 4.7709468055e-12 4.2137155998e-12 7.0076037874e-12 4.9709829726e-12 2.8356793662e-12 
7.1173610795e-12 3.0879645187e-12 1.2339441398e-11 1.1612184841e-11 1.7266707997e-11 1.3231680171e-11 1.5621109509e-11 2.4716562948e-11 3.3123534043e-11 
1.0048665945e-11 2.5942218265e-11 2.3215014196e-11 1.7864090446e-11 3.0401564314e-11 2.3187385368e-11 1.4793289283e-11 1.9907789168e-11 3.5658199121e-11 
2.3131669005e-11 3.1694258271e-11 1.6152684856e-11 3.8379591805e-11 5.1491365111e-11 2.6008562071e-11 1.4265630962e-11 2.357603087e-11 2.0736778598e-11 
1.6654818514e-11 3.6893422532e-11 1.2236339669e-11 4.3689723397e-11 4.4205426264e-11 2.4709370338e-11 3.6254973321e-11 3.7367139774e-11 1.870402009e-11 
3.5124226668e-11 2.4471780026e-11 2.001539519e-11 3.4576970452e-11 4.3877531598e-11 5.2000786697e-11 4.9594810126e-11 7.0232029457e-11 8.6840851096e-11 
7.7380571382e-11 9.6320256642e-11 1.0020555398e-10 7.237753344e-11 3.3639963856e-11 4.0675146146e-11 5.0853331617e-11 7.974498398e-11 9.0215647682e-11 
6.200600052e-11 6.8913862122e-11 9.4862689178e-11 6.7357851176e-11 6.5287706252e-11 1.3373751703e-10 1.6696020602e-10 1.6470538662e-10 1.7878672063e-10 
1.4609708228e-10 1.8156293363e-10 1.070931436e-10 1.3791236181e-10 3.5169969182e-11 1.4606844308e-10 1.2049720407e-10 1.2935170159e-10 9.6153744572e-11 
4.7080674638e-11 1.9136213185e-10 1.0512214253e-10 1.6333214513e-10 8.0322343096e-11 1.1110557042e-10 1.1449062722e-10 1.2247531454e-10 6.3195335524e-11 
9.0934869546e-12 9.5664122924e-11 4.9310886994e-12 7.1097498222e-12 1.5957502106e-10 3.202678886e-12 1.0951275513e-10 9.7382357931e-12 1.4127569805e-10 
1.3126692724e-11 8.3246258493e-11 1.022891665e-11 5.8534167326e-11 1.1171458843e-10 1.0891698029e-10 2.9753121212e-11 1.4003747625e-10 1.4126028193e-10 
6.7849679043e-11 1.1110606336e-10 4.0710217934e-11 1.7102699747e-10 1.8531278812e-10 1.2665220922e-10 9.0389104001e-11 2.1233356268e-10 9.1485143781e-11 
4.5184544176e-11 7.740028106e-12 6.3204141845e-11 1.1170730572e-10 9.5699196637e-11 1.4480068871e-10 7.700939567e-11 6.4367574791e-11 9.9086054134e-11 
2.229905786e-10 7.4495488585e-11 1.6728774272e-10 3.7395218346e-11 8.5638398928e-11 1.4462202103e-10 6.2563001265e-11 8.4293886599e-11 7.7873804763e-11 
1.3664682031e-10 8.1628591643e-11 1.3478791238e-10 9.6489477039e-11 4.0674389386e-11 3.0571487987e-11 4.6353181481e-11 5.5914223052e-11 6.9208575984e-11 
6.6233376648e-11 4.0980809215e-11 9.0912332779e-11 6.654687446e-11 6.9428888114e-11 1.828837819e-11 2.277208364e-11 3.62033079e-11 2.2067510737e-11 
1.5232868195e-11 5.4653967825e-11 6.9026938499e-11 1.992425831e-11 2.4718660597e-11 5.9905525608e-11 5.2788745915e-11 3.0761703071e-11 5.2169797613e-11 
1.7611035118e-11 1.7615487131e-11 3.1656512681e-11 2.8207954221e-11 3.6230303634e-11 1.981904744e-11 4.8030912343e-11 3.2860025287e-11 1.6793993122e-11 
1.7361796996e-11 2.1358605601e-11 3.1220249859e-11 2.4619891057e-11 1.4225098011e-11 2.3110478605e-11 2.2118314671e-11 6.6809041835e-12 1.0000944111e-11 
1.726474207e-11 1.1743015072e-11 1.1796755076e-11 5.0326469147e-12 7.2897727165e-12 4.3119016199e-12 3.7337292827e-12 6.3852415682e-12 1.0093221463e-11 
8.1265435892e-12 9.4734095356e-12 7.8166120948e-12 1.2886234549e-11 6.6628953676e-12 4.8937247163e-12 6.5618859877e-12 1.0334058771e-11 7.6569637533e-12 
1.0881857336e-11 1.0263874408e-11 2.6642231783e-12 8.1904503781e-12 8.9564830524e-12 4.0001269295e-12 7.9560277567e-12 8.7534791643e-12 1.806851252e-11 
1.6572248964e-11 4.4869078107e-11 1.4929120285e-11 2.7444139098e-11 1.3976563775e-11 1.0899667689e-11 1.9263948273e-11 2.8502529152e-11 1.2456875995e-11 
6.2948176395e-12 2.7125103993e-11 3.9192757333e-11 5.5422270024e-11 8.7033627611e-11 3.6291763831e-11 4.0458239291e-11 4.5216637383e-11 3.2488861074e-11 
3.2741696954e-11 5.0391578636e-11 7.7260116471e-11 1.6301232349e-11 4.6487870321e-11 7.9774718986e-11 4.6163092833e-11 5.6438253164e-11 4.3038657787e-11 
4.507654713e-11 5.8306295491e-11 4.1812027254e-11 4.8927781177e-11 5.1022941447e-11 4.7542397327e-11 5.050022287e-11 1.0995088061e-10 2.6120916065e-11 
1.1285366702e-10 7.0833128415e-11 7.7103084396e-11 1.0362436806e-10 6.6022496486e-11 6.0408162212e-11 9.8669865903e-11 1.1915436172e-10 5.52021568e-11 
9.1756770842e-11 1.170320304e-10 4.319896151e-11 8.5325633244e-11 1.2002673651e-10 1.1988852055e-10 1.1534177808e-10 4.8547952242e-11 6.0431490508e-11 
6.7195139556e-11 1.257746376e-10 8.7319806886e-11 3.7623961422e-11 1.0689213491e-10 2.0014402342e-10 1.4212924022e-10 1.4582941912e-10 7.5893949825e-11 
3.9401556025e-11 1.5909553464e-10 2.2785130455e-10 1.3688095775e-10 1.3533031821e-10 1.1092720866e-10 9.6022375901e-11 7.8874969991e-11 1.4797193964e-10 
8.2964808413e-12 1.1584667254e-10 5.1962178791e-12 1.1025249285e-10 8.7792478813e-12 1.8757558096e-10 1.9890624773e-11 1.4884329748e-11 1.9550350473e-10 
1.9877720111e-10 8.9111466194e-12 6.5904353322e-11 4.4032940469e-12 1.9916712979e-10 1.1133888585e-10 1.1427982355e-11 1.265740871e-10 1.1920295267e-11 
6.3677483025e-12 1.7432021266e-11 2.3161115248e-10 8.8689736108e-12 1.147668099e-11 7.0619987173e-11 4.5778832562e-11 1.2255479883e-10 1.5781300766e-10 
1.3302223721e-10 6.6901443811e-11 1.6390856436e-10 7.5754506584e-11 5.5755111002e-11 1.2462286477e-10 2.0933145785e-10 1.9568405092e-10 1.9187793429e-10 
6.0210454236e-11 1.3142344514e-10 1.4481900237e-10 2.0797196974e-10 2.4888351669e-10 1.4374868816e-10 1.216571205e-10 8.3831442211e-11 1.562161081e-10 
1.0897306174e-10 1.0524554979e-10 1.0528011518e-10 1.1464099598e-10 1.4684213806e-10 1.6111895415e-10 1.0465231248e-10 1.0381017444e-10 1.3917783404e-10 
9.9604736304e-11 4.1788343815e-11 3.3964647399e-11 1.4727634336e-10 7.2610000045e-11 1.7853703243e-11 8.3014498633e-11 5.1437954047e-11 5.3387315754e-11 
6.1744857376e-11 4.1931517828e-11 3.6002146463e-11 8.9267604303e-11 2.9270503295e-11 3.0800608409e-11 4.6514147608e-11 1.0711160579e-11 4.0115085363e-11 
3.2224794058e-11 4.5289254084e-11 3.3949733256e-11 5.1296843653e-11 4.4734701136e-11 5.3718054173e-11 7.8398963591e-11 1.0524203718e-10 6.6175244949e-11 
2.4486228973e-11 1.6668812551e-11 3.3799147317e-11 2.4411935403e-11 3.4475142666e-11 3.258197838e-11 2.7339959695e-11 1.0136601177e-11 9.0662189413e-12 
1.1501633827e-11 3.576787388e-11 3.1050770167e-11 1.2471528113e-11 2.1747570807e-11 2.2169615399e-11 1.6084667977e-11 2.1466334263e-11 8.9786398718e-12 
9.5638083924e-12 7.770463281e-12 9.3150821729e-12 3.9336224309e-12 1.1846723068e-11 5.0680699338e-12 5.8238571573e-12 3.3105000233e-12 4.9494168585e-12 
6.7888520363e-12 7.0990626611e-12 5.7607184714e-12 5.6987925776e-12 3.4196553883e-12 3.2651228159e-12 3.5001704024e-12 6.7585484933e-12 3.4772147856e-12 
6.0892944551e-12 6.4806198899e-12 6.8276597112e-12 1.0557731023e-11 2.2886618173e-11 1.6721988894e-11 7.0369583497e-12 1.8124767828e-11 1.530652107e-11 
4.1476421101e-11 4.7582621841e-11 2.7921026256e-11 2.9198402313e-11 2.7684095106e-11 2.3906060022e-11 1.0755261721e-11 1.0308975057e-11 2.6409397629e-11 
2.4057526847e-11 5.8209554819e-11 4.3470521458e-11 4.2454323754e-11 2.9098427361e-11 5.6954916493e-11 6.672476429e-11 4.7831890813e-11 4.9027121553e-11 
5.6237019892e-11 3.4357123831e-11 3.3962542599e-11 3.7246575908e-11 9.2698183378e-11 8.8202570138e-11 4.1089079613e-11 6.2893398758e-11 4.1251286904e-11 
7.3934026038e-11 3.7311577469e-11 6.1174022095e-11 2.4195825718e-11 2.0000600674e-11 8.3086579581e-11 2.9382616976e-11 5.563483299e-11 4.8063215846e-11 
1.2841404902e-10 5.5304131117e-11 6.106604556e-11 9.5877397298e-11 1.0701413615e-10 4.8997262639e-11 8.9722922665e-11 1.7475980419e-10 1.1391932606e-10 
1.7107245376e-10 1.2482230507e-10 9.4358767419e-11 1.4274050787e-10 4.65456489e-11 5.462686986e-11 5.7481052279e-11 3.6240848205e-11 1.2014608992e-10 
4.753487109e-11 1.3991016693e-10 7.6061013152e-11 1.7271386666e-10 1.8024923486e-10 1.0191385722e-10 7.380014309e-11 7.9674951401e-11 4.7698495998e-11 
1.2008525244e-10 1.6768896233e-10 3.4686830702e-11 1.7029047271e-10 6.8733392393e-11 9.9952109802e-11 1.4608303401e-10 1.7140188004e-10 1.4144325522e-10 
5.2875139056e-11 1.2016985611e-10 8.4761994301e-12 5.6316977135e-11 1.94333448e-10 5.1405683286e-11 1.2728010825e-11 8.4169124482e-11 1.1095879297e-10 
1.4764711479e-10 2.1397711978e-10 1.6410202843e-10 7.0036137141e-11 1.2496847382e-10 6.3363508285e-11 2.1433499064e-10 4.460792708e-11 1.1137887335e-10 
9.4501839272e-11 1.4854573305e-10 1.5813900319e-10 4.8342629181e-11 1.2361088633e-10 2.070405012e-10 1.212883506e-10 1.4561433774e-10 9.8305475526e-11 
2.7189852594e-10 1.097494387e-10 9.9187765443e-11 1.5907876959e-10 1.2127290855e-10 1.8651124218e-10 5.7165303865e-11 1.5312107517e-10 1.2244451039e-10 
1.1322070836e-10 9.8394936099e-11 1.0733808001e-10 1.2274848153e-10 1.7918900803e-10 3.4985964356e-11 1.7750866514e-10 7.4204719666e-11 5.6483917165e-11 
1.4001716577e-10 1.2175170998e-10 6.9097502224e-11 9.9765060329e-11 2.8352481574e-11 6.746775547e-11 6.2440485141e-11 1.4324932723e-10 5.3490571423e-11 
3.8504738494e-11 6.3144374781e-11 9.5012303141e-12 8.3945849547e-11 4.8540607087e-11 7.009054072e-11 4.4132123695e-11 4.5141584704e-11 4.4945879525e-11 
5.2221603012e-11 8.5294970759e-11 3.6586337619e-11 5.3417168775e-11 5.2407512703e-11 5.771928649e-11 5.0172258404e-11 4.1396674563e-11 3.8494902069e-11 
3.7683388102e-11 5.2707857166e-11 9.8246115452e-11 9.6421322027e-11 7.5074227944e-11 8.7180906242e-11 6.3885477944e-11 8.3164112512e-11 3.3246811948e-11 
1.8616235377e-11 1.8314939342e-11 2.5088785885e-11 4.0661510236e-11 3.4875209861e-11 5.1393450294e-11 4.5099172652e-11 3.0564809069e-11 2.5103320653e-11 
2.8756302898e-11 2.3578092942e-11 2.0328283917e-11 8.7756936832e-12 3.1405213872e-11 2.7579304434e-11 2.7744627065e-11 1.8749724944e-11 8.15755307e-12 
1.8177678967e-11 6.6039710761e-12 9.7152482723e-12 1.7106899622e-11 1.3436458898e-11 1.2656813539e-11 1.2512074963e-11 1.0672007293e-11 4.3684232472e-12 
1.0724315444e-11 5.7830816458e-12 1.0574458276e-11 3.0415275704e-12 1.0004366382e-11 9.9196919428e-12 5.2117104199e-12 8.3801627814e-12 5.6380332981e-12 
7.0951365014e-12 9.5219390506e-12 5.6253441726e-12 1.4101925326e-10 1.4921668788e-10 1.3944075585e-11 1.2699773458e-11 8.4753541588e-11 7.0533774484e-11 
1.8394702512e-10 1.2000649432e-10 1.3778395963e-10 3.7382779216e-11 6.0537432506e-11 5.1219612397e-11 2.7226555649e-11 5.3224837249e-11 3.4856018056e-11 
4.4832870269e-11 1.3833461445e-11 3.4886805111e-11 5.9589977684e-11 1.0567990437e-10 1.0504581671e-10 2.5028341324e-11 8.1896773531e-11 1.072125203e-10 
9.1996287256e-11 2.0002670171e-10 9.5475716175e-11 2.9550652874e-11 5.6815785239e-11 4.9774748155e-11 8.9427576671e-11 2.579687064e-11 1.2301050134e-11 
1.101637509e-11 1.74056431e-10 1.4642418364e-10 1.2102107389e-10 1.0575317507e-10 2.1477592902e-11 1.0643685857e-10 5.1010509571e-11 4.2516738598e-11 
3.7222344051e-11 7.8162284895e-12 1.4027471108e-11 3.6883109299e-11 2.1599357799e-11 5.0583943463e-11 3.5325317314e-11 7.9524447692e-11 1.2343793342e-11 
2.1524889729e-11 9.6744771382e-12 9.0900520705e-12 1.1378459631e-11 8.3495119737e-12 7.2229471117e-11 7.837219873e-11 5.9384444539e-12 6.0338891654e-11 
1.795708165e-10 4.0021710323e-11 2.2895921473e-11 1.3802987743e-11 1.2314452511e-10 5.6962116565e-11 4.9590093542e-12 8.9563744276e-11 1.3177401302e-10 
1.3803894811e-10 1.3191333708e-10 3.6237832268e-11 1.2103501631e-10 5.2467582454e-11 1.0576464553e-10 5.423655764e-11 6.5568425115e-11 4.7856652391e-11 
7.2450683459e-11 5.6068201897e-11 5.6897779109e-11 1.7459513513e-11 7.0544382347e-11 9.4334512916e-11 4.412228156e-11 5.193765896e-11 1.0204750822e-10 
5.4454804193e-11 9.8904546654e-11 5.1508107187e-11 1.8489879624e-11 6.9419930518e-11 8.7330579485e-11 1.5867931232e-10 2.1115880618e-11 5.2849717049e-11 
2.1823190591e-10 2.1499606722e-11 1.6107704528e-11 9.1663466252e-11 8.0438937567e-11 1.7374925412e-10 8.6267257785e-12 4.2697763469e-11 1.68683137e-11 
3.4661145259e-11 6.2516762434e-11 1.1223317868e-11 2.4221723993e-11 8.6622308463e-11 1.1503060875e-10 9.6704513142e-12 2.3548439633e-11 4.6048557534e-11 
1.0586759225e-10 8.5376579622e-12 4.0653214925e-11 4.7901572536e-12 6.3485759405e-12 8.3189850611e-12 6.2833393573e-12 6.9069834626e-11 7.5752829025e-12 
5.4937477199e-11 1.1289677439e-10 7.9484104347e-11 5.1188493488e-11 2.1667569205e-11 6.4047419401e-11 4.3762620108e-11 5.7689500823e-12 1.0485278032e-10 
3.3948124173e-11 4.2205517306e-11 5.750768224e-11 1.7623726078e-10 2.8426176047e-11 1.3422790847e-10 1.5814915272e-11 2.5430484532e-11 4.1074797585e-11 
1.8748744986e-11 2.3385150039e-11 4.1460050658e-11 9.7874370326e-11 8.7526200316e-12 6.0492987542e-12 5.3613989354e-12 2.4455040135e-11 6.4052655781e-12 
5.3069440327e-11 3.3578436462e-11 3.5173017118e-11 4.2485277604e-11 8.8764104169e-12 6.9854858635e-11 2.5140822931e-10 1.5135351508e-11 5.8347340913e-11 
6.8418436997e-11 1.6016547073e-10 3.9999949288e-11 1.7473777964e-10 1.1439562635e-11 8.6964054282e-11 5.6665839542e-11 1.1451090126e-10 9.206890716e-11 
4.0071398817e-11 5.6225360456e-11 1.1779466869e-11 7.8166770046e-11 6.2452298202e-11 2.7990447318e-12 5.9038799276e-12 1.0117048087e-10 1.1902107836e-10 
7.5471758816e-12 7.223992973e-12 1.1054975861e-11 1.0626850716e-10 7.3541407537e-12 1.3068722518e-10 0 0 0 
0 0 0 0 0 0 0 0 0 
0 0 0 0 0 0 0 0 0 
0 0 0 0 0 0 0 0 0 
0 0 0 0 0 0 0 0 0 
0 0 0 0 0 0 0 0 0 
0 0 0 0 0 0 0 0 0 
0 0 0 0 0 0 0 0 0 
0 0 0 0 0 0 0 0 0 
0 0 0 0 0 0 0 0 0 
0 0 0 0 0 0 0 0 0 
0 0 0 0 0 0 0 0 0 
0 0 0 0 0 0 0 0 0 
0 0 0 0 0 0 0 0 0 
0 0 0 0 0 0 0 0 0 
0 0 0 0 0 0 0 0 0 
0 0 0 0 0 0 0 0 0 
0 0 0 0 0 0 0 0 0 
0 0 0 0 0 0 0 0 0 
0 0 0 0 0 0 0 0 0 
0 0 0 0 0 0 0 0 0 
0 0 0 0 0 0 0 0 0 
0 0 0 0 0 0 0 0 0 
0 0 0 0 0 0 0 0 0 
0 0 0 0 0 0 0 0 0 
0 0 0 0 0 0 0 0 0 
0 0 0 0 0 0 0 0 0 
0 0 0 0 0 0 0 0 0 
0 0 0 0 0 0 0 0 0 
0 0 0 0 0 0 0 0 0 
0 0 0 0 0 0 0 0 0 
0 0 0 0 0 0 0 0 0 
0 0 0 0 0 0 0 0 0 
0 0 0 0 0 0 0 0 0 
0 0 0 0 0 0 0 0 0 
0 0 0 0 0 0 0 0 0 
0 0 0 0 0 0 0 0 0 
0 0 0 0 0 0 0 0 0 
0 0 0 0 0 0 0 0 0 
0 0 0 0 0 0 0 0 0 
0 0 0 0 0 0 0 0 0 
0 0 0 0 0 0 0 0 0 
0 0 0 0 0 0 0 0 0 
0 0 0 0 0 0 0 0 0 
0 0 0 0 0 0 0 0 0 
0 0 0 0 0 0 0 0 0 
0 0 0 0 0 0 0 0 0 
0 0 0 0 0 0 0 0 0 
0 0 0 0 0 0 0 0 0 
0 0 0 0 0 0 0 0 0 
0 0 0 0 0 0 0 0 0 
0 0 0 0 0 0 0 0 0 
0 0 0 0 0 0 0 0 0 
0 0 0 0 0 0 0 0 0 
0 0 0 0 0 0 0 0 0 
0 0 0 0 0 0 0 0 0 
0 0 0 0 0 0 0 0 0 
0 0 0 0 0 0 0 0 0 
0 0 0 0 0 0 0 0 0 
0 0 0 0 0 0 0 0 0 
0 0 0 0 0 0 0 0 0 
0 0 0 0 0 0 0 0 0 
0 0 0 0 0 0 0 0 0 
0 0 0 0 0 0 0 0 0 
0 0 0 0 0 0 0 0 0 
0 0 0 0 0 0 0 0 0 
0 0 0 0 0 0 0 0 0 
0 0 0 0 0 0 0 0 0 
0 0 0 0 0 0 0 0 0 
0 0 0 0 0 0 0 0 0 
0 0 0 0 0 0 0 0 0 
0 0 0 0 0 0 0 0 0 
0 0 0 0 0 0 0 0 0 
0 0 0 0 0 0 0 0 0 
0 0 0 0 0 0 0 0 0 
0 0 0 0 0 0 0 0 0 
0 0 0 0 0 0 0 0 0 
0 0 0 0 0 0 0 0 0 
0 0 0 0 0 0 0 0 0 
0 0 0 0 0 0 0 0 0 
0 0 0 0 0 0 0 0 0 
0 0 0 0 0 0 0 0 0 
0 0 0 0 0 0 0 0 0 
0 0 0 0 0 0 0 0 0 
0 0 0 0 0 0 0 0 0 
0 0 0 0 0 0 0 0 0 
0 0 0 0 0 0 0 0 0 
0 0 0 0 0 0 0 0 0 
0 0 0 0 0 0 0 0 0 
0 0 0 0 0 0 0 0 0 
0 0 0 0 0 0 0 0 0 
0 0 0 0 0 0 0 0 0 
0 0 0 0 0 0 0 0 0 
0 0 0 0 0 0 0 0 0 
0 0 0 0 0 0 0 0 0 
0 0 0 0 0 0 0 0 0 
0 0 0 0 0 0 0 0 0 
0 0 0 0 0 0 0 0 0 
0 0 0 0 0 0 0 0 0 
0 0 0 0 0 0 0 0 0 
0 0 0 0 0 0 0 0 0 
0 0 0 0 0 0 0 0 0 
0 0 0 0 0 0 0 0 0 
0 0 0 0 0 0 0 2.826870259e-10 4.5187370214e-10 
2.8853599106e-10 2.5349162223e-10 3.3275971635e-10 3.2356460114e-10 7.7000973022e-11 3.2258229125e-10 2.0059730295e-10 1.3520645802e-10 5.1693148334e-10 
4.0955132098e-10 4.5184193409e-10 3.0468864162e-10 2.6807474771e-10 4.1468464644e-10 2.2707405813e-10 3.4157508519e-10 6.9639500553e-10 8.280255491e-10 
3.9708794956e-10 5.5075858969e-10 6.614528187e-10 4.6146098879e-10 3.7730716118e-10 4.5704470412e-10 2.336142861e-10 6.4324011128e-10 5.2134682577e-10 
5.8002280461e-10 2.8941445401e-10 3.6666523548e-10 4.7888097958e-10 4.1032300455e-10 5.0158322434e-10 4.3138139533e-10 1.3777099403e-09 8.7054749745e-10 
5.4629861276e-10 3.6781113957e-10 3.8329870442e-10 4.4620003602e-10 6.4870837682e-10 3.9890006652e-10 8.2753275762e-11 4.3202134871e-10 1.2251675291e-10 
1.9051653818e-10 5.2433449779e-10 2.6547472264e-10 4.8481015803e-10 2.179358681e-10 1.9503944053e-10 4.340842741e-10 1.3064589702e-10 3.3491935586e-10 
3.6678938817e-10 3.7902616638e-10 4.4401591224e-10 7.7996080159e-10 5.786131216e-10 3.9325282077e-10 3.5058168185e-10 3.9057902186e-10 3.2187364099e-10 
2.556376648e-10 2.8896717308e-10 1.9797481621e-10 5.1140643306e-10 6.6316230119e-10 4.6755716839e-10 1.0954798291e-09 3.4772222034e-10 2.6022512846e-10 
2.6732294069e-10 4.676790456e-10 8.1693499739e-10 4.6780598234e-10 2.9596572375e-10 9.3413045325e-10 5.4703332312e-10 5.1294459325e-10 4.8290949443e-10 
6.0160142408e-10 6.1848770894e-10 3.6827567585e-10 9.9240924975e-10 2.0443525651e-10 5.1482700557e-10 2.2612173709e-10 2.2281871863e-10 3.4967528639e-10 
4.1199554321e-10 1.5841782633e-10 2.6324087918e-10 5.8405066343e-10 2.9483858318e-10 3.9435298199e-10 2.2052129229e-10 3.9771104172e-10 1.6272642411e-10 
2.0474791844e-10 6.2796704632e-10 2.4249569254e-10 3.2628863243e-10 4.0337597486e-10 1.3517732595e-10 1.8985618336e-10 1.7319563294e-10 2.3991276515e-10 
2.0134354118e-10 2.0965771997e-10 5.591314308e-10 3.7026331757e-10 1.6475122046e-10 3.0690268393e-10 5.4326392263e-10 3.6955398023e-10 3.9277076055e-10 
1.2289514953e-10 1.7889158226e-10 3.1665763803e-10 5.430102331e-10 2.8099057194e-10 3.7374495532e-10 1.9296639802e-10 2.8937995308e-10 2.30827687e-10 
2.815988963e-10 2.4428123717e-10 3.1470153366e-10 4.2480195773e-10 8.0549449427e-10 3.905774359e-10 1.938823503e-10 3.2810818194e-10 3.5940041567e-10 
8.9619211047e-10 3.3746134593e-10 2.7977100564e-10 5.6257019199e-10 2.0587675919e-10 2.8321683805e-10 4.3550811111e-10 2.198951741e-10 1.4715787934e-10 
4.5183731275e-10 3.709535457e-10 7.0084099136e-10 4.486753475e-10 7.59369299e-10 2.6872625213e-10 3.494080269e-10 1.659724339e-10 4.1792571955e-10 
2.6040845969e-10 1.7306486589e-10 3.606214882e-10 4.8240798187e-10 4.698845321e-10 2.455774201e-10 3.4364482439e-10 8.3743346524e-10 1.353619743e-10 
3.7519648203e-10 3.6366382108e-10 8.6007144542e-10 3.5825152289e-10 4.5905985094e-10 6.1814742074e-10 2.9512093726e-10 4.6604017964e-10 4.8028913841e-10 
3.3917576335e-10 3.4621895188e-10 3.8283330345e-10 4.8113527317e-10 2.0930096867e-10 4.7045080883e-10 3.8873095016e-10 4.1060269201e-10 3.0818552042e-10 
2.503284173e-10 9.3259458337e-10 7.0439770676e-10 2.9117377751e-10 2.2884040867e-10 2.3477276195e-10 1.0631488901e-09 6.8446968587e-10 1.7808328712e-10 
4.0357519607e-10 5.7772238073e-10 3.5264372006e-10 8.5506932718e-11 3.6603443196e-10 2.1273931003e-10 2.6242187321e-10 3.6048652669e-10 1.8491822744e-10 
1.7137953624e-10 3.4624585792e-10 2.3464857826e-10 2.627870235e-10 6.0592515577e-10 4.7612571652e-10 2.2880661807e-10 3.756630681e-10 3.1731810058e-10 
3.8802202845e-10 2.2527842105e-10 2.1496358321e-10 8.7596615016e-10 6.8750369056e-10 4.2271770967e-10 2.5574146521e-10 3.5170625093e-10 2.0566351803e-10 
5.1892844839e-10 5.1226107264e-10 5.550890239e-10 7.4442615849e-10 3.7436708962e-10 1.1539567212e-10 4.3850109772e-10 6.4051964305e-10 4.6906366063e-10 
9.4619237956e-10 8.9489945128e-10 6.4595689759e-10 7.3040576683e-10 7.3522609854e-10 5.0397179074e-10 4.382811434e-10 3.1812397724e-10 1.5402035685e-10 
5.152815096e-10 3.7914897575e-10 2.3924968512e-10 4.8582903888e-10 1.8815879647e-10 2.9055420832e-10 5.5848739891e-10 3.939869001e-10 2.9607530709e-10 
5.7792827086e-10 1.5642345599e-10 4.7788753532e-10 3.5810606876e-10 6.4649359849e-10 2.617607679e-10 1.0059582805e-10 6.4949515538e-10 3.2403353944e-10 
7.4680369439e-10 3.0578703899e-10 4.7818034036e-10 6.0321006264e-10 1.5996806887e-10 5.0626966926e-10 4.3810090017e-10 5.0226876973e-10 6.9859501258e-10 
2.2858184047e-10 2.4828368729e-10 5.9024595385e-10 2.7644123726e-10 6.2705595594e-10 3.5231245627e-10 4.0016288285e-10 4.2766111165e-10 2.6494330592e-10 
4.2889274031e-10 3.2662438588e-10 2.0717740326e-10 2.2536758677e-10 1.1416954089e-09 1.1886329014e-10 5.5380425157e-10 2.0402313769e-10 2.8176861986e-10 
2.760946612e-10 6.4974088693e-10 3.2755408057e-10 4.6381163809e-10 3.5196996372e-10 9.1219240793e-10 2.2793277787e-10 4.3777791546e-10 3.7329094e-10 
3.3948589444e-10 7.0527140561e-10 3.6538133712e-10 5.3064068276e-10 2.1285490695e-10 3.7669838248e-10 1.1895504914e-09 3.6835863197e-10 2.5911731016e-10 
5.2352145888e-10 1.8511863955e-10 3.6548856614e-10 4.0765507447e-10 3.6366017492e-10 6.9424375202e-10 1.3887311408e-10 2.6377594762e-10 2.7986905839e-10 
6.7496004551e-10 3.2822860294e-10 7.0322043517e-10 2.125094164e-10 3.3717691743e-10 3.7150154162e-10 5.2650800993e-10 2.9822344767e-10 4.5507157104e-10 
2.1639634561e-10 3.2424836923e-10 2.7573892151e-10 8.9095366655e-10 6.9553280541e-10 3.2751498204e-10 2.79154214e-10 4.1842620283e-10 5.9541638192e-11 
4.3369459749e-10 5.8205017881e-10 2.1284397643e-10 2.6653116329e-10 1.9717493635e-10 8.790013328e-10 7.018742507e-10 5.7067566491e-10 5.5038042496e-10 
3.723715886e-10 1.8507671843e-10 3.9402089344e-10 3.5842961438e-10 2.8204881164e-10 3.8776351943e-10 2.1472556063e-10 2.3355437519e-10 3.0439577112e-10 
4.3888669078e-10 4.4150657819e-10 3.2313611186e-10 2.3271500652e-10 2.2325865743e-10 2.5320182105e-10 3.5736245536e-10 3.6885148932e-10 4.368991548e-10 
3.9636858847e-10 3.8724247186e-10 3.2535241086e-10 5.5029928931e-10 2.3513615878e-10 6.8450326729e-10 4.6151371861e-10 6.6605237383e-11 4.2556901531e-10 
1.6070945242e-10 4.2224809644e-10 3.3011210062e-10 3.8465704738e-10 3.5506646569e-10 1.5313982256e-10 3.5196970774e-10 3.5551184589e-10 5.0072721813e-10 
2.7174923873e-10 4.2017403985e-10 3.2027109917e-10 2.6333791037e-10 5.2525952809e-10 1.4376551782e-10 1.8228641206e-10 2.7247320161e-10 8.1844506335e-10 
3.0873546043e-10 4.4868800781e-10 5.4427390115e-10 1.5041529817e-09 1.0888253567e-10 2.4387548311e-10 2.8580711464e-10 2.8590537148e-10 2.1851598079e-10 
3.2855159878e-10 4.004603365e-10 3.9370240602e-10 2.7891454305e-10 3.8413094641e-10 2.0970725254e-10 5.3380749677e-10 4.210570812e-10 3.7335682865e-10 
4.8728157809e-10 3.133516869e-10 5.9357892059e-10 3.9283106237e-10 5.104342584e-10 4.0520053673e-10 4.9087068926e-10 4.1638919087e-10 1.8646693869e-10 
3.9253850009e-10 4.1106874002e-10 1.7321310477e-10 6.2853562931e-10 4.4485935265e-10 2.7563201436e-10 1.5295160131e-10 1.954057925e-10 3.1452149624e-10 
2.6612121036e-10 4.0246571751e-10 5.4630325064e-10 1.5437768055e-10 3.372995119e-10 4.1672865969e-10 6.0386726007e-10 2.3404916608e-10 2.8768096511e-10 
4.1174462772e-10 4.0494559968e-10 2.5986623577e-10 5.7046280127e-10 6.3053032472e-10 5.1401103618e-10 3.5780178093e-10 5.5816453171e-10 3.6252080131e-10 
6.5080642114e-10 7.9672240008e-10 8.7196263548e-10 5.5232501621e-10 6.4767862872e-10 4.3356950877e-10 5.3762482977e-10 6.9087238959e-10 1.6887721837e-10 
3.0133315952e-10 1.5245366129e-10 3.6740013672e-10 1.7948379101e-10 2.9225795614e-10 2.0739913078e-10 1.7599517971e-10 3.4737079702e-10 3.0714645387e-10 
2.1064411777e-10 7.2518737737e-10 1.7211386154e-10 1.556900091e-10 7.1748576584e-10 4.7130398287e-10 5.5513498826e-10 3.1438016307e-10 5.7960421835e-10 
7.0213663973e-11 4.5492334259e-10 5.7468406643e-10 6.1920135457e-10 2.3282871915e-10 7.0552270584e-10 5.3009620245e-10 4.7242718872e-10 3.6933613091e-10 
3.2804631978e-10 4.6254614211e-10 3.4024692102e-10 3.62225564e-10 6.1301221699e-10 5.161265624e-10 2.6354199874e-10 6.6446780986e-10 3.814549613e-10 
7.1882351244e-10 5.7447517652e-10 5.1761415822e-10 3.5498377613e-10 6.1020380469e-10 3.0139059126e-10 2.0733028147e-10 6.3515007797e-10 3.5401290961e-10 
2.4246979167e-10 2.7248864741e-10 3.8104239374e-10 2.9174184284e-10 3.8144056113e-10 2.691226786e-10 2.311531973e-10 4.1545154288e-10 3.7704151651e-10 
4.6683080088e-10 4.8625290101e-10 4.2042476807e-10 3.0924008109e-10 2.3397939143e-10 1.8541161537e-10 2.6875537913e-10 1.2359950696e-10 2.6309385461e-10 
4.6723373595e-10 2.7708018272e-10 2.1997286074e-10 3.2061576676e-10 1.2109395713e-10 3.1377017108e-10 3.4469687187e-10 4.1804061412e-10 1.3331372937e-10 
4.0021899749e-10 2.9422701023e-10 4.5645352179e-10 3.3606206919e-10 4.9994163845e-10 3.3444304218e-10 5.6759989913e-10 8.7435799882e-10 7.224696459e-10 
5.0751933487e-10 4.0994250417e-10 5.712228284e-10 2.6343161079e-10 2.3420728407e-10 4.5081952765e-10 1.107313192e-09 1.8135475565e-10 2.6602132435e-10 
7.0006457087e-10 3.2546495756e-10 1.0750167534e-09 2.287476801e-10 5.2945894345e-10 5.6580622885e-10 4.1309253763e-10 5.529988932e-10 4.2803069198e-10 
6.0855612873e-10 4.8966719982e-10 5.0239562262e-10 6.8781435758e-10 3.4017474696e-10 2.2192069673e-10 8.8897580258e-10 1.1613262775e-09 5.2482176748e-10 
6.095201465e-10 4.3334829556e-10 3.5673812302e-10 3.7793498477e-10 4.7234759822e-10 2.5268406495e-10 5.4207836568e-10 3.28138485e-10 1.8999103169e-10 
3.0470091836e-10 3.6534460507e-10 4.3587067903e-10 4.8615689863e-10 4.1916052033e-10 3.4641669783e-10 7.8305418085e-10 1.3816224179e-10 4.8734189631e-10 
5.4404994292e-10 2.5729112382e-10 7.0162970078e-10 2.8940085475e-10 5.7810804115e-10 2.676285854e-10 2.170035316e-10 3.4276816895e-10 5.4591959242e-10 
5.0651872613e-10 8.1324698912e-10 8.5225009767e-10 4.2988062103e-10 5.5311867312e-10 2.9151151856e-10 3.043992933e-10 4.8921489001e-10 2.4911790752e-10 
2.937102419e-10 5.5088320212e-10 2.4655086401e-10 3.3393594483e-10 2.9787593778e-10 2.351779996e-10 4.1364277289e-10 5.2482975677e-10 1.4560326836e-09 
3.3176032563e-10 4.3329189912e-10 1.4018056982e-10 5.0171472974e-10 4.2447803663e-10 5.3075109604e-10 4.052669255e-10 3.3411154637e-10 4.0773392499e-10 
2.071673696e-10 5.3314063718e-10 4.3312520472e-10 3.1957951074e-10 2.3557302485e-10 3.6608936399e-10 8.2910847578e-10 5.3252926602e-10 2.9665958587e-10 
4.2658731616e-10 4.6333216772e-10 1.5040198759e-10 4.9021147125e-10 3.1680356201e-10 5.3043176848e-10 3.238441374e-10 9.0798329293e-10 2.9769153492e-10 
4.2949641695e-10 2.09750409e-10 4.7078874209e-10 5.8028933884e-10 6.9919133689e-10 2.6302725565e-10 2.7091628811e-10 5.5072665947e-10 4.88795981e-10 
4.0558353189e-10 1.4986022124e-10 2.5507114785e-10 1.5902912229e-10 1.3510487269e-10 3.9747413666e-10 2.8334130854e-10 4.3933811066e-10 2.9207906387e-10 
3.887189221e-10 2.2818018036e-10 1.6639961879e-10 3.1438702649e-10 1.7250252111e-10 3.9144534955e-10 5.3086703743e-10 5.1152175456e-10 5.3026615983e-10 
3.3419532997e-10 3.9505328262e-10 7.3339281175e-11 1.8034781802e-10 1.4966864755e-10 6.7920109799e-10 2.0526880409e-10 2.7257568729e-10 1.7310155211e-10 
3.547653338e-10 1.9917547899e-10 6.6824557295e-10 3.0536835355e-10 7.3280910427e-10 2.4154661788e-10 3.7350546792e-10 2.4269193776e-10 3.4827497503e-10 
2.9758354849e-10 6.0461837769e-10 3.9313085005e-10 3.0331724554e-10 3.1822084696e-10 1.9956622724e-10 2.9879651316e-10 2.3794750403e-10 3.1063018776e-10 
1.7717884313e-10 3.7291230505e-10 4.3292386231e-10 9.2678276731e-10 3.3453496979e-10 4.1030979641e-10 2.0964736329e-10 2.363080854e-10 7.4181064501e-10 
2.6241439873e-10 2.4352385214e-10 3.6977303967e-10 2.9861329079e-10 3.5512013054e-10 9.7597049003e-11 4.1431938642e-10 2.5272906112e-10 2.6580425074e-10 
3.23812199e-10 3.1297434858e-10 2.9038172482e-10 1.2820769937e-10 3.376132607e-10 3.8200390694e-10 4.1596691412e-10 3.626070881e-10 1.0323376787e-09 
3.7925781026e-10 2.3336508586e-10 6.0181226297e-10 4.9852118395e-10 5.391614778e-10 4.3438268671e-10 3.8281680093e-10 2.7661019058e-10 3.4109531002e-10 
3.541751131e-10 8.6138753316e-10 3.3167208485e-10 4.2750070949e-10 4.1837820148e-10 2.9469324362e-10 1.8764622754e-10 3.5820626967e-10 7.6085923603e-10 
2.2365886396e-10 3.2027788599e-10 1.6747714777e-10 5.5719776305e-10 5.9430959093e-10 4.12500376e-10 4.2348794311e-10 3.669991467e-10 3.4419518295e-10 
3.064386022e-10 6.7915819279e-10 4.9538106976e-10 1.4854566043e-10 6.7540128802e-10 3.572604897e-10 3.6392642352e-10 2.1205327007e-10 4.804150551e-10 
4.963617197e-10 2.4153259609e-10 6.8308842936e-10 5.6882539747e-10 4.7622505766e-10 4.5857883323e-10 4.3448250188e-10 3.7687980925e-10 3.1794162375e-10 
8.117856688e-10 4.430285313e-10 4.1082388295e-10 1.5330685979e-10 1.6734268994e-10 3.0100555087e-10 7.9867875705e-10 4.6456405824e-10 7.8927965279e-10 
4.3406669964e-10 1.8041469395e-10 3.8454819932e-10 7.1055830574e-10 6.4904554077e-10 3.1844423998e-10 1.5868884657e-10 4.6221068368e-10 4.29331345e-10 
3.8207921698e-10 4.9154350723e-10 3.0731647323e-10 1.2298760939e-10 2.3968181997e-10 2.1341197708e-10 3.0931579325e-10 5.4376547493e-10 4.4730347049e-10 
3.437394915e-10 2.4945016925e-10 5.37913167e-10 2.4241528084e-10 2.3954002043e-10 5.7260751658e-10 5.5020010913e-10 9.0746677073e-10 6.9310653034e-10 
3.55168298e-10 5.4895604526e-10 5.6747080308e-10 2.6170530266e-10 3.4087923777e-10 4.6184530398e-10 2.5902235703e-10 3.6701724769e-10 2.2509146509e-10 
4.4265491579e-10 2.436536615e-10 1.8741241546e-10 4.0675000287e-10 3.6180544398e-10 2.7654728378e-10 3.5558985644e-10 3.5532367312e-10 4.1911470247e-10 
3.2033348115e-10 3.9799898136e-10 3.9423492388e-10 3.8114012017e-10 2.4951841274e-10 4.804181145e-10 4.7533960373e-10 3.2740707672e-10 5.5221102795e-10 
5.9593034764e-10 4.8855226225e-10 4.5520299439e-10 1.9475013707e-10 4.1760729528e-10 2.6624698562e-10 4.6387552627e-10 3.8365640918e-10 3.1830136315e-10 
3.218350683e-10 5.2105561565e-10 5.8393288314e-10 3.9809290995e-10 3.6905630984e-10 3.2305955197e-10 4.429461203e-10 3.9481926399e-10 3.4877443413e-10 
4.8143493211e-10 3.918073804e-10 2.5195596962e-10 3.6457765981e-10 2.788240567e-10 3.3456790901e-10 1.037052074e-10 2.0810477283e-10 2.8741928951e-10 
6.6399434145e-10 2.4675778453e-10 3.5091175834e-10 7.9401841681e-10 8.8214483688e-10 1.0148923855e-09 4.7213837668e-10 6.1546512049e-10 2.8642874456e-10 
5.029681334e-10 3.676848234e-10 4.4583958063e-10 1.7061657354e-10 6.6745765267e-10 5.0935937948e-10 2.9779137022e-10 3.2979231087e-10 1.9110483332e-10 
2.8809923145e-10 2.8315091025e-10 3.3002061345e-10 5.7237883349e-10 2.3501349303e-10 4.563780415e-10 3.3482964678e-10 6.0608457411e-10 4.1981991946e-10 
4.8876268353e-10 3.1750925227e-10 5.0679712483e-10 2.5421588367e-10 8.7860937571e-10 2.9471423157e-10 3.9505649793e-10 2.9833303593e-10 3.3972003191e-10 
5.0479213655e-10 7.6493408745e-10 7.0494994408e-10 5.497768763e-10 4.5376111957e-10 4.4240713188e-10 3.5719358652e-10 3.8664106991e-10 3.72812946e-10 
5.0475848184e-10 2.7697038022e-10 6.2036901726e-10 5.8379424874e-10 3.5750772955e-10 4.9668436149e-10 2.164407807e-10 1.7727598366e-10 6.8804047322e-10 
3.8799142861e-10 1.9075453391e-10 3.5894016032e-10 6.9395179144e-10 2.2112077992e-10 1.1742568755e-10 4.1106015091e-10 4.9507472838e-10 4.7802895209e-10 
4.3781126601e-10 1.1278259259e-09 1.5788985752e-10 3.325368179e-10 4.6479724777e-10 5.7825805286e-10 3.2019185793e-10 2.1050653771e-10 2.8774266759e-10 
4.1694730154e-10 2.8781634715e-10 1.9370641922e-10 2.6631958404e-10 2.9795510567e-10 2.2281600109e-10 6.6036265245e-10 3.0579542698e-10 3.8176265504e-10 
4.0804198253e-10 2.9676300719e-10 2.5574113728e-10 2.2246830616e-10 5.7904767569e-10 2.3608286526e-10 4.9547161992e-10 4.4311553261e-10 4.7552750214e-10 
3.6837427385e-10 6.7906343091e-10 4.4074246291e-10 2.889661937e-10 7.4847972202e-10 5.8950557198e-10 2.9436304836e-10 4.8530829425e-10 1.0796816248e-10 
2.5119744075e-10 1.3499477841e-10 2.3046775249e-10 3.2207157619e-10 2.3983121248e-10 3.0135642977e-10 2.8550197121e-10 3.8914789387e-10 2.992440926e-10 
3.3344961028e-10 4.9084050996e-10 1.1529655208e-10 2.9302321492e-10 2.13952185e-10 5.9624775904e-10 4.6520508402e-10 4.6604187326e-10 3.5339918942e-10 
3.2349922071e-10 3.702005846e-10 3.071219435e-10 6.1659712302e-10 2.8435223985e-10 2.5110141946e-10 5.9607644675e-10 3.0083766435e-10 4.8118310503e-10 
3.1397779015e-10 2.046624514e-10 7.3156809286e-10 5.3096583454e-10 1.2970245596e-09 3.5760058726e-10 2.9444921908e-10 3.5138790227e-10 6.1457516134e-10 
3.4223912892e-10 5.5124377424e-10 2.9096400209e-10 3.5881891365e-10 1.8175700311e-10 2.6241395807e-10 3.2495830975e-10 4.1689774171e-10 2.9973615209e-10 
2.4317446528e-10 3.3471807507e-10 5.3796295734e-10 2.5846575589e-10 1.1308439834e-10 1.4551463137e-10 2.4430019233e-10 2.4403355606e-10 2.6926579013e-10 
2.886693762e-10 2.9859385437e-10 3.0974570919e-10 4.1610305442e-10 3.411717992e-10 4.4165640155e-10 4.2931070175e-10 5.5417793184e-10 2.7761849376e-10 
2.4999069556e-10 4.9750048152e-10 3.4049593208e-10 2.1496883344e-10 7.2785057587e-10 2.2563617397e-10 9.8757465483e-10 1.9646746897e-10 9.6765086773e-10 
3.5165287689e-10 6.9779791437e-10 3.0184835979e-10 4.196754137e-10 4.032081023e-10 6.4690906161e-10 2.3749349972e-10 4.5893168258e-10 4.126461113e-10 
2.7833424744e-10 5.5857474549e-10 4.5886828918e-10 1.5023655863e-10 1.7988634767e-10 3.122688006e-10 3.0099307786e-10 1.6003491148e-10 1.7736728171e-10 
3.2373214747e-10 5.4562350929e-10 5.1051719839e-10 2.6204704289e-10 3.649021648e-10 9.6918808339e-10 3.5048488172e-10 3.4150467808e-10 4.9348306594e-10 
5.2144511763e-10 6.0926371785e-10 5.168205632e-10 4.7753805722e-10 7.776836965e-10 3.429800526e-10 2.3262646583e-10 4.0855050659e-10 3.5329743012e-10 
5.682552558e-10 7.3676179506e-10 1.9888159268e-10 4.6147194113e-10 5.5654171457e-10 6.6725201155e-10 3.5791460868e-10 2.600095203e-10 2.5423566518e-10 
3.0389998059e-10 2.8802136424e-10 4.1070648599e-10 2.3750850611e-10 4.7115404041e-10 2.7690582091e-10 7.9856683173e-10 6.3164369228e-10 3.5037914058e-10 
8.534129856e-10 2.0419382437e-10 2.4893160863e-10 3.0146888721e-10 5.1235838982e-10 1.5005441698e-10 5.6558063523e-10 2.3112191315e-10 4.5757456249e-10 
3.3543507735e-10 5.0427482183e-10 1.1950270175e-10 1.8810222104e-10 2.7030410483e-10 2.2960849545e-10 2.4520670061e-10 1.8752169088e-10 5.8192789132e-10 
3.7711977331e-10 2.9535591934e-10 4.0230235334e-10 2.0199008225e-10 7.2529364477e-10 9.4814205565e-10 5.2554925613e-10 3.2965973506e-10 3.5283923959e-10 
4.6566460763e-10 1.5890181688e-10 3.2947414048e-10 3.5266071079e-10 4.5821459345e-10 2.8430192629e-10 3.3199617099e-10 3.0288962301e-10 1.7042576668e-10 
1.6768062906e-10 1.523770066e-10 1.6347129141e-10 3.0554219736e-10 2.8284317486e-10 4.6531288675e-10 3.8460915964e-10 2.0165954009e-10 2.4282853869e-10 
2.304457205e-10 1.7210012778e-10 2.6041748969e-10 2.7133779324e-10 2.8969466271e-10 1.766044277e-10 3.297059389e-10 4.5499925481e-10 2.9173350984e-10 
5.1487018682e-10 4.5055918599e-10 4.6637197498e-10 5.517472665e-10 3.7460772365e-10 2.494250926e-10 2.6780603023e-10 6.5584258993e-10 4.750065586e-10 
4.9572599072e-10 4.0109799045e-10 5.5326565945e-10 1.9847147333e-10 1.7476523711e-10 4.6718680498e-10 3.7723813687e-10 5.7292545805e-10 1.5685499975e-10 
5.3478525885e-10 5.3526902792e-10 5.998810774e-10 3.1881091113e-10 3.092227003e-10 4.8683426362e-10 2.9418375817e-10 4.047532999e-10 5.0291442381e-10 
4.5972077054e-10 4.7078880929e-10 3.6895848685e-10 5.8392193479e-10 6.4893175682e-10 8.3903623111e-10 4.3394690361e-10 5.2248197289e-10 3.7317778702e-10 
4.530263971e-10 3.4507691832e-10 7.7031436665e-10 4.6555919201e-10 6.8729647828e-10 9.1176481585e-10 2.7111620007e-10 2.9374626125e-10 8.2442150549e-10 
2.0070494124e-10 3.510981971e-10 8.0386348918e-10 4.9081277551e-10 1.2197581954e-09 1.0219134277e-09 4.2486373282e-10 3.1821784727e-10 4.6594590523e-10 
5.0650272046e-10 3.7017906663e-10 5.4890652077e-10 5.9291287572e-10 7.861612923e-10 8.7159221678e-10 5.3754155855e-10 8.6688107195e-10 1.0637595674e-09 
7.5898931905e-10 6.9623477666e-10 3.560212448e-10 1.0763971945e-09 1.3061494675e-09 8.1871574022e-10 1.1594256059e-09 1.7050589726e-09 9.2092228223e-10 
9.296860636e-10 6.4146021381e-10 5.4807549475e-10 6.7200314202e-10 7.429187351e-10 4.5242854255e-10 9.0112989254e-10 3.9146469958e-10 7.4504868316e-11 
7.8136288377e-10 7.2097176422e-10 5.32840276e-10 7.1795270921e-10 4.912307228e-10 5.1860638973e-10 3.7379726176e-10 2.3318420339e-10 2.9842879147e-10 
2.4917445441e-10 2.174995392e-10 2.3319671188e-10 5.7418778527e-10 2.8407022257e-10 2.5060754286e-10 2.9715362596e-10 1.6636807922e-10 1.7711249055e-10 
2.554196462e-10 3.3428298393e-10 2.5841481198e-10 3.1575102671e-10 2.1944279385e-10 2.5568765277e-10 3.4138554939e-10 7.5932273239e-10 2.2735743909e-10 
3.7682652306e-10 4.6935365635e-10 4.1604427193e-10 1.7042969133e-10 1.2563762067e-09 3.7767887285e-10 3.4190095204e-10 3.3088574118e-10 3.2945338198e-10 
2.4765241441e-10 2.6579447173e-10 2.8331100446e-10 5.4765800892e-10 4.7893882219e-10 1.5599237563e-09 2.9313979082e-10 2.506440906e-10 7.5699585343e-10 
3.7394861184e-10 1.4140539108e-09 4.1117094138e-10 4.092419499e-10 4.7419683858e-10 5.2791291074e-10 1.9448931197e-10 1.6704067342e-10 4.6782617885e-10 
3.3242306269e-10 3.2518602904e-10 6.0515657399e-10 5.6682142416e-10 5.2787940281e-10 2.5057349462e-10 3.4567635234e-10 2.1608615807e-10 4.5646611829e-10 
4.8123784325e-10 2.684090159e-10 6.5706251019e-10 3.1594663972e-10 3.3858824057e-10 3.7759000426e-10 3.8136927087e-10 2.5884999844e-10 3.9272680891e-10 
2.6772705136e-10 3.6615107278e-10 5.7339012143e-10 2.7536100185e-10 2.8243605302e-10 4.2526902089e-10 1.0836723321e-10 2.7597510928e-10 2.012911904e-10 
3.3032251136e-10 2.5710908968e-10 2.2391181938e-10 2.4039800857e-10 3.1714794741e-10 1.8566625762e-10 3.63652721e-10 4.8761501944e-10 2.627991926e-10 
1.4791372335e-10 6.1469893739e-10 1.9438237976e-10 2.6948580181e-10 2.7604692864e-10 3.1918390062e-10 4.167099279e-10 4.4362853466e-10 3.9878988881e-10 
4.3127416964e-10 9.3110042932e-11 5.1638533113e-10 6.9275376607e-10 5.2504830554e-10 3.4629324612e-10 7.6913952951e-10 6.0796966675e-10 9.8706392009e-10 
3.7548365962e-10 4.8010594275e-10 2.6631829921e-10 6.5584249288e-10 8.6460299144e-10 3.5247235201e-10 1.9201928131e-10 1.7771907544e-10 1.8923596036e-10 
3.1296965388e-10 4.4047205028e-10 4.329811537e-10 3.2141541324e-10 2.3137903018e-10 2.6025128429e-10 3.8362784963e-10 2.2978000827e-10 6.2987095521e-10 
5.2796441367e-10 2.5595718498e-10 6.2950873568e-10 7.4563142299e-10 3.5082358921e-10 2.6916000891e-10 4.303560398e-10 2.108729738e-10 7.6012753022e-10 
8.1683961071e-10 1.9205809848e-10 7.863430468e-10 5.9090665453e-10 2.289489758e-10 4.6958037238e-10 1.9125775578e-10 4.4392438419e-10 3.9592381088e-10 
3.8655766947e-10 7.9894669421e-10 3.2039784786e-10 3.0113824782e-10 4.555343161e-10 9.8551334996e-10 5.30396739e-10 2.9872712115e-10 3.607178438e-10 
5.2072497262e-10 7.2020543476e-10 2.6233223041e-10 3.6548524153e-10 4.5733610393e-10 4.011194562e-10 6.2614003111e-10 3.2902558224e-10 3.7283842784e-10 
4.5440079853e-10 2.4957462828e-10 3.0569170669e-10 2.7248217713e-10 2.4801871971e-10 4.5118013618e-10 4.6615246314e-10 4.2320973089e-10 4.1002608399e-10 
1.8686503722e-10 1.9696621365e-10 4.8448906004e-10 3.8369130855e-10 1.9790878601e-10 1.7811024681e-10 3.2272960748e-10 2.6984308042e-10 4.1479621264e-10 
1.6836766787e-10 4.9394902897e-10 3.0625029403e-10 2.8519354146e-10 5.0295459979e-10 1.7670426364e-10 2.6682430174e-10 3.0744049787e-10 3.3772766519e-10 
3.25299797e-10 3.4693891175e-10 3.2472891429e-10 6.1227484472e-10 2.8386947135e-10 3.941397785e-10 4.2518955008e-10 7.4724601257e-10 2.1510789433e-10 
3.9639095061e-10 6.4747491122e-10 7.3169962927e-10 2.3136606174e-10 2.9950142959e-10 6.7355890977e-10 3.2866925612e-10 3.0274940884e-10 4.9596527873e-10 
3.0864790215e-10 2.7784762989e-10 1.8914628403e-10 4.860169319e-10 3.1538761768e-10 3.1935068667e-10 4.5505598022e-10 2.7622196927e-10 2.475076814e-10 
2.6073970027e-10 4.0419951803e-10 1.6600269535e-10 2.4234152337e-10 4.6827637154e-10 2.1732201409e-10 2.985387839e-10 5.6684295027e-10 2.2779159848e-10 
6.8185122626e-10 1.818385767e-10 2.5303826849e-10 5.3987284741e-10 5.3691808546e-10 2.0175565513e-10 8.5653985703e-10 3.1138719469e-10 3.6274239931e-10 
3.6648770899e-10 3.8809770444e-10 2.8431899731e-10 2.6671120344e-10 2.3929908105e-10 2.2370200172e-10 2.7640264569e-10 1.7752584676e-10 2.6377950965e-10 
4.5794975246e-10 3.0468021204e-10 2.2901022173e-10 1.5087032238e-10 1.670399196e-10 2.2474771143e-10 2.7487459904e-10 1.7322619e-10 2.4048253261e-10 
1.7950754437e-10 3.3498588338e-10 2.5218770467e-10 2.6576621113e-10 5.5014644146e-10 2.6312956328e-10 2.1582423376e-10 5.490535587e-10 4.7117323903e-10 
2.1822604081e-10 2.2810817288e-10 5.0799030203e-10 4.869866163e-10 3.764505598e-10 1.650743131e-10 3.7996120382e-10 3.1188592614e-10 9.8542450303e-11 
9.2958868982e-10 8.2751271877e-10 3.887424147e-10 3.3179932186e-10 2.0404663518e-10 4.015683007e-10 2.0477825507e-10 3.2260106139e-10 4.715155774e-10 
1.8196329815e-10 1.1992166972e-09 2.1530590789e-10 1.8160925617e-10 1.7862142987e-10 4.2027764821e-10 4.5595811693e-10 2.1988703212e-10 1.5117077424e-10 
2.5865000988e-10 6.3563992734e-10 2.7162464777e-10 4.1301899749e-10 3.298702106e-10 4.968025804e-10 4.357552535e-10 3.3541779148e-10 4.2506995103e-10 
4.691482876e-10 2.1515227817e-10 2.6799620114e-10 5.4840818789e-10 3.2491006486e-10 3.1393381466e-10 4.4570401183e-10 3.2124391001e-10 5.2351901565e-11 
5.7109126175e-10 1.702076214e-10 4.2281389518e-10 2.9575007166e-10 6.4910638701e-10 3.4955899937e-10 6.5372545722e-10 2.9310565041e-10 2.1760210682e-10 
8.2109295056e-10 8.3440994178e-11 4.1231723281e-10 4.5190766401e-10 1.7867255572e-10 6.006741275e-10 2.5727128804e-10 3.1666384335e-10 4.0752815399e-10 
4.4248499659e-10 8.7207187139e-10 2.8146458608e-10 3.9870886179e-10 2.5004343946e-10 2.4229115168e-10 3.7245639735e-10 2.2149667701e-10 2.3251111321e-10 
4.0777523985e-10 3.261657108e-10 3.4904385741e-10 3.9116838284e-10 3.2050624718e-10 3.0165841058e-10 1.9303343571e-10 4.6296462026e-10 4.7077597438e-10 
2.3761688581e-10 1.3119338279e-10 2.4789808322e-10 2.7060917669e-10 2.2301172161e-10 2.9647455503e-10 1.905504689e-10 3.7402198728e-10 2.2705273925e-10 
7.0358247331e-10 2.9293612527e-10 3.5017402627e-10 5.7597424563e-10 2.0344775214e-10 2.2644645507e-10 5.8544694693e-10 5.6130062343e-10 3.369709164e-10 
1.6911675277e-10 3.8938577145e-10 2.6117334147e-10 3.914529557e-10 9.8831607563e-10 5.1416343165e-10 3.4720263577e-10 5.186195705e-10 7.1747814073e-10 
1.833169553e-10 2.939864247e-10 4.9604225137e-10 2.4282086407e-10 4.6141291401e-10 1.8112322309e-10 4.1574347101e-10 1.6101909782e-10 4.6595719742e-10 
2.7977209169e-10 2.8914515232e-10 5.9323236933e-10 5.3845281814e-10 2.4727732828e-10 3.843668826e-10 3.5265313374e-10 4.856357048e-10 7.5916198739e-11 
2.7566083387e-10 3.3752970885e-10 2.9606653414e-10 5.6970751825e-10 2.161575178e-10 1.8124657236e-10 6.3713962418e-10 3.9599365999e-10 2.8757597538e-10 
4.2860770272e-10 5.1746513123e-10 4.2857798115e-10 5.9124776649e-10 6.6060681788e-10 3.94530356e-10 8.1255702902e-10 3.2041286957e-10 3.9136357444e-10 
1.6466926381e-10 2.442541379e-10 5.1659000678e-10 3.6206335082e-10 4.4485120845e-10 7.8272009473e-10 2.4148374131e-10 7.7520006805e-10 3.6714083179e-10 
3.0629892253e-10 6.946456942e-10 2.2036510838e-10 2.4163822447e-10 9.8453984562e-10 2.541138939e-10 3.0912314337e-10 4.0942937376e-10 3.9579403541e-10 
3.7837232048e-10 1.521077845e-10 4.9855995727e-10 5.0927009081e-10 4.4193008109e-10 3.2253373257e-10 3.310553423e-10 2.4604228851e-10 3.4174516098e-10 
4.0624324149e-10 4.4948806159e-10 3.9316275593e-10 2.4006127697e-10 3.508589674e-10 2.641393605e-10 1.8631318393e-10 4.0484643495e-10 5.2698850563e-10 
4.8361823164e-10 2.1341086557e-10 6.4938202227e-10 3.549953881e-10 1.1488251569e-10 5.7121537017e-10 7.4488946841e-10 7.8045258697e-10 3.0699830447e-10 
1.091064942e-09 5.0172955546e-11 3.3018455618e-10 2.0288868329e-10 4.3551531585e-10 1.8114330922e-10 3.8283076103e-10 7.790712941e-10 2.0406014583e-10 
6.1875810684e-10 3.3688816755e-10 3.4311005783e-10 5.7276853326e-10 5.3735153584e-10 3.0144734195e-10 4.2773735706e-10 6.8773988632e-10 1.9318700844e-10 
3.1145150819e-10 4.1332412094e-10 4.8245603384e-10 1.8422347829e-10 2.9467346436e-10 2.8565595179e-10 3.0653173242e-10 4.3208617695e-10 2.4222218276e-10 
1.9574949164e-10 3.9157569657e-10 3.6402666565e-10 2.7566138119e-10 6.2044861168e-10 2.2966398791e-10 3.1594438157e-10 1.4440253281e-10 4.0653166141e-10 
5.7298667283e-10 8.9366235852e-10 5.5400731053e-10 5.066366132e-10 5.459521298e-10 1.8181033555e-10 3.7580698173e-10 3.3604969409e-10 2.1905385827e-10 
3.2293688048e-10 1.9036605738e-10 3.8564661081e-10 4.3576093164e-10 4.3235604143e-10 2.4014478829e-10 3.0013735934e-10 2.4659439785e-10 2.98169071e-10 
4.4772007877e-10 5.9348212259e-10 2.734636629e-10 3.6461513326e-10 5.249319944e-10 3.9754739861e-10 3.689946651e-10 6.3588720423e-10 2.3899678673e-10 
1.4981091691e-10 4.5817852472e-10 6.2251544306e-10 6.8667700061e-10 2.3920986879e-10 2.9027203332e-10 3.8159842624e-10 3.680238568e-10 6.2210785369e-10 
2.7753493917e-10 2.8883875844e-10 3.2421178642e-10 5.299009195e-10 2.4747364146e-10 2.2214007148e-10 4.13396152e-10 3.7118480281e-10 3.6897389799e-10 
1.1546908049e-10 3.1776368979e-10 2.0556346704e-10 3.9847887446e-10 1.1140676938e-10 3.1609255199e-10 2.0294076241e-10 5.1862612061e-10 3.2684350403e-10 
3.9862378295e-10 3.6065348774e-10 3.1878417864e-10 4.7547155229e-10 3.7757514324e-10 1.8918208202e-10 5.1469051683e-10 4.8551594055e-10 1.8184651109e-10 
7.9348440501e-10 1.5105536329e-10 2.79582292e-10 5.9127621712e-10 7.3125066282e-10 1.7015444795e-10 3.8063892205e-10 6.7745548025e-10 4.9668205764e-10 
3.6288143959e-10 1.6814265756e-10 6.605984667e-10 6.6372520589e-10 2.5666595775e-10 3.5643117142e-10 1.7147420926e-10 2.2279771945e-10 2.7025070202e-10 
4.1837496617e-10 4.3166502937e-10 3.416758553e-10 4.149206974e-10 2.3086939069e-10 1.9505450999e-10 5.9575860174e-10 3.0818569516e-10 1.6873402786e-10 
9.3895890629e-10 7.7639936707e-10 2.3459051815e-10 4.8756739929e-10 5.1313425491e-10 3.4788820294e-10 2.0827090428e-10 4.7284052469e-10 3.5694380359e-10 
2.9719590953e-10 4.3889813661e-10 2.583283304e-10 3.2051956026e-10 4.3778771995e-10 6.2823644968e-10 3.9440026177e-10 8.7337896853e-10 6.2224255871e-10 
9.0838005123e-10 4.8993966376e-10 5.1202561581e-10 3.8850992713e-10 1.9607001797e-10 4.0759614348e-10 3.9480363739e-10 4.7565852119e-10 6.4908367361e-10 
3.5725484095e-10 1.5420647069e-10 1.4385017611e-10 3.8627707604e-10 2.9332156291e-10 4.8367573518e-10 2.0463320595e-10 2.996405015e-10 5.4513557642e-10 
2.4940651503e-10 4.9614890687e-10 5.0082117034e-10 1.8427877442e-10 6.3465724411e-10 2.2743479352e-10 3.0310120381e-10 4.7357746502e-10 5.2240004541e-10 
2.6843941981e-10 6.3961157013e-10 1.0642697741e-09 2.3573583628e-10 3.5813768171e-10 2.0571276948e-10 7.9060395106e-10 1.8534094632e-10 5.5887835625e-10 
1.3251757258e-10 5.260090621e-10 7.679965697e-10 2.6904031064e-10 2.9640380519e-10 5.8560437216e-10 3.4638804591e-10 8.676452114e-10 2.28541144e-10 
6.5678914822e-10 4.95601232e-10 5.5184632674e-10 6.3936481647e-10 3.7939034766e-10 7.1956516813e-11 3.6333216442e-10 3.5872104645e-10 4.5010117595e-10 
3.8027586293e-10 2.8078882022e-10 1.6697568705e-10 2.6790876099e-10 3.7082106734e-10 2.3937538936e-10 2.2720213555e-10 1.935511402e-10 3.8219578842e-10 
2.0958133101e-10 1.7476882236e-10 8.6607510378e-11 2.3573044418e-10 3.1757694953e-10 5.6313773793e-10 1.6730747397e-10 4.5513618228e-10 4.3863321774e-10 
4.1130490586e-10 4.3632583727e-10 5.2454705048e-10 1.9408619975e-10 6.193399994e-10 8.3057201241e-10 2.9093363694e-10 3.6334998827e-10 2.5796945614e-10 
8.6138255353e-10 3.915119811e-10 1.4527890654e-10 3.0575585751e-10 4.5122122144e-10 2.9399936765e-10 4.6888653764e-10 6.9954971645e-10 4.4348189746e-10 
2.890214549e-10 3.2385999143e-10 3.0806522123e-10 6.6611808951e-10 4.1534002123e-10 3.2848323245e-10 3.1689849776e-10 3.8803340996e-10 3.0580562432e-10 
1.2789440338e-10 2.8946460538e-10 1.7146585561e-10 2.9539648845e-10 5.0680304028e-10 2.376265777e-10 2.5664986475e-10 3.9922530772e-10 4.6478623623e-10 
2.983335731e-10 4.5063766165e-10 2.7300012427e-10 4.1584820625e-10 8.0125318791e-10 4.6316895127e-10 1.0771334321e-09 3.0312870353e-10 2.3450510447e-10 
5.1211850171e-10 3.1012611563e-10 3.1116484484e-10 2.2217462698e-10 3.4846152023e-10 8.2034259672e-10 5.8496756926e-10 4.0826735434e-10 6.3442267487e-10 
1.2332793712e-10 6.1778807077e-10 3.150027035e-10 5.877508738e-10 1.583984985e-10 2.7623695181e-10 2.9130121344e-10 7.6708346909e-10 4.059542545e-10 
7.6686748915e-10 3.2519430076e-10 7.0729264578e-10 3.897042106e-10 5.2031233183e-10 4.4842228692e-10 6.8036696001e-10 3.0052786617e-10 3.3030347965e-10 
2.9287736301e-10 4.1528847797e-10 3.7839423065e-10 4.3633644794e-10 1.5131859294e-10 4.2373465498e-10 3.9198109263e-10 3.6734561001e-10 2.6032962688e-10 
7.117558681e-10 3.712317551e-10 2.2799612494e-10 3.1045137154e-10 3.623684528e-10 5.3080508965e-10 6.6901627602e-10 2.3196251011e-10 9.3659732216e-10 
4.7554105575e-10 4.1976449982e-10 3.0660292985e-10 4.7043869397e-10 2.8369707199e-10 4.2395590569e-10 2.0475415432e-10 3.6617202434e-10 2.6693065555e-10 
6.2005558603e-10 2.3493537337e-10 1.0788440851e-09 2.0498129836e-10 3.2754055344e-10 2.3981325626e-10 1.0102578869e-09 4.6014571464e-10 5.4500924297e-10 
5.0910043431e-10 2.9033387486e-10 4.5447008257e-10 2.5238346624e-10 3.5297623272e-10 1.5181745426e-10 4.1884419438e-10 3.1485692033e-10 3.5210371311e-10 
1.9510897437e-10 5.3059837162e-10 1.7117552533e-10 5.0473361897e-10 3.0447350325e-10 2.1564789574e-10 3.4108708385e-10 2.1203078383e-10 2.962259764e-10 
5.682481667e-10 1.3297127847e-10 3.0671410673e-10 6.4373034585e-10 4.3817503894e-10 3.4818057599e-10 1.011667451e-09 4.8203597231e-10 4.8804052561e-10 
5.9263911554e-10 3.7265582247e-10 5.4644653402e-10 7.4142659972e-10 5.5135525505e-10 1.6544168919e-10 3.6798515765e-10 3.3219375883e-10 8.4075544709e-10 
3.4609650347e-10 8.2507745254e-10 3.3224585052e-10 7.9722467357e-10 1.10489142e-09 8.0113009746e-10 1.4421698211e-10 3.6707411964e-10 5.4223974689e-10 
4.4701439345e-10 3.2429581951e-10 2.9470835956e-10 3.3309173779e-10 2.2030679837e-10 2.2938204521e-10 1.8447880515e-10 1.9813681387e-10 5.165443518e-10 
1.4064914822e-10 3.2144680797e-10 4.5013213954e-10 3.2145018402e-10 1.6583434996e-10 4.6998957789e-10 4.0305524042e-10 3.9305947698e-10 3.5015484354e-10 
5.7323011893e-10 3.8092153218e-10 5.368061202e-10 2.8481808667e-10 4.0650716885e-10 4.7747107173e-10 3.1549883828e-10 3.8482836406e-10 3.7960692848e-10 
4.7740840393e-10 2.5607678608e-10 5.8077390277e-10 6.4194518481e-10 5.4690053822e-10 2.8549286748e-10 5.0989639664e-10 7.3285019451e-10 2.5286041628e-10 
2.6283531284e-10 2.3939129963e-10 3.0808300657e-10 5.6155902277e-10 1.9293860343e-10 3.8042283493e-10 3.2706715055e-10 5.2676274967e-10 4.0457860089e-10 
6.4056953914e-10 3.1916467803e-10 1.8695660202e-10 7.8708991984e-10 2.7998631933e-10 2.5872449778e-10 4.327646466e-10 2.4388457494e-10 3.994517476e-10 
4.801513694e-10 2.4777703103e-10 4.2905007741e-11 2.7553289595e-10 4.2889103619e-10 3.7373049295e-10 2.8942754286e-10 4.6977875519e-10 4.8925328733e-10 
2.9650524509e-10 4.2441044261e-10 5.5827469145e-10 2.0008713428e-10 3.2261543903e-10 2.888876282e-10 4.9080695164e-10 2.4825118021e-10 8.4079512035e-10 
3.1306586063e-10 5.8691932216e-10 6.0305909391e-10 5.5827957838e-10 3.0826324773e-10 4.614418784e-10 2.8436949771e-10 3.8088409574e-10 3.173311894e-11 
4.0718647273e-10 4.3045277186e-10 6.6664178721e-10 6.1639831775e-10 2.0726813282e-10 3.2295096903e-10 8.1686896716e-10 2.4696881172e-10 4.3539524336e-10 
4.7741940517e-10 2.8714588151e-10 1.3320561165e-10 3.1543895826e-10 2.9606581402e-10 2.8475359498e-10 2.6358347769e-10 3.5277347108e-10 5.3207905676e-10 
3.6780840628e-10 4.229946639e-10 2.3452715505e-10 3.9181116932e-10 1.1402294906e-10 2.9742191172e-10 4.559289119e-10 1.542090011e-10 1.2475223338e-10 
3.3574257756e-10 3.9129864821e-10 3.3961521983e-10 4.7479048169e-10 8.9155190773e-10 1.2443578829e-10 2.3305217086e-10 1.9985158416e-10 7.0901284618e-10 
4.3607723533e-10 3.9549797734e-10 1.4792751734e-10 3.608190375e-10 3.3079270287e-10 4.0747850716e-10 3.2420290549e-10 1.8256706306e-10 1.8905310891e-10 
2.2169662684e-10 3.7113471695e-10 3.9805003346e-10 3.010616035e-10 6.0536310604e-10 4.4010883111e-10 5.4494953472e-10 2.8036699824e-10 2.8067189493e-10 
8.2732299098e-10 5.3123407189e-10 6.5875107193e-10 3.836768391e-10 1.5917109864e-10 1.6035067839e-10 2.0414723633e-10 3.0435916006e-10 3.8277689184e-10 
5.986681485e-10 3.2442861628e-10 3.4536892856e-10 4.4307955169e-10 8.1253785994e-10 3.2926591229e-10 1.1854608916e-09 2.1287620614e-10 6.5708412116e-10 
1.8499890237e-10 1.5665215738e-10 2.775080266e-10 4.7753485212e-10 4.260764661e-10 3.1545943759e-10 2.543741045e-10 3.5924533808e-10 2.0141204758e-10 
4.0788341745e-10 5.1184577393e-10 2.693823077e-10 3.5495891705e-10 2.1917955823e-10 5.2108946034e-10 6.6462469655e-10 3.9835259447e-10 3.640042839e-10 
2.879392679e-10 1.8475376901e-10 1.6501982963e-10 1.097102336e-10 3.8755861621e-10 7.9009191974e-10 1.1620696574e-09 2.7568207241e-10 5.0155818978e-10 
2.4313782651e-10 4.8680240892e-10 2.755356236e-10 5.263999294e-10 4.5310734486e-10 2.6318420963e-10 7.4316530888e-10 3.091591482e-10 2.2320176595e-10 
3.8415073545e-10 4.0961024649e-10 1.4361366529e-10 3.8880843488e-10 2.6644721624e-10 5.7109430867e-10 4.5225369691e-10 3.2681455266e-10 4.7358380344e-10 
3.5321427932e-10 2.3167273391e-10 3.9549316112e-10 1.8117684317e-10 3.4224483779e-10 3.7160147227e-10 3.4373069902e-10 4.7359891574e-10 3.1326960304e-10 
4.7223332626e-10 3.7488953804e-10 5.4269577011e-10 3.0658508354e-10 3.5710660459e-10 2.7748737938e-10 3.0273476981e-10 3.4015452342e-10 9.515930992e-10 
3.3969399416e-10 2.5705726464e-10 4.9473428918e-10 2.5287541724e-10 1.812526848e-10 2.3557552569e-10 3.165164365e-10 1.8346234648e-10 3.6762697849e-10 
2.2339216195e-10 1.1596447778e-10 2.005881969e-10 2.9281342106e-10 3.7522331557e-10 4.2312084711e-10 3.3100892668e-10 3.670440884e-10 4.8028320193e-10 
1.8258507258e-10 4.8316024528e-10 2.7930783528e-10 6.7873542552e-10 2.0803618591e-10 1.2917044494e-10 1.9633872539e-10 3.1814880798e-10 3.1789303508e-10 
4.3799393126e-10 3.2782522495e-10 2.2871388178e-10 4.465148849e-10 4.7764436803e-10 4.5531379102e-10 3.7292518041e-10 5.4121888452e-10 9.7592332548e-10 
2.2085974845e-10 5.2150507785e-10 1.8371873493e-10 7.5199491774e-10 2.6001200796e-10 
METADATA
COMPONENT_NAMES
S_Mises

S_Principal 4 13235 double
0 0 0 0 0 0 0 0 0 
0 0 0 0 0 0 0 0 0 
0 0 0 0 0 0 0 0 0 
0 0 0 0 0 -1.7100335213e-11 -5.0972039127e-12 -2.2403508743e-12 -1.7100335213e-11 
-6.548425021e-11 1.0652763394e-11 1.9161286816e-11 -6.548425021e-11 -1.340136545e-11 3.6969762303e-13 1.5612070827e-11 1.5612070827e-11 -1.970721392e-10 
-6.4216907647e-11 -1.2688753153e-11 -1.970721392e-10 0 0 0 0 0 0 
0 0 0 0 0 0 0 0 0 
0 -1.5465609331e-10 -1.1634670138e-10 7.7928094683e-11 -1.5465609331e-10 -1.476850195e-10 3.006254408e-10 7.5123157871e-10 7.5123157871e-10 
-1.7927892158e-10 2.7668933649e-11 1.0880566793e-10 -1.7927892158e-10 1.6725320629e-11 1.6351788277e-10 4.932417966e-10 4.932417966e-10 0 
0 0 0 0 0 0 0 0 0 
0 0 0 0 0 0 0 0 0 
0 0 0 0 0 0 0 0 0 
0 0 0 0 0 0 0 0 0 
0 0 0 0 0 0 0 0 0 
0 0 0 0 0 0 0 0 0 
0 0 0 0 0 0 0 0 0 
0 0 0 0 0 0 0 0 0 
0 0 0 0 0 0 0 0 0 
0 0 0 0 0 0 0 0 0 
0 0 0 0 0 0 0 0 0 
0 0 0 0 0 0 0 0 0 
0 0 0 0 0 0 0 0 0 
0 0 0 0 0 0 0 0 0 
0 0 0 0 0 0 0 0 0 
0 0 0 0 0 0 0 0 0 
0 0 0 0 0 0 0 0 0 
0 0 0 0 0 0 0 0 0 
0 0 0 0 0 0 0 0 0 
0 0 0 0 0 0 0 0 0 
0 0 0 0 0 0 0 0 0 
0 0 0 0 0 0 0 0 0 
0 0 0 0 0 0 0 0 0 
0 0 0 0 0 0 0 0 0 
0 0 0 0 0 0 0 0 0 
0 0 0 0 0 0 0 0 0 
0 0 0 0 0 0 0 0 0 
0 0 0 0 0 0 0 0 0 
0 0 0 0 0 0 0 0 0 
0 0 0 0 0 0 0 0 0 
0 0 0 0 0 0 0 0 0 
0 0 0 0 0 0 0 0 0 
0 0 0 0 0 0 0 0 0 
0 0 0 0 0 0 0 0 0 
0 0 0 0 0 0 0 0 0 
0 0 0 0 0 0 0 0 0 
0 0 0 0 0 0 0 0 0 
0 0 0 0 0 0 0 0 0 
0 0 0 0 0 0 0 0 0 
0 0 0 0 0 0 0 0 0 
0 0 0 0 0 0 0 0 0 
0 0 0 0 0 0 0 0 0 
0 0 0 0 0 0 0 0 0 
0 0 0 0 0 0 0 0 0 
0 0 0 0 0 0 0 0 0 
0 0 0 0 0 0 0 0 0 
0 0 0 0 0 0 0 0 0 
0 0 0 0 0 0 0 0 0 
0 0 0 0 0 0 0 0 0 
0 0 0 0 0 0 0 0 0 
0 0 0 0 0 0 0 0 0 
0 0 0 0 0 0 0 0 0 
0 0 0 0 0 0 0 0 0 
0 0 0 0 0 0 0 0 0 
0 0 0 0 0 0 0 0 0 
0 0 0 0 0 0 0 0 0 
0 0 0 0 0 0 0 0 0 
0 0 0 0 0 0 0 0 0 
0 0 0 0 0 0 0 0 0 
0 0 0 0 0 0 0 0 0 
0 0 0 0 0 0 0 0 0 
0 0 0 0 0 0 0 0 0 
0 0 0 0 0 0 0 0 0 
0 0 0 0 0 0 0 0 0 
0 0 0 0 0 0 0 0 0 
0 0 0 0 0 0 0 0 0 
0 0 0 0 0 0 0 0 0 
0 0 0 0 0 0 0 0 0 
0 0 0 0 0 0 0 0 0 
0 0 0 0 0 0 0 0 0 
0 0 0 0 0 0 0 0 0 
0 0 0 0 0 0 0 0 0 
0 0 0 0 0 0 0 0 0 
0 0 0 0 0 0 0 0 0 
0 0 0 0 0 0 0 0 0 
0 0 0 0 0 0 0 0 0 
0 0 0 0 0 0 0 0 0 
0 0 0 0 0 0 0 0 0 
0 0 0 0 0 0 0 0 0 
0 0 0 0 0 0 0 0 0 
0 0 0 0 0 0 0 0 0 
0 0 0 0 0 0 0 0 0 
0 0 0 0 0 0 0 0 0 
0 0 0 0 0 0 0 0 0 
0 0 0 0 0 0 0 0 0 
0 0 0 0 0 0 0 0 0 
0 0 0 0 0 0 0 0 0 
0 0 0 0 0 0 0 0 0 
0 0 0 0 0 0 0 0 0 
0 0 0 0 0 0 0 0 0 
0 0 0 0 0 0 0 0 0 
0 0 0 0 0 0 0 0 0 
0 0 0 0 0 0 0 0 0 
0 0 0 0 0 0 0 0 0 
0 0 0 0 0 0 0 0 0 
0 0 0 0 0 0 0 0 0 
0 0 0 0 0 0 0 0 0 
0 0 0 0 0 0 0 0 0 
0 0 0 0 0 0 0 0 0 
0 0 0 0 0 0 0 0 0 
0 0 0 0 0 0 0 0 0 
0 0 0 0 0 0 0 0 0 
0 0 0 0 0 0 0 0 0 
0 0 0 0 0 0 0 0 0 
0 0 0 0 0 0 0 0 0 
0 0 0 0 0 0 0 0 0 
0 0 0 0 0 0 0 0 0 
0 0 0 0 0 0 0 0 0 
0 0 0 0 0 0 0 0 0 
0 0 0 0 0 0 0 0 0 
0 0 0 0 0 0 0 0 0 
0 0 0 0 0 0 0 0 5.3540596653e-12 
1.1945893543e-11 3.1677086792e-11 3.1677086792e-11 -1.5500553246e-11 2.4142084369e-12 2.5431794809e-11 2.5431794809e-11 2.4276994479e-11 3.3758084489e-11 
5.0847721032e-11 5.0847721032e-11 -4.1769415184e-11 -1.5155097054e-11 -8.6479877612e-12 -4.1769415184e-11 -3.9173612653e-11 -9.8802609372e-12 6.2496535905e-12 
-3.9173612653e-11 -2.8215826426e-11 -2.9897137227e-12 1.8819610149e-11 -2.8215826426e-11 -1.1409300857e-11 8.4168218724e-12 3.9826428984e-11 3.9826428984e-11 
1.801804051e-11 2.4543880546e-11 5.7531578944e-11 5.7531578944e-11 1.4347229387e-11 1.6426622341e-11 3.4393848273e-11 3.4393848273e-11 -8.1805455756e-12 
5.161218124e-12 2.3055377452e-11 2.3055377452e-11 3.4288825274e-12 1.1754784671e-11 3.0613032802e-11 3.0613032802e-11 -1.354803264e-11 4.6893724665e-12 
2.8530390174e-11 2.8530390174e-11 5.5092751579e-12 1.3097226356e-11 3.8061098486e-11 3.8061098486e-11 -6.2497253631e-12 4.7239960737e-12 1.9335519289e-11 
1.9335519289e-11 1.3710250261e-11 1.9789528442e-11 3.0251321296e-11 3.0251321296e-11 1.7750777428e-12 6.3297464201e-12 1.7638495837e-11 1.7638495837e-11 
-2.2695443025e-11 -5.6243654905e-12 3.0217385156e-12 -2.2695443025e-11 2.418337841e-11 2.9149391128e-11 6.4050230462e-11 6.4050230462e-11 1.4686613807e-11 
2.2598668965e-11 3.5168417227e-11 3.5168417227e-11 -2.9610352488e-11 -2.2837295047e-12 2.1977291993e-11 -2.9610352488e-11 -1.1200826539e-11 1.7289303951e-11 
5.5598322588e-11 5.5598322588e-11 2.6497297219e-11 2.7079013242e-11 6.1782789539e-11 6.1782789539e-11 -1.0383153128e-11 7.1500216809e-12 3.1162151447e-11 
3.1162151447e-11 4.4530660107e-12 8.9660713199e-12 2.6248162669e-11 2.6248162669e-11 -3.1829999232e-12 4.2419175172e-12 1.2703192406e-11 1.2703192406e-11 
-4.4087211856e-14 1.7068889745e-11 3.7618997467e-11 3.7618997467e-11 -3.3267256079e-11 -7.9560244914e-13 3.1937845528e-11 -3.3267256079e-11 8.5787578565e-12 
1.57258245e-11 4.3899017643e-11 4.3899017643e-11 1.1207016535e-11 1.6200946389e-11 3.0011337076e-11 3.0011337076e-11 5.9881248434e-12 8.1745546314e-12 
2.1861750525e-11 2.1861750525e-11 -3.6794418513e-12 6.8661410236e-12 2.6563900828e-11 2.6563900828e-11 4.2753195191e-12 2.8488226908e-11 8.8181453573e-11 
8.8181453573e-11 -5.7251358497e-11 -8.7278892803e-12 2.2524447778e-11 -5.7251358497e-11 7.2678444328e-11 8.8058320575e-11 1.717034351e-10 1.717034351e-10 
1.3557732212e-11 2.6560560052e-11 7.5443207736e-11 7.5443207736e-11 -2.1016091899e-11 7.7013907944e-12 2.5609551105e-11 2.5609551105e-11 -8.8459935935e-11 
-2.3791059989e-11 4.9871959243e-12 -8.8459935935e-11 -2.2860209832e-10 -8.8224239786e-11 -7.4028561898e-11 -2.2860209832e-10 -1.7451771758e-10 -5.3075388167e-11 
-3.8946894254e-11 -1.7451771758e-10 -1.5250093422e-10 -5.8538702334e-11 -2.6660863451e-11 -1.5250093422e-10 -1.2715708525e-10 -7.8528089896e-11 -2.4577724858e-11 
-1.2715708525e-10 -8.1900180723e-14 4.9216003188e-11 6.9412596992e-11 6.9412596992e-11 -2.0738969317e-11 2.0446781081e-11 8.5141788236e-11 8.5141788236e-11 
-1.1264788051e-10 -3.020289634e-11 -1.662812315e-11 -1.1264788051e-10 -1.4637531043e-10 -5.6831776445e-11 -4.7425213122e-11 -1.4637531043e-10 -1.5847848358e-11 
-1.1899968917e-11 -4.583062725e-12 -1.5847848358e-11 5.6943760649e-11 6.7418851136e-11 1.6236568822e-10 1.6236568822e-10 5.7484736484e-11 6.703031949e-11 
1.8346314403e-10 1.8346314403e-10 3.2206648431e-11 3.9589790083e-11 1.0336746149e-10 1.0336746149e-10 7.8620944232e-11 9.169824128e-11 1.7849071449e-10 
1.7849071449e-10 5.0936295355e-11 7.9400039447e-11 1.028104652e-10 1.028104652e-10 2.4005642522e-11 2.886535162e-11 7.4479405857e-11 7.4479405857e-11 
4.2233159337e-11 5.4338702039e-11 1.4674443862e-10 1.4674443862e-10 5.7995985903e-11 7.2931389847e-11 1.8919402425e-10 1.8919402425e-10 9.7357870781e-11 
1.0945281412e-10 2.385363151e-10 2.385363151e-10 2.8469920713e-11 3.7801166718e-11 7.610631257e-11 7.610631257e-11 -4.7781912238e-11 2.4299803522e-11 
8.0402708716e-11 8.0402708716e-11 2.2842687446e-11 5.811086384e-11 1.3686254871e-10 1.3686254871e-10 7.8861610588e-11 8.6581678053e-11 2.0309831136e-10 
2.0309831136e-10 4.9263912873e-11 7.9318331108e-11 2.1476255602e-10 2.1476255602e-10 4.7542579805e-11 8.2288479079e-11 1.6812984112e-10 1.6812984112e-10 
3.1303620976e-11 4.9504903848e-11 1.2896267518e-10 1.2896267518e-10 8.3642639454e-11 9.3939687506e-11 2.2192437304e-10 2.2192437304e-10 4.4887358068e-11 
6.0082734533e-11 1.172482074e-10 1.172482074e-10 -6.6259191881e-12 2.5643976316e-12 2.4249331556e-11 2.4249331556e-11 -3.3252712141e-11 5.6580884815e-12 
4.565741286e-11 4.565741286e-11 -2.1387349137e-11 3.9208214615e-12 3.8413337676e-11 3.8413337676e-11 -1.3022212395e-12 1.057656088e-11 3.747636036e-11 
3.747636036e-11 1.2615937098e-11 4.1167837797e-11 6.6280825105e-11 6.6280825105e-11 -4.6417251763e-11 -2.1349300122e-11 -2.8150481153e-12 -4.6417251763e-11 
-7.3978185273e-11 -2.9369655447e-11 -8.5201592806e-12 -7.3978185273e-11 -1.531831494e-11 6.6907675261e-12 2.2288457414e-11 2.2288457414e-11 -2.649891551e-12 
1.0202223582e-11 3.1305457969e-11 3.1305457969e-11 -3.5583052504e-11 -2.9983551877e-12 2.6893677691e-11 -3.5583052504e-11 -3.0054658046e-12 5.373884275e-12 
6.001658153e-11 6.001658153e-11 2.2802265829e-11 3.5472734776e-11 8.1673799395e-11 8.1673799395e-11 1.5238730276e-11 2.469250629e-11 6.6624063433e-11 
6.6624063433e-11 -2.206523221e-11 -9.8119858135e-12 1.3207258023e-11 -2.206523221e-11 -3.1053818438e-11 -4.1092989942e-12 3.5911074324e-12 -3.1053818438e-11 
-6.7512359983e-11 -2.5132306246e-11 -1.016663377e-11 -6.7512359983e-11 -1.3074586844e-11 -1.1184362378e-12 1.3585871082e-11 1.3585871082e-11 -2.4367490558e-11 
-4.9891531829e-12 7.3473537411e-12 -2.4367490558e-11 -4.3371459354e-11 -1.6794475179e-11 -1.0567465467e-11 -4.3371459354e-11 -5.911388461e-11 -2.3025903489e-11 
-4.986611901e-12 -5.911388461e-11 -4.0283667858e-11 -8.2761313591e-12 -3.2000207829e-12 -4.0283667858e-11 -1.0182600311e-10 -4.0723929867e-11 -3.3676367019e-11 
-1.0182600311e-10 -7.0105295828e-11 -3.5948576137e-11 -2.5850228034e-11 -7.0105295828e-11 -2.9479671961e-11 -1.3797069495e-11 -5.9027085442e-12 -2.9479671961e-11 
-5.8788001037e-11 -1.6840610386e-11 1.8595714229e-12 -5.8788001037e-11 -3.0598404916e-11 -6.0495806987e-12 5.0760056146e-12 -3.0598404916e-11 -1.9148112894e-11 
-1.5150797057e-11 -7.2910800489e-12 -1.9148112894e-11 -3.9773700044e-11 -1.2524951172e-11 3.5746212162e-12 -3.9773700044e-11 -2.1594824822e-11 -5.2975201266e-13 
1.6963826835e-11 -2.1594824822e-11 -1.2722202328e-11 -3.6819223314e-12 4.6634465937e-13 -1.2722202328e-11 -4.020245833e-12 7.973827931e-13 1.597308214e-11 
1.597308214e-11 7.0461499767e-12 8.7534967497e-12 3.0495853274e-11 3.0495853274e-11 -1.3590861989e-11 3.2924194968e-13 9.1633420391e-12 -1.3590861989e-11 
1.5285265651e-12 8.3875614132e-12 1.5432542022e-11 1.5432542022e-11 -1.3582774806e-11 -9.4629652545e-12 7.3287006062e-13 -1.3582774806e-11 -2.3453693194e-11 
-5.3633641228e-12 -1.2370726831e-12 -2.3453693194e-11 -3.804661481e-11 -1.6096845673e-11 -5.661139517e-12 -3.804661481e-11 -2.3810452249e-11 -6.9698382046e-12 
3.1548004532e-12 -2.3810452249e-11 -1.8740447709e-11 -6.3745591953e-12 5.2307369046e-12 -1.8740447709e-11 -1.0588638906e-11 -1.5564320013e-12 1.5379590722e-13 
-1.0588638906e-11 -9.3286311867e-12 -1.2542384045e-12 4.2077595911e-12 -9.3286311867e-12 -5.731990353e-13 5.8321133671e-12 9.9199156682e-12 9.9199156682e-12 
8.4310908853e-13 6.3675765865e-12 1.2825384325e-11 1.2825384325e-11 3.8279743271e-12 7.6234052994e-12 2.2852790373e-11 2.2852790373e-11 -2.6588024328e-13 
4.8614664505e-12 1.3011863793e-11 1.3011863793e-11 -2.1117496691e-11 -7.5084903746e-12 -1.7316229339e-12 -2.1117496691e-11 -9.1551789103e-12 -2.5601182596e-12 
-7.3133883011e-13 -9.1551789103e-12 1.5181733449e-12 2.1812791922e-12 7.0775074629e-12 7.0775074629e-12 6.6929851866e-13 4.8582682683e-12 1.2535243213e-11 
1.2535243213e-11 -1.0985328116e-11 -4.0599021874e-12 2.7503803037e-12 -1.0985328116e-11 -1.3956883861e-11 -6.7357037787e-12 -1.46853236e-12 -1.3956883861e-11 
-5.4394172162e-13 3.1638676334e-12 4.0587640882e-12 4.0587640882e-12 5.9888986593e-13 1.2572741136e-12 6.3404160204e-12 6.3404160204e-12 2.0449620718e-13 
2.2603856174e-12 3.2018781754e-12 3.2018781754e-12 -3.1139148181e-13 1.5461887951e-12 3.0152686868e-12 3.0152686868e-12 -2.4176273883e-14 1.6589561286e-12 
3.3742401453e-12 3.3742401453e-12 -3.1495141299e-15 1.5097374711e-12 2.2881240431e-12 2.2881240431e-12 7.988602458e-13 1.3760060642e-12 2.83415369e-12 
2.83415369e-12 -1.0723939803e-12 1.2130824797e-13 1.7100267323e-12 1.7100267323e-12 -6.1835540465e-12 -1.6848686796e-12 -6.3171727393e-13 -6.1835540465e-12 
-4.5277685564e-12 -5.2520348508e-13 3.7037410415e-12 -4.5277685564e-12 -6.9163565619e-12 -2.4845745777e-12 -1.6173886043e-13 -6.9163565619e-12 -1.9089890153e-11 
-8.4242360459e-12 -6.9924038011e-12 -1.9089890153e-11 -9.3954549922e-12 -9.5509040359e-13 1.3299793958e-12 -9.3954549922e-12 -2.0508602064e-11 -8.4081654001e-12 
-7.714792536e-12 -2.0508602064e-11 -2.9434023807e-11 -1.1276820868e-11 -1.0168555325e-11 -2.9434023807e-11 -1.4475831813e-10 -6.3549969066e-11 -5.6815112805e-11 
-1.4475831813e-10 -5.9946726408e-11 2.0532351458e-11 1.2947537495e-10 1.2947537495e-10 -2.8645249273e-10 -1.0455955255e-10 -8.8985954729e-11 -2.8645249273e-10 
-6.7469387604e-11 2.9485269829e-12 5.7437420621e-11 -6.7469387604e-11 -1.1430892168e-10 2.5456964707e-11 4.7261966975e-11 -1.1430892168e-10 1.991493331e-11 
8.2043177108e-11 2.5778018958e-10 2.5778018958e-10 -1.663056962e-10 -2.6518867016e-11 -9.1547367791e-12 -1.663056962e-10 -1.6813644096e-10 -3.8339948103e-11 
3.9914029061e-11 -1.6813644096e-10 2.3544578715e-11 2.8699311598e-11 7.9710809687e-11 7.9710809687e-11 -2.6344428862e-10 -5.9949673916e-11 5.0903962537e-11 
-2.6344428862e-10 -4.6392538171e-11 1.0165683819e-10 1.5772529998e-10 1.5772529998e-10 2.2197059191e-11 6.9608906061e-11 2.1359213475e-10 2.1359213475e-10 
-2.4804110109e-11 1.5623350335e-11 6.9693759774e-11 6.9693759774e-11 4.2878434364e-12 4.2867027147e-11 1.2993152942e-10 1.2993152942e-10 -4.1475665458e-10 
-2.5335091674e-10 -1.9668142867e-10 -4.1475665458e-10 1.7273974078e-11 4.8895046062e-11 1.2569147986e-10 1.2569147986e-10 -1.8928072691e-10 -7.7483697465e-11 
-5.2800575621e-11 -1.8928072691e-10 1.0820573728e-10 1.3337964944e-10 3.1254261328e-10 3.1254261328e-10 4.2580570668e-11 8.4513536948e-11 1.9621469238e-10 
1.9621469238e-10 2.0940345075e-10 2.8498955335e-10 6.570129959e-10 6.570129959e-10 1.9224292578e-12 1.2967818985e-10 4.353071809e-10 4.353071809e-10 
8.3426952235e-11 1.7492649364e-10 2.6167355412e-10 2.6167355412e-10 -2.587628032e-11 4.2430361633e-11 1.4474631869e-10 1.4474631869e-10 5.9464555045e-11 
1.0803406101e-10 2.7398898395e-10 2.7398898395e-10 -5.2902027268e-11 -1.8612840607e-11 4.8240707875e-11 -5.2902027268e-11 -5.7204420727e-10 -1.6243687441e-10 
-7.2169183154e-12 -5.7204420727e-10 -1.1195671666e-11 6.9557684092e-11 2.0696398757e-10 2.0696398757e-10 3.1296452246e-11 9.2527390244e-11 2.7689725751e-10 
2.7689725751e-10 -7.6876912941e-11 5.2892722534e-11 8.1056660407e-11 8.1056660407e-11 -5.9047115806e-11 2.4504447384e-11 1.3350856842e-10 1.3350856842e-10 
-4.8484492507e-11 4.1637392322e-11 1.7260000018e-10 1.7260000018e-10 1.6880296725e-11 2.3756724531e-11 4.2947678745e-11 4.2947678745e-11 9.0023406191e-12 
1.6076795541e-11 2.693376384e-11 2.693376384e-11 3.7647611278e-12 1.0530782704e-11 2.8053386169e-11 2.8053386169e-11 -7.4704572382e-12 9.0033282187e-12 
3.7055069019e-11 3.7055069019e-11 -8.0819089871e-12 9.136939321e-12 3.2136019666e-11 3.2136019666e-11 -7.7613854282e-12 7.0547217836e-12 3.2481063645e-11 
3.2481063645e-11 -1.0596373108e-12 1.2565654614e-11 4.1721082697e-11 4.1721082697e-11 3.7471890233e-12 4.4630654225e-12 1.7637105554e-11 1.7637105554e-11 
-1.4325515782e-11 -2.3863465079e-12 6.65046229e-12 -1.4325515782e-11 8.0129044044e-12 1.6673999159e-11 4.7159596437e-11 4.7159596437e-11 -1.1023554236e-11 
5.3998952981e-13 6.4358827059e-12 -1.1023554236e-11 1.9727661431e-12 8.1524444743e-12 3.0149299383e-11 3.0149299383e-11 1.2938954483e-11 1.607735978e-11 
4.1615785737e-11 4.1615785737e-11 -7.8411888928e-12 3.4326139928e-13 6.7389864935e-12 -7.8411888928e-12 1.3973216662e-11 2.1693003493e-11 3.7192179845e-11 
3.7192179845e-11 -1.298754029e-11 -3.1061824402e-12 -1.3113672702e-12 -1.298754029e-11 9.2890194482e-13 1.3838255131e-11 3.0162142924e-11 3.0162142924e-11 
-7.9792557299e-12 1.2975205906e-11 5.1671649824e-11 5.1671649824e-11 -5.8886687532e-13 9.5333421111e-12 2.1413134764e-11 2.1413134764e-11 -5.7307270329e-12 
5.2537067885e-12 8.5723922444e-12 8.5723922444e-12 8.484112962e-12 1.6114295184e-11 3.0045391854e-11 3.0045391854e-11 -1.9123084532e-11 -5.662489152e-13 
1.6566826447e-11 -1.9123084532e-11 9.9536851789e-12 1.6608652368e-11 3.1521962453e-11 3.1521962453e-11 -8.1347753675e-12 -2.0779319236e-12 -1.120822709e-12 
-8.1347753675e-12 8.0718870504e-12 1.2366739487e-11 3.3193273463e-11 3.3193273463e-11 -1.6443751309e-10 -4.951204279e-11 -6.6498441228e-12 -1.6443751309e-10 
1.0292396774e-11 4.648201602e-11 1.3630018721e-10 1.3630018721e-10 -1.032972804e-10 -8.7370845701e-12 2.2378064974e-11 -1.032972804e-10 -2.0267371039e-10 
-4.9376515215e-11 -2.7810743989e-12 -2.0267371039e-10 -2.8918204862e-11 2.0064625903e-11 8.8477378959e-11 8.8477378959e-11 -1.3240544646e-10 -3.1944367765e-11 
3.4216714221e-11 -1.3240544646e-10 8.004054606e-12 9.5097768129e-11 1.8509377727e-10 1.8509377727e-10 -8.222263417e-11 1.349323335e-11 1.2526210082e-10 
1.2526210082e-10 3.6842435286e-11 7.6487818994e-11 2.1852214572e-10 2.1852214572e-10 4.2426184448e-11 6.2005727166e-11 1.7000148839e-10 1.7000148839e-10 
-4.0677344068e-11 2.698871115e-12 6.9145702953e-11 6.9145702953e-11 -4.6106113696e-10 -2.2593776113e-10 -1.833561019e-10 -4.6106113696e-10 -1.7021072127e-10 
-4.7029053278e-11 5.0677374545e-11 -1.7021072127e-10 -1.0992643404e-11 1.6166188886e-11 8.7518524519e-11 8.7518524519e-11 1.4262236835e-10 2.0736775225e-10 
4.067248794e-10 4.067248794e-10 1.220177153e-10 1.7650418724e-10 2.3956809746e-10 2.3956809746e-10 -1.0745843131e-10 -1.5346936658e-11 1.0875416796e-10 
1.0875416796e-10 -7.016193034e-11 1.5010103877e-12 5.0966749952e-11 -7.016193034e-11 1.3036906161e-11 9.1675209625e-11 2.9722298421e-10 2.9722298421e-10 
-2.5400095896e-11 6.0945272262e-12 5.310374867e-11 5.310374867e-11 5.9592903754e-11 1.6143506246e-10 2.5363103379e-10 2.5363103379e-10 7.9267196582e-12 
9.4238993674e-11 1.5661618667e-10 1.5661618667e-10 1.4432285467e-10 1.9055771746e-10 3.0485642786e-10 3.0485642786e-10 3.0804701059e-11 4.2480597043e-11 
7.9110201898e-11 7.9110201898e-11 6.8819631541e-12 6.9865723898e-11 1.4547041295e-10 1.4547041295e-10 -7.4182895144e-11 -2.6301485175e-11 -6.5481196808e-12 
-7.4182895144e-11 -2.0180591126e-10 -9.1671311757e-11 -7.4700276983e-11 -2.0180591126e-10 2.3899382736e-11 5.6009920892e-11 1.0610729637e-10 1.0610729637e-10 
-8.4633386475e-11 -1.7549981101e-11 9.5224675762e-12 -8.4633386475e-11 -2.7685084087e-11 -1.0791980642e-11 7.5122347288e-12 -2.7685084087e-11 -4.4503613902e-11 
-1.277455243e-12 4.8007295145e-11 4.8007295145e-11 -9.0431802312e-11 -2.9100670411e-11 -3.1883272775e-12 -9.0431802312e-11 -1.2233612911e-10 -5.1380174652e-11 
-4.5845296237e-11 -1.2233612911e-10 -4.5523663425e-11 -1.5126326797e-11 8.9659902221e-12 -4.5523663425e-11 -1.0837091459e-10 -7.8095974941e-11 -4.6376410473e-11 
-1.0837091459e-10 -6.1352195822e-11 -2.0172995745e-11 9.255915674e-13 -6.1352195822e-11 3.6551574189e-11 4.7857608845e-11 1.0236631697e-10 1.0236631697e-10 
-3.3551401579e-11 5.9859449997e-12 3.8089446579e-11 3.8089446579e-11 -1.1828898831e-10 -4.5678903127e-11 -3.6132108566e-11 -1.1828898831e-10 -1.0814647162e-10 
-5.3747233578e-11 -4.1957894804e-11 -1.0814647162e-10 1.7993189216e-11 3.0884365224e-11 7.194584556e-11 7.194584556e-11 2.4500963794e-12 2.5392988662e-11 
8.5391014959e-11 8.5391014959e-11 2.6737267838e-11 3.5341980976e-11 9.4490451186e-11 9.4490451186e-11 4.9767584091e-11 6.1478060814e-11 1.416337551e-10 
1.416337551e-10 5.1082851601e-11 8.7221345788e-11 1.1328530261e-10 1.1328530261e-10 1.2486421485e-11 2.4937603332e-11 6.5184875183e-11 6.5184875183e-11 
2.7765773201e-11 3.475861736e-11 9.5866709439e-11 9.5866709439e-11 4.9125810676e-11 6.629696966e-11 1.6933251966e-10 1.6933251966e-10 6.900679341e-11 
7.8591779849e-11 1.9286282674e-10 1.9286282674e-10 3.1393189033e-11 4.5300294202e-11 1.0674261676e-10 1.0674261676e-10 4.7660147801e-11 6.9176384287e-11 
1.1737296791e-10 1.1737296791e-10 2.2111118746e-11 3.7099033405e-11 7.6792247849e-11 7.6792247849e-11 5.7268217731e-11 6.0068342845e-11 1.3948953942e-10 
1.3948953942e-10 7.5139504186e-12 2.1199755837e-11 8.0422093745e-11 8.0422093745e-11 1.2128838176e-11 2.6459532521e-11 7.6087629303e-11 7.6087629303e-11 
-9.1685271438e-12 1.0640453553e-11 4.4747593591e-11 4.4747593591e-11 8.1760041932e-12 1.2256519551e-11 5.1135606256e-11 5.1135606256e-11 6.5134540602e-11 
6.9479845511e-11 1.4960881389e-10 1.4960881389e-10 5.8871590547e-12 2.8178832776e-11 6.2850808169e-11 6.2850808169e-11 -9.2207846075e-12 1.4648098601e-11 
3.1305376007e-11 3.1305376007e-11 -3.8993866429e-11 -5.5756432995e-12 1.5577929729e-11 -3.8993866429e-11 7.7755452442e-12 1.345432477e-11 5.3070429986e-11 
5.3070429986e-11 1.8989113072e-11 3.7013549294e-11 5.9584137634e-11 5.9584137634e-11 9.2947859835e-12 1.6630018133e-11 3.3879795884e-11 3.3879795884e-11 
-4.6944570407e-11 -1.713139391e-11 -4.0010356835e-12 -4.6944570407e-11 -2.3295173566e-11 -2.1021252315e-12 1.5303348797e-11 -2.3295173566e-11 -3.1017289793e-11 
3.3721097131e-12 6.7742500798e-12 -3.1017289793e-11 -4.6461920653e-12 1.4293636297e-11 5.1750955769e-11 5.1750955769e-11 -5.2912095176e-12 9.788838656e-12 
4.5440660862e-11 4.5440660862e-11 2.1535419949e-11 2.5909056646e-11 6.2070823405e-11 6.2070823405e-11 2.9544145984e-11 3.4146301099e-11 6.9731452917e-11 
6.9731452917e-11 -2.3513364589e-12 8.9011269955e-12 3.4964389463e-11 3.4964389463e-11 -3.2647607613e-11 -9.509226918e-12 -2.6966654686e-12 -3.2647607613e-11 
-4.0156970726e-11 -1.3262677224e-11 -1.0217920498e-12 -4.0156970726e-11 -1.781029054e-11 1.6699796961e-12 7.9871508443e-12 -1.781029054e-11 3.3734062008e-12 
1.4265981797e-11 2.3571132002e-11 2.3571132002e-11 -3.5700388038e-11 -1.1142064568e-11 -2.9441473944e-12 -3.5700388038e-11 -3.6798389234e-11 -1.8411879266e-11 
-1.5586315004e-12 -3.6798389234e-11 -2.2345825971e-11 -2.6208171693e-12 5.53769314e-12 -2.2345825971e-11 -1.6654829373e-11 -1.3197410004e-12 1.3117340374e-11 
-1.6654829373e-11 -4.923827244e-11 -2.8048987283e-11 -2.2058240278e-11 -4.923827244e-11 -1.4311323313e-11 -3.7009235085e-12 6.0968708219e-12 -1.4311323313e-11 
-7.4770510869e-12 4.8056922941e-12 2.2024348793e-11 2.2024348793e-11 1.3069444336e-12 3.8854453588e-12 1.4084770208e-11 1.4084770208e-11 -1.9576114882e-11 
-1.996478485e-12 1.2996553367e-11 -1.9576114882e-11 -3.2850244228e-11 -8.3897940994e-12 4.2037383273e-12 -3.2850244228e-11 -6.073886377e-12 7.9646097695e-14 
7.2844392793e-12 7.2844392793e-12 -1.2584159701e-11 4.7811881575e-12 2.6017571543e-11 2.6017571543e-11 -9.9420880263e-12 1.5523009061e-13 8.8002359357e-12 
-9.9420880263e-12 4.0619891359e-12 1.3560112809e-11 4.0360998056e-11 4.0360998056e-11 -9.8048866835e-14 1.4665339857e-12 9.9397448812e-12 9.9397448812e-12 
-3.2490545001e-12 5.128349974e-12 2.2558604526e-11 2.2558604526e-11 -2.2951956281e-11 -1.2279367943e-11 -5.5997257763e-12 -2.2951956281e-11 -3.2565735848e-11 
-1.3892357412e-11 -1.084200674e-11 -3.2565735848e-11 -3.4828590095e-11 -1.3032197713e-11 -9.1357121923e-12 -3.4828590095e-11 -4.4435230773e-11 -1.7515921186e-11 
-1.234914804e-11 -4.4435230773e-11 -3.7149104333e-11 -1.7121489848e-11 -1.3047505819e-11 -3.7149104333e-11 -2.2188588622e-11 -6.0355583656e-12 -2.8165430121e-12 
-2.2188588622e-11 -2.9939776891e-11 -1.3775998865e-11 -1.1762824244e-11 -2.9939776891e-11 -1.7406967091e-12 4.6001203343e-13 4.3923476757e-12 4.3923476757e-12 
-7.9230116606e-12 -2.8111509718e-12 2.1581126324e-12 -7.9230116606e-12 -8.1112797018e-12 -2.7451242291e-12 -1.8179160691e-12 -8.1112797018e-12 -1.9632069362e-12 
1.0576531343e-12 4.8520528019e-12 4.8520528019e-12 -1.5923854274e-11 -4.8685149598e-12 -3.0622076582e-13 -1.5923854274e-11 -1.5716445118e-11 -5.4722912902e-12 
-4.5394135921e-12 -1.5716445118e-11 -6.1179979775e-12 -1.7006746995e-12 -4.5378832307e-13 -6.1179979775e-12 4.9995555052e-12 7.4775230723e-12 1.3706381423e-11 
1.3706381423e-11 -9.8963824768e-13 2.6479790855e-12 7.8284191621e-12 7.8284191621e-12 -1.1235304275e-11 -5.0799601216e-12 -2.6582956036e-12 -1.1235304275e-11 
-1.7746785975e-12 4.4330338732e-13 3.8358872101e-12 3.8358872101e-12 4.1232210717e-13 1.0706494255e-12 5.0439284673e-12 5.0439284673e-12 6.0005058056e-13 
3.073998573e-12 4.2864108464e-12 4.2864108464e-12 7.6227988936e-13 2.3597954331e-12 3.3289246775e-12 3.3289246775e-12 5.2659454935e-13 2.0717667222e-12 
2.8660187285e-12 2.8660187285e-12 -8.225778658e-14 1.5336829271e-12 2.1155948595e-12 2.1155948595e-12 5.3939871031e-13 7.0343640403e-13 2.7036648857e-12 
2.7036648857e-12 -7.8248341946e-13 1.2473236376e-12 3.4057657819e-12 3.4057657819e-12 -5.0442538381e-12 -1.5924705364e-12 -8.7679862545e-13 -5.0442538381e-12 
-3.2500675968e-12 9.2158451947e-13 4.4197920773e-12 4.4197920773e-12 -1.1724666368e-11 -4.4905822308e-12 -3.4413714008e-12 -1.1724666368e-11 -3.7848095297e-12 
-1.7433827358e-12 -1.3856473449e-13 -3.7848095297e-12 -9.4005764109e-12 -3.4613473476e-12 -1.3628062415e-12 -9.4005764109e-12 -2.2111383367e-11 -7.6872291474e-12 
-4.9103174857e-12 -2.2111383367e-11 -1.3442740364e-11 -5.3541270235e-12 -3.8412326122e-12 -1.3442740364e-11 0 0 0 
0 0 0 0 0 0 0 0 0 
0 0 0 0 0 0 0 0 0 
0 0 0 0 0 0 0 0 0 
0 0 0 0 0 0 0 0 0 
0 0 0 0 0 0 0 0 0 
0 0 0 0 0 0 0 0 0 
0 0 0 0 0 0 0 0 0 
0 0 0 0 0 0 0 0 0 
0 0 0 0 0 0 0 0 0 
0 0 0 0 0 0 0 0 0 
0 0 0 0 0 0 0 0 0 
0 0 0 0 0 0 0 0 0 
0 0 0 0 0 0 0 0 0 
0 0 0 0 0 0 0 0 0 
0 0 0 0 0 0 0 0 0 
0 0 0 0 0 0 0 0 0 
0 0 0 0 0 0 0 0 0 
0 0 0 0 0 0 0 0 0 
0 0 0 0 0 0 0 0 0 
0 0 0 0 0 0 0 0 0 
0 0 0 0 0 0 0 0 0 
0 0 0 0 0 0 0 0 0 
0 0 0 0 0 0 0 0 0 
0 0 0 0 0 0 0 0 0 
0 0 0 0 0 0 0 0 0 
0 0 0 0 0 0 0 0 0 
0 0 0 0 0 0 0 0 0 
0 0 0 0 0 0 0 0 0 
0 0 0 0 0 0 0 0 0 
0 0 0 0 0 0 0 0 0 
0 0 0 0 0 0 0 0 0 
0 0 0 0 0 0 0 0 0 
0 0 0 0 0 0 0 0 0 
0 0 0 0 0 0 0 0 0 
0 0 0 0 0 0 0 0 0 
0 0 0 0 0 0 0 0 0 
0 0 0 0 0 0 0 0 0 
0 0 0 0 0 0 0 0 0 
0 0 0 0 0 0 0 0 0 
0 0 0 0 0 0 0 0 0 
0 0 0 0 0 0 0 0 0 
0 0 0 0 0 0 0 0 0 
0 0 0 0 0 0 0 0 0 
0 0 0 0 0 0 0 0 0 
0 0 0 0 0 0 0 0 0 
0 0 0 0 0 0 0 0 0 
0 0 0 0 0 0 0 0 0 
0 0 0 0 0 0 0 0 0 
0 0 0 0 0 0 0 0 0 
0 0 0 0 0 0 0 0 0 
0 0 0 0 0 0 0 0 0 
0 0 0 0 0 0 0 0 0 
0 0 0 0 0 0 0 0 0 
0 0 0 0 0 0 0 0 0 
0 0 0 0 0 0 0 0 0 
0 0 0 0 0 0 0 0 0 
0 0 0 0 0 0 0 0 0 
0 0 0 0 0 0 0 0 0 
0 0 0 0 0 0 0 0 0 
0 0 0 0 0 0 0 0 0 
0 0 0 0 0 0 0 0 0 
0 0 0 0 0 0 0 0 0 
0 0 0 0 0 0 0 0 0 
0 0 0 0 0 0 0 0 0 
0 0 0 0 0 0 0 0 0 
0 0 0 0 1.1136219639e-10 1.9639481684e-10 8.2737598676e-10 8.2737598676e-10 -2.7713587849e-10 
1.1198921272e-10 3.3636396576e-10 3.3636396576e-10 -1.0918054898e-09 -5.7373812972e-10 -8.1600380496e-11 -1.0918054898e-09 -5.3497543609e-11 1.162111881e-10 
2.9854293551e-10 2.9854293551e-10 -1.7721324495e-10 3.3042041479e-11 1.8727907348e-10 1.8727907348e-10 -5.8266743309e-10 -2.9800197141e-10 -1.842775955e-10 
-5.8266743309e-10 4.7602871641e-10 5.56858314e-10 1.1322229696e-09 1.1322229696e-09 2.2061387804e-11 6.3936662394e-11 7.3249549802e-11 7.3249549802e-11 
-1.3800985058e-09 -5.6078059498e-10 -3.414108992e-10 -1.3800985058e-09 -3.6598232147e-10 -7.4994790495e-11 8.4881511967e-11 -3.6598232147e-10 -7.3068384312e-10 
-2.7296746932e-10 -2.0631868756e-10 -7.3068384312e-10 3.374451105e-10 5.3757727552e-10 6.4199361399e-10 6.4199361399e-10 -9.3121826216e-11 1.6674285618e-10 
3.6935767004e-10 3.6935767004e-10 -2.9619774538e-10 -1.0457377976e-11 1.7186712336e-10 -2.9619774538e-10 3.2961925441e-10 6.5253860303e-10 8.8738914256e-10 
8.8738914256e-10 -2.0764027638e-10 -7.0029533719e-11 -7.388989904e-12 -2.0764027638e-10 4.2817672968e-10 7.7646553079e-10 1.3608787395e-09 1.3608787395e-09 
2.215783312e-10 2.9966226221e-10 6.623034066e-10 6.623034066e-10 -8.5047765514e-11 6.1171249811e-11 4.519192157e-10 4.519192157e-10 4.5432179758e-11 
2.4938850465e-10 3.6819131559e-10 3.6819131559e-10 -2.7061716497e-10 3.8174304208e-11 3.9212416076e-10 3.9212416076e-10 -4.4803074625e-10 -2.7402066375e-10 
-1.7592758999e-10 -4.4803074625e-10 -2.5800351745e-10 -7.1142597685e-11 6.4579255134e-11 -2.5800351745e-10 4.8539510061e-10 7.5378601354e-10 1.4014158858e-09 
1.4014158858e-09 2.5122827946e-10 3.5720232382e-10 6.6780539672e-10 6.6780539672e-10 -5.7419426246e-10 -3.1394433541e-10 -2.1670640213e-10 -5.7419426246e-10 
-5.8015754478e-11 3.7033551135e-11 2.0403880334e-10 2.0403880334e-10 4.3764957718e-12 1.2005853688e-10 3.9858446735e-10 3.9858446735e-10 1.9288931269e-10 
3.3986133029e-10 6.7357635701e-10 6.7357635701e-10 -1.2212409142e-10 -1.5754078634e-11 9.9020380058e-11 -1.2212409142e-10 2.5792799564e-10 3.3352842259e-10 
6.1799358177e-10 6.1799358177e-10 -3.5779504286e-10 -8.1367230101e-11 1.2313937296e-10 -3.5779504286e-10 1.2441445323e-10 1.777780661e-10 4.6190948068e-10 
4.6190948068e-10 -6.2390101665e-11 -3.0308188558e-11 3.1023239022e-10 3.1023239022e-10 -2.4556308328e-10 1.1134724934e-10 2.6788323395e-10 2.6788323395e-10 
-6.1182702546e-10 -2.9514211558e-10 -1.8330485896e-10 -6.1182702546e-10 -7.1772092075e-10 -2.3024949933e-10 -5.9537799239e-12 -7.1772092075e-10 -4.5790894103e-10 
-2.1385800941e-10 -1.6640804955e-10 -4.5790894103e-10 -1.9291973169e-10 -1.4256777926e-10 -1.7420789048e-11 -1.9291973169e-10 -4.9660720849e-10 -1.7278929479e-10 
-6.7383796719e-11 -4.9660720849e-10 -3.9675250079e-10 -8.8471102838e-11 5.9912903629e-11 -3.9675250079e-10 -3.6214001507e-10 -1.0081836352e-10 -4.9782621412e-11 
-3.6214001507e-10 2.2005036411e-10 4.0116104652e-10 6.6656058937e-10 6.6656058937e-10 5.5295079446e-11 1.066444885e-10 3.5489963205e-10 3.5489963205e-10 
-1.2026135704e-10 6.8129055086e-11 1.9784900196e-10 1.9784900196e-10 -1.1731518297e-10 1.0113370349e-10 1.5779997948e-10 1.5779997948e-10 -2.5961341582e-10 
-1.1035039523e-10 -4.0775188947e-11 -2.5961341582e-10 -4.1275370582e-10 -1.8028331059e-10 -7.8170983589e-11 -4.1275370582e-10 -1.8097434625e-10 -1.9496931e-11 
1.6540779725e-10 -1.8097434625e-10 -2.201998798e-10 -5.9910519272e-11 -4.2743400931e-11 -2.201998798e-10 -1.9761961316e-10 -1.3062155188e-10 1.7378665047e-11 
-1.9761961316e-10 -9.3036007664e-11 3.1977216169e-11 1.389261915e-10 1.389261915e-10 -7.5569430479e-11 -2.8925433433e-11 2.0649616391e-10 2.0649616391e-10 
1.334702779e-10 2.1702075166e-10 4.8829097043e-10 4.8829097043e-10 9.5735335287e-11 1.3889266537e-10 3.0421999934e-10 3.0421999934e-10 -6.738658778e-11 
7.5963935043e-11 2.1789035274e-10 2.1789035274e-10 -1.0873322914e-10 -3.2965718762e-11 -3.2371521015e-12 -1.0873322914e-10 6.3039241001e-12 9.5189684878e-11 
2.1471179102e-10 2.1471179102e-10 -4.8489912788e-10 3.4816845586e-12 5.5427594332e-10 5.5427594332e-10 1.479429087e-10 3.1884800873e-10 8.5012408257e-10 
8.5012408257e-10 -2.9267691594e-10 -7.6820559553e-11 3.3437965497e-11 -2.9267691594e-10 3.4713671353e-10 6.1273055822e-10 9.1198672826e-10 9.1198672826e-10 
-1.9866451847e-10 5.3519424094e-11 3.0786224437e-10 3.0786224437e-10 6.7738707741e-11 4.1016854422e-10 6.9875574804e-10 6.9875574804e-10 -5.344956906e-11 
1.3857550924e-10 4.3164905982e-10 4.3164905982e-10 -1.1273593684e-09 -4.8055697738e-10 -1.3886365423e-10 -1.1273593684e-09 5.2258807353e-10 7.3744912715e-10 
1.0131427993e-09 1.0131427993e-09 -1.7256007969e-10 2.3679641416e-11 3.9781243827e-10 3.9781243827e-10 3.3687300951e-10 5.9802490876e-10 1.5641480817e-09 
1.5641480817e-09 9.8151140031e-11 2.5320311433e-10 7.4971774564e-10 7.4971774564e-10 -1.046284794e-09 -4.1483893668e-10 1.5194973065e-10 -1.046284794e-09 
-7.6877225988e-10 -1.8201507458e-10 3.7824153446e-10 -7.6877225988e-10 -3.9666317842e-10 4.269328165e-11 2.8414729677e-10 -3.9666317842e-10 2.73324495e-10 
4.2616250796e-10 9.7868399704e-10 9.7868399704e-10 -2.0107894784e-10 6.1714390958e-11 2.8710555688e-10 2.8710555688e-10 -8.2807534321e-10 -2.6349228133e-10 
-7.4166375462e-11 -8.2807534321e-10 1.4897914563e-10 5.7906029356e-10 7.8058456081e-10 7.8058456081e-10 2.8185729389e-10 6.6494402059e-10 9.6729268553e-10 
9.6729268553e-10 -3.1155673937e-10 1.522364034e-10 2.7225033597e-10 -3.1155673937e-10 -4.6000886848e-10 4.5837196276e-11 7.9022572202e-11 -4.6000886848e-10 
-8.7904852631e-10 -2.5885474811e-10 -1.5689372557e-10 -8.7904852631e-10 -2.7358346558e-10 -5.7166194701e-11 7.2102160283e-11 -2.7358346558e-10 1.034460597e-10 
2.8135084018e-10 5.8968310011e-10 5.8968310011e-10 -1.2272863027e-09 -1.106979772e-09 -6.5657692532e-10 -1.2272863027e-09 -8.7349651367e-10 -3.0398266131e-10 
-1.3397182501e-10 -8.7349651367e-10 4.2707535564e-10 6.1155122364e-10 1.1683704207e-09 1.1683704207e-09 1.2964896653e-10 3.0484268773e-10 7.2699234574e-10 
7.2699234574e-10 -3.8151243398e-10 -2.0276316594e-10 -7.4485400081e-11 -3.8151243398e-10 5.7550698262e-11 1.3551194428e-10 4.7905535746e-10 4.7905535746e-10 
2.8044756311e-10 5.5326918343e-10 1.5664462535e-09 1.5664462535e-09 5.3928570302e-12 3.1221865335e-10 3.5632848962e-10 3.5632848962e-10 -7.4644172577e-10 
-1.4454172691e-10 5.7483452681e-11 -7.4644172577e-10 -2.6539396422e-10 6.0672385673e-11 3.2939027855e-10 3.2939027855e-10 -2.4042184531e-10 1.6682685607e-10 
2.5437468924e-10 2.5437468924e-10 -5.801363148e-10 -2.7122952754e-10 -1.2675815766e-10 -5.801363148e-10 2.8172171111e-10 4.2055216551e-10 5.3389112337e-10 
5.3389112337e-10 -2.6307819268e-10 6.1258050866e-12 1.525220876e-10 -2.6307819268e-10 1.2005484222e-10 2.4270815609e-10 6.3904000169e-10 6.3904000169e-10 
6.3581844638e-10 8.5099762923e-10 1.2953319244e-09 1.2953319244e-09 -3.8656186919e-11 2.3923636906e-11 1.3786345001e-10 1.3786345001e-10 1.3617617105e-10 
2.3340958153e-10 5.1685824742e-10 5.1685824742e-10 1.6120488921e-10 2.2397674329e-10 5.467983675e-10 5.467983675e-10 1.9016871759e-10 3.0102221039e-10 
6.1989907202e-10 6.1989907202e-10 -2.1161300198e-10 2.1064683722e-10 4.2445597476e-10 4.2445597476e-10 -9.4565091266e-10 -4.0683627723e-10 -8.8894810105e-11 
-9.4565091266e-10 -4.7243412928e-10 -1.9468530944e-10 8.2714387118e-12 -4.7243412928e-10 4.6766641451e-11 1.4750653225e-10 5.074438263e-10 5.074438263e-10 
1.8604086561e-11 1.7944535717e-10 4.8722355627e-10 4.8722355627e-10 8.9946641966e-11 1.4681641532e-10 7.5471694271e-10 7.5471694271e-10 -4.1229592957e-10 
-2.1677465697e-10 -8.1297413457e-11 -4.1229592957e-10 7.9184787686e-11 3.2605507488e-10 7.0676113744e-10 7.0676113744e-10 -4.3099426918e-10 -7.3027319813e-11 
1.3972938899e-10 -4.3099426918e-10 -4.9793311209e-10 7.238376827e-12 3.3526373527e-10 -4.9793311209e-10 -3.1943239928e-10 -6.3684242513e-11 3.4876909179e-10 
3.4876909179e-10 6.8801069331e-11 8.7716198896e-11 3.7307223177e-10 3.7307223177e-10 -2.5499473227e-10 -2.248930782e-10 -3.2770189529e-11 -2.5499473227e-10 
-8.741378601e-10 -5.8056598375e-10 -4.2608415615e-10 -8.741378601e-10 -7.2421314375e-11 1.4168762328e-10 2.5755609109e-10 2.5755609109e-10 2.2809445303e-10 
4.0150158845e-10 4.8938795852e-10 4.8938795852e-10 1.0734600582e-10 1.7625370781e-10 2.7619528637e-10 2.7619528637e-10 5.0565301938e-11 2.0965552102e-10 
2.5019317705e-10 2.5019317705e-10 -8.4363151979e-11 5.3292624614e-11 2.6421762737e-10 2.6421762737e-10 -2.0431738105e-11 2.5386835049e-10 4.9774838762e-10 
4.9774838762e-10 -7.5312384681e-10 -1.4129190018e-10 5.3942746988e-11 -7.5312384681e-10 2.8123283245e-10 4.979556202e-10 1.3742295474e-09 1.3742295474e-09 
9.5822729846e-11 2.7944395167e-10 6.7389331848e-10 6.7389331848e-10 -6.8309681807e-11 2.0902661751e-10 7.414770643e-10 7.414770643e-10 -7.0371037065e-10 
-2.8072929924e-10 -8.3542330106e-11 -7.0371037065e-10 -9.6020204585e-11 -5.0794064672e-14 1.1064265865e-10 1.1064265865e-10 -7.3093284852e-10 -4.2795517305e-10 
-2.9463697843e-10 -7.3093284852e-10 6.1246397835e-10 8.1639872196e-10 1.8722822997e-09 1.8722822997e-09 -4.4049863118e-10 -2.0283319388e-10 4.7259825063e-11 
-4.4049863118e-10 -1.4142492564e-09 -4.6548162178e-10 -3.0445812182e-10 -1.4142492564e-09 -7.3014256204e-10 9.784148547e-11 2.4311537657e-10 -7.3014256204e-10 
-5.455163113e-11 5.1149645353e-10 1.0891101776e-09 1.0891101776e-09 -2.4632821904e-10 3.7307935169e-11 5.3369528387e-10 5.3369528387e-10 4.0637436315e-11 
1.9193493294e-10 4.1465263075e-10 4.1465263075e-10 -3.0193311497e-11 8.0917709512e-11 5.8192960198e-10 5.8192960198e-10 -1.6615581962e-10 -1.0733816254e-10 
3.1846582161e-11 -1.6615581962e-10 5.3072183415e-12 3.4979486087e-10 5.4515292079e-10 5.4515292079e-10 4.2463062599e-11 1.8795539719e-10 4.2166454021e-10 
4.2166454021e-10 -1.2136777756e-09 -5.6918694253e-10 -1.3816828183e-10 -1.2136777756e-09 -2.2542584841e-10 9.5002981477e-11 1.4044091693e-10 -2.2542584841e-10 
1.9297131417e-10 3.6850837855e-10 4.4305630729e-10 4.4305630729e-10 5.2010753317e-10 7.0364027063e-10 1.8909481962e-09 1.8909481962e-09 -1.0685506519e-10 
2.1051572444e-10 8.6778534075e-10 8.6778534075e-10 -1.1284597566e-09 -4.1301146767e-10 -6.760277576e-11 -1.1284597566e-09 3.6594587494e-10 5.4761309835e-10 
9.3184002672e-10 9.3184002672e-10 5.7272408733e-10 8.4469057062e-10 1.174521342e-09 1.174521342e-09 -4.4327898264e-10 -1.9649482475e-10 -3.9631192607e-11 
-4.4327898264e-10 -2.1256553617e-10 -4.0993110887e-11 2.1470075706e-10 2.1470075706e-10 -2.5493075301e-10 -3.5893512227e-11 1.3554486524e-10 -2.5493075301e-10 
-1.0284141057e-09 -2.4709107342e-10 -1.5433982085e-10 -1.0284141057e-09 -5.4084256093e-10 -4.0690779796e-10 -2.8234064111e-10 -5.4084256093e-10 2.2644365263e-10 
2.484863767e-10 6.2497097067e-10 6.2497097067e-10 -7.3047584648e-10 -4.1235150907e-10 -1.1980864445e-10 -7.3047584648e-10 -8.8942579655e-10 -2.5441031384e-10 
-2.1728988962e-10 -8.8942579655e-10 -5.3589888007e-10 -2.3262567763e-10 -1.907774423e-10 -5.3589888007e-10 -2.1516193444e-10 -1.645892442e-10 1.1156786394e-12 
-2.1516193444e-10 -3.8294061967e-10 -7.7104339804e-11 3.1252339474e-11 -3.8294061967e-10 -2.7192180934e-10 -7.4801998969e-11 1.5569820831e-10 -2.7192180934e-10 
-2.765784289e-10 -6.478731035e-11 1.5853713925e-10 -2.765784289e-10 -3.8686585521e-11 6.133276532e-12 9.6532088989e-11 9.6532088989e-11 2.1202641429e-10 
3.1130809648e-10 4.7300348923e-10 4.7300348923e-10 7.27795261e-12 1.1245903826e-10 2.1723350913e-10 2.1723350913e-10 -1.1308118095e-10 2.0252160278e-10 
3.8914857816e-10 3.8914857816e-10 -1.8908799121e-10 -6.8912457775e-11 3.9652548982e-11 -1.8908799121e-10 -3.5760366041e-10 -2.9973875555e-10 -1.7734158404e-10 
-3.5760366041e-10 -1.4451981233e-11 5.7185407895e-11 1.8813637334e-10 1.8813637334e-10 -1.0440425672e-10 -8.0641363197e-11 -1.1899680079e-11 -1.0440425672e-10 
-6.2573644603e-11 -2.7574295706e-11 -2.0353859691e-11 -6.2573644603e-11 -1.1794311038e-10 9.103323302e-11 1.5851027736e-10 1.5851027736e-10 -2.4404570477e-10 
-1.6940379773e-10 7.2944102498e-11 -2.4404570477e-10 9.9384618087e-12 1.2627432332e-10 2.4948141487e-10 2.4948141487e-10 1.0480101268e-10 1.491277586e-10 
2.1459122872e-10 2.1459122872e-10 -5.5240185826e-11 7.3297140395e-11 2.9579414543e-10 2.9579414543e-10 4.8070443449e-11 1.5763654563e-10 2.7151601092e-10 
2.7151601092e-10 4.2514195962e-11 1.9801158467e-10 3.6359221937e-10 3.6359221937e-10 0 0 0 0 
0 0 0 0 0 0 0 0 0 
0 0 0 0 0 0 0 0 0 
0 0 0 0 0 0 0 0 0 
0 0 0 0 0 0 0 0 0 
0 0 0 0 0 0 0 0 0 
0 0 0 0 0 0 0 0 0 
0 0 0 0 0 0 0 0 0 
0 0 0 0 0 0 0 0 0 
0 0 0 0 0 0 0 0 0 
0 0 0 0 0 0 0 0 0 
0 0 0 0 0 0 0 0 0 
0 0 0 0 0 0 0 0 0 
0 0 0 0 0 0 0 0 0 
0 0 0 0 0 0 0 0 0 
0 0 0 0 0 0 0 0 0 
0 0 0 0 0 0 0 0 0 
0 0 0 0 0 0 0 0 0 
0 0 0 0 0 0 0 0 0 
0 0 0 0 0 0 0 0 0 
0 0 0 0 0 0 0 0 0 
0 0 0 0 0 0 0 0 0 
0 0 0 0 0 0 0 0 0 
0 0 0 0 0 0 0 0 0 
0 0 0 0 0 0 0 0 0 
0 0 0 0 0 0 0 0 0 
0 0 0 0 0 0 0 0 0 
0 0 0 0 0 0 0 0 0 
0 0 0 0 0 0 0 0 0 
0 0 0 0 0 0 0 0 0 
0 0 0 0 0 0 0 0 0 
0 0 0 0 0 0 0 0 0 
0 0 0 0 0 0 0 0 0 
0 0 0 0 0 0 0 0 0 
0 0 0 0 0 0 0 0 0 
0 0 0 0 0 0 0 0 0 
0 0 0 0 0 0 0 0 0 
0 0 0 0 0 0 0 0 0 
0 0 0 0 0 0 0 0 0 
0 0 0 0 0 0 0 0 0 
0 0 0 0 0 0 0 0 0 
0 0 0 0 0 0 0 0 0 
0 0 0 0 0 0 0 0 0 
0 0 0 0 0 0 0 0 0 
0 0 0 0 0 0 0 0 0 
0 0 0 0 0 0 0 0 0 
0 0 0 0 0 0 0 0 0 
0 0 0 0 0 0 0 0 0 
0 0 0 0 0 0 0 0 0 
0 0 0 0 0 0 0 0 0 
0 0 0 0 0 0 0 0 0 
0 0 0 0 0 0 0 0 0 
0 0 0 0 0 0 0 0 0 
0 0 0 0 0 0 0 0 0 
0 0 0 0 0 0 0 0 0 
0 0 0 0 0 0 0 0 0 
0 0 0 0 0 0 0 0 0 
0 0 0 0 0 0 0 0 0 
0 0 0 0 0 0 0 0 0 
0 0 0 0 0 0 0 0 0 
0 0 0 0 0 0 0 0 0 
0 0 0 0 0 0 0 0 0 
0 0 0 0 0 0 0 0 0 
0 0 0 0 0 0 0 0 0 
0 0 0 0 0 0 0 0 0 
0 0 0 0 0 0 0 0 0 
0 0 0 0 0 0 0 0 0 
0 0 0 0 0 0 0 0 0 
0 0 0 0 0 0 0 0 0 
0 0 0 0 0 0 0 0 0 
0 0 0 0 0 0 0 0 0 
0 0 0 0 0 0 0 0 0 
0 0 0 0 0 0 0 0 0 
0 0 0 0 0 0 0 0 0 
0 0 0 0 0 0 0 0 0 
0 0 0 0 0 0 0 0 0 
0 0 0 0 0 0 0 0 0 
0 0 0 0 0 0 0 0 0 
0 0 0 0 0 0 0 0 0 
0 0 0 0 0 0 0 0 0 
0 0 0 0 0 0 0 0 0 
0 0 0 0 0 0 0 0 0 
0 0 0 0 0 0 0 0 0 
0 0 0 0 0 0 0 0 0 
0 0 0 0 0 0 0 0 0 
0 0 0 0 0 0 0 0 0 
0 0 0 0 0 0 0 0 0 
0 0 0 0 0 0 0 0 0 
0 0 0 0 0 0 0 0 0 
0 0 0 0 0 0 0 0 0 
0 0 0 0 0 0 0 0 0 
0 0 0 0 0 0 0 0 0 
0 0 0 0 0 0 0 0 0 
0 0 0 0 0 0 0 0 0 
0 0 0 0 0 0 0 0 0 
0 0 0 0 0 0 0 0 0 
0 0 0 0 0 0 0 0 0 
0 0 0 0 0 0 0 0 0 
0 0 0 0 0 0 0 0 0 
0 0 0 0 0 0 0 0 0 
0 0 0 0 0 0 0 0 0 
0 0 0 0 0 0 0 0 0 
0 0 0 0 0 0 0 0 0 
0 0 0 0 0 0 0 0 0 
0 0 0 0 0 0 0 0 0 
0 0 0 0 0 0 0 0 0 
0 0 0 0 0 0 0 0 0 
0 0 0 0 0 0 0 0 0 
0 0 0 0 0 0 0 0 0 
0 0 0 0 0 0 0 0 0 
0 0 0 0 0 0 0 0 0 
0 0 0 0 0 0 0 0 0 
0 0 0 0 0 0 0 0 0 
0 0 0 0 0 0 0 0 0 
0 0 0 0 0 0 0 0 0 
0 0 0 0 0 0 0 0 0 
0 0 0 0 0 0 0 0 0 
0 0 0 0 0 0 0 0 0 
0 0 0 0 0 0 0 0 0 
0 0 0 0 0 0 0 0 0 
0 0 0 0 0 0 0 0 0 
0 0 0 0 0 0 0 0 0 
0 0 0 0 0 0 0 0 0 
0 0 0 0 0 0 0 0 0 
0 0 0 0 0 0 0 0 0 
0 0 0 0 0 0 0 0 0 
0 0 0 0 0 0 0 0 0 
0 0 0 0 0 0 0 0 0 
0 0 0 0 0 0 0 0 0 
0 0 0 0 0 0 0 0 0 
0 0 0 0 0 0 0 0 0 
0 0 0 0 0 0 0 0 0 
0 0 0 0 0 0 0 0 0 
0 0 0 0 0 0 0 0 0 
0 0 0 0 0 0 0 0 0 
0 0 0 0 0 0 0 0 0 
0 0 0 0 0 0 0 0 0 
0 0 0 0 0 0 0 0 0 
0 0 0 0 0 0 0 0 0 
0 0 0 0 0 0 0 0 0 
0 0 0 0 0 0 0 0 0 
0 0 0 0 0 0 0 0 0 
0 0 0 0 0 0 0 0 0 
0 0 0 0 0 0 0 0 0 
0 0 0 0 0 0 0 0 0 
0 0 0 0 0 0 0 0 0 
0 0 0 0 0 0 0 0 0 
0 0 0 0 0 0 0 0 0 
0 0 0 0 0 0 0 0 0 
0 0 0 0 0 0 0 0 0 
0 0 0 0 0 0 0 0 0 
0 0 0 0 0 0 0 0 0 
0 0 0 0 0 0 0 0 0 
0 0 0 0 0 0 0 0 0 
0 0 0 0 0 0 0 0 0 
0 0 0 0 0 0 0 0 0 
0 0 0 0 0 0 0 0 0 
0 0 0 0 0 0 0 0 0 
0 0 0 0 0 0 0 0 0 
0 0 0 0 0 0 0 0 0 
0 0 0 0 0 0 0 0 0 
0 0 0 0 0 0 0 0 0 
0 0 0 0 0 0 0 0 0 
0 0 0 0 0 0 0 0 0 
0 0 0 0 0 0 0 0 0 
0 0 0 0 0 0 0 0 0 
0 0 0 0 0 0 0 0 0 
0 0 0 0 0 0 0 0 0 
0 0 0 0 0 0 0 0 0 
0 0 0 0 0 0 0 0 0 
0 0 0 0 0 0 0 0 0 
0 0 0 0 0 0 0 0 0 
0 0 0 0 0 0 0 0 0 
0 0 0 0 0 0 0 0 0 
0 0 0 0 0 0 0 0 0 
0 0 0 0 0 0 0 0 0 
0 0 0 0 0 0 0 0 0 
0 0 0 0 0 0 0 0 0 
0 0 0 0 0 0 0 0 0 
0 0 0 0 0 0 0 0 0 
0 0 0 0 0 0 0 0 0 
0 0 0 0 0 0 0 0 0 
0 0 0 0 0 0 0 0 0 
0 0 0 0 0 0 0 0 0 
0 0 0 0 0 0 0 0 0 
0 0 0 0 0 0 0 0 0 
0 0 0 0 0 0 0 0 0 
0 0 0 0 0 0 0 0 0 
0 0 0 0 0 0 0 0 0 
0 0 0 0 0 0 0 0 0 
0 0 0 0 0 0 0 0 0 
0 0 0 0 0 0 0 0 0 
0 0 0 0 0 0 0 0 0 
0 0 0 0 0 0 0 0 0 
0 0 0 0 0 0 0 0 0 
0 0 0 0 0 0 0 0 0 
0 0 0 0 0 0 0 0 0 
0 0 0 0 0 0 0 0 0 
0 0 0 0 0 0 0 0 0 
0 0 0 0 0 0 0 0 0 
0 0 0 0 0 0 0 0 0 
0 0 0 0 0 0 0 0 0 
0 0 0 0 0 0 0 0 0 
0 0 0 0 0 0 0 0 0 
0 0 0 0 0 0 0 0 0 
0 0 0 0 0 0 0 0 0 
0 0 0 0 0 0 0 0 0 
0 0 0 0 0 0 0 0 0 
0 0 0 0 0 0 0 0 0 
0 0 0 0 0 0 0 0 0 
0 0 0 0 0 0 0 0 0 
0 0 0 0 0 0 0 0 0 
0 0 0 0 0 0 0 0 0 
0 0 0 0 0 0 0 0 0 
0 0 0 0 0 0 0 0 0 
0 0 0 0 0 0 0 0 0 
0 0 0 0 0 0 0 0 0 
0 0 0 0 0 0 0 0 0 
0 0 0 0 0 0 0 0 0 
0 0 0 0 0 0 0 0 0 
0 0 0 0 0 0 0 0 0 
0 0 0 0 0 0 0 0 0 
0 0 0 0 0 0 0 0 0 
0 0 0 0 0 0 0 0 0 
0 0 0 0 0 0 0 0 0 
0 0 0 0 0 0 0 0 0 
0 0 0 0 0 0 0 0 0 
0 0 0 0 0 0 0 0 0 
0 0 0 0 0 0 0 0 0 
0 0 0 0 0 0 0 0 0 
0 0 0 0 0 0 0 0 0 
0 0 0 0 0 0 0 0 0 
0 0 0 0 0 0 0 0 0 
0 0 0 0 0 0 0 0 0 
0 0 0 0 0 0 0 0 0 
0 0 0 0 0 0 0 0 0 
0 0 0 0 0 0 0 0 0 
0 0 0 0 0 0 0 0 0 
0 0 0 0 0 0 0 0 0 
0 0 0 0 0 0 0 0 0 
0 0 0 0 0 0 0 0 0 
0 0 0 0 0 0 0 0 0 
0 0 0 0 0 0 0 0 0 
0 0 0 0 0 0 0 0 0 
0 0 0 0 0 0 0 0 0 
0 0 0 0 0 0 0 0 0 
0 0 0 0 0 0 0 0 0 
0 0 0 0 0 0 0 0 0 
0 0 0 0 0 0 0 0 0 
0 0 0 0 0 0 0 0 0 
0 0 0 0 0 0 0 0 0 
0 0 0 0 0 0 0 0 0 
0 0 0 0 0 0 0 0 0 
0 0 0 0 0 0 0 0 0 
0 0 0 0 0 0 0 0 0 
0 0 0 0 0 0 0 0 0 
0 0 0 0 0 0 0 0 0 
0 0 0 0 0 0 0 0 0 
0 0 0 0 0 0 0 0 0 
0 0 0 0 0 0 0 0 0 
0 0 0 0 0 0 0 0 0 
0 0 0 0 0 0 0 0 0 
0 0 0 0 0 0 0 0 0 
0 0 0 0 0 0 0 0 0 
0 0 0 0 0 0 0 0 0 
0 0 0 0 0 0 0 0 0 
0 0 0 0 0 0 0 0 0 
0 0 0 0 0 0 0 0 0 
0 0 0 0 0 0 0 0 0 
0 0 0 0 0 0 0 0 0 
0 0 0 0 0 0 0 0 0 
0 0 0 0 0 0 0 0 0 
0 0 0 0 0 0 0 0 0 
0 0 0 0 0 0 0 0 0 
0 0 0 0 0 0 0 0 0 
0 0 0 0 0 0 0 0 0 
0 0 0 0 0 0 0 0 0 
0 0 0 0 0 0 0 0 0 
0 0 0 0 0 0 0 0 0 
0 0 0 0 0 0 0 0 0 
0 0 0 0 0 0 0 0 0 
0 0 0 0 0 0 0 0 0 
0 0 0 0 0 0 0 0 0 
0 0 0 0 0 0 0 0 0 
0 0 0 0 0 0 0 0 0 
0 0 0 0 0 0 0 0 0 
0 0 0 0 0 0 0 0 0 
0 0 0 0 0 0 0 0 0 
0 0 0 0 0 0 0 0 0 
0 0 0 0 0 0 0 0 0 
0 0 0 0 0 0 0 0 0 
0 0 0 0 0 0 0 0 0 
0 0 0 0 0 0 0 0 0 
0 0 0 0 0 0 0 0 0 
0 0 0 0 0 0 0 0 0 
0 0 0 0 0 0 0 0 0 
0 0 0 0 0 0 0 0 0 
0 0 0 0 0 0 0 0 0 
0 0 0 0 0 0 0 0 0 
0 0 0 0 0 0 0 0 0 
0 0 0 0 0 0 0 0 0 
0 0 0 0 0 0 0 0 0 
0 0 0 0 0 0 0 0 0 
0 0 0 0 0 0 0 0 0 
0 0 0 0 0 0 0 0 0 
0 0 0 0 0 0 0 0 0 
0 0 0 0 0 0 0 0 0 
0 0 0 0 0 0 0 0 0 
0 0 0 0 0 0 0 0 0 
0 0 0 0 0 0 0 0 0 
0 0 0 0 0 0 0 0 0 
0 0 0 0 0 0 0 0 0 
0 0 0 0 0 0 0 0 0 
0 0 0 0 0 0 0 0 0 
0 0 0 0 0 0 0 0 0 
0 0 0 0 0 0 0 0 0 
0 0 0 0 0 0 0 0 0 
0 0 0 0 0 0 0 0 0 
0 0 0 0 0 0 0 0 0 
0 0 0 0 0 0 0 0 0 
0 0 0 0 0 0 0 0 0 
0 0 0 0 0 0 0 0 0 
0 0 0 0 0 0 0 0 0 
0 0 0 0 0 0 0 0 0 
0 0 0 0 0 0 0 0 0 
0 0 0 0 0 0 0 0 0 
0 0 0 0 0 0 0 0 0 
0 0 0 0 0 0 0 0 0 
0 0 0 0 0 0 0 0 0 
0 0 0 0 0 0 0 0 0 
0 0 0 0 0 0 0 0 0 
0 0 0 0 0 0 0 0 0 
0 0 0 0 0 0 0 0 0 
0 0 0 0 0 0 0 0 0 
0 0 0 0 0 0 0 0 0 
0 0 0 0 0 0 0 0 0 
0 0 0 0 0 0 0 0 0 
0 0 0 0 0 0 0 0 0 
0 0 0 0 0 0 0 0 0 
0 0 0 0 0 0 0 0 0 
0 0 0 0 0 0 0 0 0 
0 0 0 0 0 0 0 0 0 
0 0 0 0 0 0 0 0 0 
0 0 0 0 0 0 0 0 0 
0 0 0 0 0 0 0 0 0 
0 0 0 0 0 0 0 0 0 
0 0 0 0 0 0 0 0 0 
0 0 0 0 0 0 0 0 0 
0 0 0 0 0 0 0 0 0 
0 0 0 0 0 0 0 0 0 
0 0 0 0 0 0 0 0 0 
0 0 0 0 0 0 0 0 0 
0 0 0 0 0 0 0 0 0 
0 0 0 0 0 0 0 0 0 
0 0 0 0 0 0 0 0 0 
0 0 0 0 0 0 0 0 0 
0 0 0 0 0 0 0 0 0 
0 0 0 0 0 0 0 0 0 
0 0 0 0 0 0 0 0 0 
0 0 0 0 0 0 0 0 0 
0 0 0 0 0 0 0 0 0 
0 0 0 0 0 0 0 0 0 
0 0 0 0 0 0 0 0 0 
0 0 0 0 0 0 0 0 0 
0 0 0 0 0 0 0 0 0 
0 0 0 0 0 0 0 0 0 
0 0 0 0 0 0 0 0 0 
0 0 0 0 0 0 0 0 0 
0 0 0 0 0 0 0 0 0 
0 0 0 0 0 0 0 0 0 
0 0 0 0 0 0 0 0 0 
0 0 0 0 0 0 0 0 0 
0 0 0 0 0 0 0 0 0 
0 0 0 0 0 0 0 0 0 
0 0 0 0 0 0 0 0 0 
0 0 0 0 0 0 0 0 0 
0 0 0 0 0 0 0 0 0 
0 0 0 0 0 0 0 0 0 
0 0 0 0 0 0 0 0 0 
0 0 0 0 0 0 0 0 0 
0 0 0 0 0 0 0 0 0 
0 0 0 0 0 0 0 0 0 
0 0 0 0 0 0 0 0 0 
0 0 0 0 0 0 0 0 0 
0 0 0 0 0 0 0 0 0 
0 0 0 0 0 0 0 0 0 
0 0 0 0 0 0 0 0 0 
0 0 0 0 0 0 0 0 0 
0 0 0 0 0 0 0 0 0 
0 0 0 0 0 0 0 0 0 
0 0 0 0 0 0 0 0 0 
0 0 0 0 0 0 0 0 0 
0 0 0 0 0 0 0 0 0 
0 0 0 0 0 0 0 0 0 
0 0 0 0 0 0 0 0 0 
0 0 0 0 0 0 0 0 0 
0 0 0 0 0 0 0 0 0 
0 0 0 0 0 0 0 0 0 
0 0 0 0 0 0 0 0 0 
0 0 0 0 0 0 0 0 0 
0 0 0 0 0 0 0 0 0 
0 0 0 0 0 0 0 0 0 
0 0 0 0 0 0 0 0 0 
0 0 0 0 0 0 0 0 0 
0 0 0 0 0 0 0 0 0 
0 0 0 0 0 0 0 0 0 
0 0 0 0 0 0 0 0 0 
0 0 0 0 0 0 0 0 0 
0 0 0 0 0 0 0 0 0 
0 0 0 0 0 0 0 0 0 
0 0 0 0 0 0 0 0 0 
0 0 0 0 0 0 0 0 0 
0 0 0 0 0 0 0 0 0 
0 0 0 0 0 0 0 0 0 
0 0 0 0 0 0 0 0 0 
0 0 0 0 0 0 0 0 0 
0 0 0 0 0 0 0 0 0 
0 0 0 0 0 0 0 0 0 
0 0 0 0 0 0 0 0 0 
0 0 0 0 0 0 0 0 0 
0 0 0 0 0 0 0 0 0 
0 0 0 0 0 0 0 0 0 
0 0 0 0 0 0 0 0 0 
0 0 0 0 0 0 0 0 0 
0 0 0 0 0 0 0 0 0 
0 0 0 0 0 0 0 0 0 
0 0 0 0 0 0 0 0 0 
0 0 0 0 0 0 0 0 0 
0 0 0 0 0 0 0 0 0 
0 0 0 0 0 0 0 0 0 
0 0 0 0 0 0 0 0 0 
0 0 0 0 0 0 0 0 0 
0 0 0 0 0 0 0 0 0 
0 0 0 0 0 0 0 0 0 
0 0 0 0 0 0 0 0 0 
0 0 0 0 0 0 0 0 0 
0 0 0 0 0 0 0 0 0 
0 0 0 0 0 0 0 0 0 
0 0 0 0 0 0 0 0 0 
0 0 0 0 0 0 0 0 0 
0 0 0 0 0 0 0 0 0 
0 0 0 0 0 0 0 0 0 
0 0 0 0 0 0 0 0 0 
0 0 0 0 0 0 0 0 0 
0 0 0 0 0 0 0 0 0 
0 0 0 0 0 0 0 0 0 
0 0 0 0 0 0 0 0 0 
0 0 0 0 0 0 0 0 0 
0 0 0 0 0 0 0 0 0 
0 0 0 0 0 0 0 0 0 
0 0 0 0 0 0 0 0 0 
0 0 0 0 0 0 0 0 0 
0 0 0 0 0 0 0 0 0 
0 0 0 0 0 0 0 0 0 
0 0 0 0 0 0 0 0 0 
0 0 0 0 0 0 0 0 0 
0 0 0 0 0 0 0 0 0 
0 0 0 0 0 0 0 0 0 
0 0 0 0 0 0 0 0 0 
0 0 0 0 0 0 0 0 0 
0 0 0 0 0 0 0 0 0 
0 0 0 0 0 0 0 0 0 
0 0 0 0 0 0 0 0 0 
0 0 0 0 0 0 0 0 0 
0 0 0 0 0 0 0 0 0 
0 0 0 0 0 0 0 0 0 
0 0 0 0 0 0 0 0 0 
0 0 0 0 0 0 0 0 0 
0 0 0 0 0 0 0 0 0 
0 0 0 0 0 0 0 0 0 
0 0 0 0 0 0 0 0 0 
0 0 0 0 0 0 0 0 0 
0 0 0 0 0 0 0 0 0 
0 0 0 0 0 0 0 0 0 
0 0 0 0 0 0 0 0 0 
0 0 0 0 0 0 0 0 0 
0 0 0 0 0 0 0 0 0 
0 0 0 0 0 0 0 0 0 
0 0 0 0 0 0 0 0 0 
0 0 0 0 0 0 0 0 0 
0 0 0 0 0 0 0 0 0 
0 0 0 0 0 0 0 0 0 
0 0 0 0 0 0 0 0 0 
0 0 0 0 0 0 0 0 0 
0 0 0 0 0 0 0 0 0 
0 0 0 0 0 0 0 0 0 
0 0 0 0 0 0 0 0 0 
0 0 0 0 0 0 0 0 0 
0 0 0 0 0 0 0 0 0 
0 0 0 0 0 0 0 0 0 
0 0 0 0 0 0 0 0 0 
0 0 0 0 0 0 0 0 0 
0 0 0 0 0 0 0 0 0 
0 0 0 0 0 0 0 0 0 
0 0 0 0 0 0 0 0 0 
0 0 0 0 0 0 0 0 0 
0 0 0 0 0 0 0 0 0 
0 0 0 0 0 0 0 0 0 
0 0 0 0 0 0 0 0 0 
0 0 0 0 0 0 0 0 0 
0 0 0 0 0 0 0 0 0 
0 0 0 0 0 0 0 0 0 
0 0 0 0 0 0 0 0 0 
0 0 0 0 0 0 0 0 0 
0 0 0 0 0 0 0 0 0 
0 0 0 0 0 0 0 0 0 
0 0 0 0 0 0 0 0 0 
0 0 0 0 0 0 0 0 0 
0 0 0 0 0 0 0 0 0 
0 0 0 0 0 0 0 0 0 
0 0 0 0 0 0 0 0 0 
0 0 0 0 0 0 0 0 0 
0 0 0 0 0 0 0 0 0 
0 0 0 0 0 0 0 0 0 
0 0 0 0 0 0 0 0 0 
0 0 0 0 0 0 0 0 0 
0 0 0 0 0 0 0 0 0 
0 0 0 0 0 0 0 0 0 
0 0 0 0 0 0 0 0 0 
0 0 0 0 0 0 0 0 0 
0 0 0 0 0 0 0 0 0 
0 0 0 0 0 0 0 0 0 
0 0 0 0 0 0 0 0 0 
0 0 0 0 0 0 0 0 0 
0 0 0 0 0 0 0 0 0 
0 0 0 0 0 0 0 0 0 
0 0 0 0 0 0 0 0 0 
0 0 0 0 0 0 0 0 0 
0 0 0 0 0 0 0 0 0 
0 0 0 0 0 0 0 0 0 
0 0 0 0 0 0 0 0 0 
0 0 0 0 0 0 0 0 0 
0 0 0 0 0 0 0 0 0 
0 0 0 0 0 0 0 0 0 
0 0 0 0 0 0 0 0 0 
0 0 0 0 0 0 0 0 0 
0 0 0 0 0 0 0 0 0 
0 0 0 0 0 0 0 0 0 
0 0 0 0 0 0 0 0 0 
0 0 0 0 0 0 0 0 0 
0 0 0 0 0 0 0 0 0 
0 0 0 0 0 0 0 0 0 
0 0 0 0 0 0 0 0 0 
0 0 0 0 0 0 0 0 0 
0 0 0 0 0 0 0 0 0 
0 0 0 0 0 0 0 0 0 
0 0 0 0 0 0 0 0 0 
0 0 0 0 0 0 0 0 0 
0 0 0 0 0 0 0 0 0 
0 0 0 0 0 0 0 0 0 
0 0 0 0 0 0 0 0 0 
0 0 0 0 0 0 0 0 0 
0 0 0 0 0 0 0 0 0 
0 0 0 0 0 0 0 0 0 
0 0 0 0 0 0 0 0 0 
0 0 0 0 0 0 0 0 0 
0 0 0 0 0 0 0 0 0 
0 0 0 0 0 0 0 0 0 
0 0 0 0 0 0 0 0 0 
0 0 0 0 0 0 0 0 0 
0 0 0 0 0 0 0 0 0 
0 0 0 0 0 0 0 0 0 
0 0 0 0 0 0 0 0 0 
0 0 0 0 0 0 0 0 0 
0 0 0 0 0 0 0 0 0 
0 0 0 0 0 0 0 0 0 
0 0 0 0 0 0 0 0 0 
0 0 0 0 0 0 0 0 0 
0 0 0 0 0 0 0 0 0 
0 0 0 0 0 0 0 0 0 
0 0 0 0 0 0 0 0 0 
0 0 0 0 0 0 0 0 0 
0 0 0 0 0 0 0 0 0 
0 0 0 0 0 0 0 0 0 
0 0 0 0 0 0 0 0 0 
0 0 0 0 0 0 0 0 0 
0 0 0 0 0 0 0 0 0 
0 0 0 0 0 0 0 0 0 
0 0 0 0 0 0 0 0 0 
0 0 0 0 0 0 0 0 0 
0 0 0 0 0 0 0 0 0 
0 0 0 0 0 0 0 0 0 
0 0 0 0 0 0 0 0 0 
0 0 0 0 0 0 0 0 0 
0 0 0 0 0 0 0 0 0 
0 0 0 0 0 0 0 0 0 
0 0 0 0 0 0 0 0 0 
0 0 0 0 0 0 0 0 0 
0 0 0 0 0 0 0 0 0 
0 0 0 0 0 0 0 0 0 
0 0 0 0 0 0 0 0 0 
0 0 0 0 0 0 0 0 0 
0 0 0 0 0 0 0 0 0 
0 0 0 0 0 0 0 0 0 
0 0 0 0 0 0 0 0 0 
0 0 0 0 0 0 0 0 0 
0 0 0 0 0 0 0 0 0 
0 0 0 0 0 0 0 0 0 
0 0 0 0 0 0 0 0 0 
0 0 0 0 0 0 0 0 0 
0 0 0 0 0 0 0 0 0 
0 0 0 0 0 0 0 0 0 
0 0 0 0 0 0 0 0 0 
0 0 0 0 0 0 0 0 0 
0 0 0 0 0 0 0 0 0 
0 0 0 0 0 0 0 0 0 
0 0 0 0 0 0 0 0 0 
0 0 0 0 0 0 0 0 0 
0 0 0 0 0 0 0 0 0 
0 0 0 0 0 0 0 0 0 
0 0 0 0 0 0 0 0 0 
0 0 0 0 0 0 0 0 0 
0 0 0 0 0 0 0 0 0 
0 0 0 0 0 0 0 0 0 
0 0 0 0 0 0 0 0 0 
0 0 0 0 0 0 0 0 0 
0 0 0 0 0 0 0 0 0 
0 0 0 0 0 0 0 0 0 
0 0 0 0 0 0 0 0 0 
0 0 0 0 0 0 0 0 0 
0 0 0 0 0 0 0 0 0 
0 0 0 0 0 0 0 0 0 
0 0 0 0 0 0 0 0 0 
0 0 0 0 0 0 0 0 0 
0 0 0 0 0 0 0 0 0 
0 0 0 0 0 0 0 0 0 
0 0 0 0 0 0 0 0 0 
0 0 0 0 0 0 0 0 0 
0 0 0 0 0 0 0 0 0 
0 0 0 0 0 0 0 0 0 
0 0 0 0 0 0 0 0 0 
0 0 0 0 0 0 0 0 0 
0 0 0 0 0 0 0 0 0 
0 0 0 0 0 0 0 0 0 
0 0 0 0 0 0 0 0 0 
0 0 0 0 0 0 0 0 0 
0 0 0 0 0 0 0 0 0 
0 0 0 0 0 0 0 0 0 
0 0 0 0 0 0 0 0 0 
0 0 0 0 0 0 0 0 0 
0 0 0 0 0 0 0 0 0 
0 0 0 0 0 0 0 0 0 
0 0 0 0 0 0 0 0 0 
0 0 0 0 0 0 0 0 0 
0 0 0 0 0 0 0 0 0 
0 0 0 0 0 0 0 0 0 
0 0 0 0 0 0 0 0 0 
0 0 0 0 0 0 0 0 0 
0 0 0 0 0 0 0 0 0 
0 0 0 0 0 0 0 0 0 
0 0 0 0 0 0 0 0 0 
0 0 0 0 0 0 0 0 0 
0 0 0 0 0 0 0 0 0 
0 0 0 0 0 0 0 0 0 
0 0 0 0 0 0 0 0 0 
0 0 0 0 0 0 0 0 0 
0 0 0 0 0 0 0 0 0 
0 0 0 0 0 0 0 0 0 
0 0 0 0 0 0 0 0 0 
0 0 0 0 0 0 0 0 0 
0 0 0 0 0 0 0 0 0 
0 0 0 0 0 0 0 0 0 
0 0 0 0 0 0 0 0 0 
0 0 0 0 0 0 0 0 0 
0 0 0 0 0 0 0 0 0 
0 0 0 0 0 0 0 0 0 
0 0 0 0 0 0 0 0 0 
0 0 0 0 0 0 0 0 0 
0 0 0 0 0 0 0 0 0 
0 0 0 0 0 0 0 0 0 
0 0 0 0 0 0 0 0 0 
0 0 0 0 0 0 0 0 0 
0 0 0 0 0 0 0 0 0 
0 0 0 0 0 0 0 0 0 
0 0 0 0 0 0 0 0 0 
0 0 0 0 0 0 0 0 0 
0 0 0 0 0 0 0 0 0 
0 0 0 0 0 0 0 0 0 
0 0 0 0 0 0 0 0 0 
0 0 0 0 0 0 0 0 0 
0 0 0 0 0 0 0 0 0 
0 0 0 0 0 0 0 0 0 
0 0 0 0 0 0 0 0 0 
0 0 0 0 0 0 0 0 0 
0 0 0 0 0 0 0 0 0 
0 0 0 0 0 0 0 0 0 
0 0 0 0 0 0 0 0 0 
0 0 0 0 0 0 0 0 0 
0 0 0 0 0 0 0 0 0 
0 0 0 0 0 0 0 0 0 
0 0 0 0 0 0 0 0 0 
0 0 0 0 0 0 0 0 0 
0 0 0 0 0 0 0 0 0 
0 0 0 0 0 0 0 0 0 
0 0 0 0 0 0 0 0 0 
0 0 0 0 0 0 0 0 0 
0 0 0 0 0 0 0 0 0 
0 0 0 0 0 0 0 0 0 
0 0 0 0 0 0 0 0 0 
0 0 0 0 0 0 0 0 0 
0 0 0 0 0 0 0 0 0 
0 0 0 0 0 0 0 0 0 
0 0 0 0 0 0 0 0 0 
0 0 0 0 0 0 0 0 0 
0 0 0 0 0 0 0 0 0 
0 0 0 0 0 0 0 0 0 
0 0 0 0 0 0 0 0 0 
0 0 0 0 0 0 0 0 0 
0 0 0 0 0 0 0 0 0 
0 0 0 0 0 0 0 0 0 
0 0 0 0 0 0 0 0 0 
0 0 0 0 0 0 0 0 0 
0 0 0 0 0 0 0 0 0 
0 0 0 0 0 0 0 0 0 
0 0 0 0 0 0 0 0 0 
0 0 0 0 0 0 0 0 0 
0 0 0 0 0 0 0 0 0 
0 0 0 0 0 0 0 0 0 
0 0 0 0 0 0 0 0 0 
0 0 0 0 0 0 0 0 0 
0 0 0 0 0 0 0 0 0 
0 0 0 0 0 0 0 0 0 
0 0 0 0 0 0 0 0 0 
0 0 0 0 0 0 0 0 0 
0 0 0 0 0 0 0 0 0 
0 0 0 0 0 0 0 0 0 
0 0 0 0 0 0 0 0 0 
0 0 0 0 0 0 0 0 0 
0 0 0 0 0 0 0 0 0 
0 0 0 0 0 0 0 0 0 
0 0 0 0 0 0 0 0 0 
0 0 0 0 0 0 0 0 0 
0 0 0 0 0 0 0 0 0 
0 0 0 0 0 0 0 0 0 
0 0 0 0 0 0 0 0 0 
0 0 0 0 0 0 0 0 0 
0 0 0 0 0 0 0 0 0 
0 0 0 0 0 0 0 0 0 
0 0 0 0 0 0 0 0 0 
0 0 0 0 0 0 0 0 0 
0 0 0 0 0 0 0 0 0 
0 0 0 0 0 0 0 0 0 
0 0 0 0 0 0 0 0 0 
0 0 0 0 0 0 0 0 0 
0 0 0 0 0 0 0 0 0 
0 0 0 0 0 0 0 0 0 
0 0 0 0 0 0 0 0 0 
0 0 0 0 0 0 0 0 0 
0 0 0 0 0 0 0 0 0 
0 0 0 0 0 0 0 0 0 
0 0 0 0 0 0 0 0 0 
0 0 0 0 0 0 0 0 0 
0 0 0 0 0 0 0 0 0 
0 0 0 0 0 0 0 0 0 
0 0 0 0 0 0 0 0 0 
0 0 0 0 0 0 0 0 0 
0 0 0 0 0 0 0 0 0 
0 0 0 0 0 0 0 0 0 
0 0 0 0 0 0 0 0 0 
0 0 0 0 0 0 0 0 0 
0 0 0 0 0 0 0 0 0 
0 0 0 0 0 0 0 0 0 
0 0 0 0 0 0 0 0 0 
0 0 0 0 0 0 0 0 0 
0 0 0 0 0 0 0 0 0 
0 0 0 0 0 0 0 0 0 
0 0 0 0 0 0 0 0 0 
0 0 0 0 0 0 0 0 0 
0 0 0 0 0 0 0 0 0 
0 0 0 0 0 0 0 0 0 
0 0 0 0 0 0 0 0 0 
0 0 0 0 0 0 0 0 0 
0 0 0 0 0 0 0 0 0 
0 0 0 0 0 0 0 0 0 
0 0 0 0 0 0 0 0 0 
0 0 0 0 0 0 0 0 0 
0 0 0 0 0 0 0 0 0 
0 0 0 0 0 0 0 0 0 
0 0 0 0 0 0 0 0 0 
0 0 0 0 0 0 0 0 0 
0 0 0 0 0 0 0 0 0 
0 0 0 0 0 0 0 0 0 
0 0 0 0 0 0 0 1.3125460236e-11 1.521496134e-11 
3.3487978424e-11 3.3487978424e-11 -3.6017766218e-12 -1.5631263973e-13 2.9485532615e-12 -3.6017766218e-12 -5.2192042545e-12 3.6303400262e-11 1.4976650399e-10 
1.4976650399e-10 -2.7880098881e-10 -1.7219210368e-10 -1.1548090751e-10 -2.7880098881e-10 -2.374716532e-12 5.0122193871e-12 9.9609271449e-12 9.9609271449e-12 
1.1211325151e-11 1.3857839946e-11 2.8562734902e-11 2.8562734902e-11 1.7637316449e-12 4.0995346703e-12 1.0084623685e-11 1.0084623685e-11 -8.7572189325e-12 
-2.0193995504e-12 -6.1918151717e-13 -8.7572189325e-12 3.3617347395e-13 3.3373579019e-12 7.2552286242e-12 7.2552286242e-12 -9.8716911717e-14 9.9219677509e-13 
3.3565891366e-12 3.3565891366e-12 -4.7226439762e-12 -1.339750008e-12 5.9801898415e-13 -4.7226439762e-12 1.5420234003e-12 2.3849954799e-12 3.7057611198e-12 
3.7057611198e-12 2.1071612047e-12 3.4852242369e-12 4.3244445584e-12 4.3244445584e-12 1.3441241552e-12 1.8299163393e-12 2.6951095054e-12 2.6951095054e-12 
3.6968894113e-14 1.934441002e-12 6.0083201039e-12 6.0083201039e-12 -2.1165480714e-12 -6.177044232e-14 1.8140271138e-12 -2.1165480714e-12 -5.2005807698e-12 
-4.9736561737e-13 1.1443003871e-12 -5.2005807698e-12 -8.9354286908e-13 1.1340633791e-12 4.3131294899e-12 4.3131294899e-12 -2.2358806298e-11 -9.4881098717e-12 
-8.7109138306e-12 -2.2358806298e-11 -1.21546002e-11 -3.8840274155e-12 -6.5806238472e-13 -1.21546002e-11 -1.5707540898e-11 -5.9636144734e-12 -5.303784629e-12 
-1.5707540898e-11 -3.0877843405e-14 3.7936661422e-12 5.8504717012e-12 5.8504717012e-12 2.5355574972e-13 6.6318483348e-12 1.4567335916e-11 1.4567335916e-11 
-2.0487362739e-11 -2.0249101026e-13 9.587621749e-12 -2.0487362739e-11 4.221819438e-13 1.4763669524e-12 1.0244521104e-11 1.0244521104e-11 -1.6835703972e-11 
-7.1559324798e-12 1.6281964518e-12 -1.6835703972e-11 5.9892699129e-12 7.3699282709e-12 2.0554671816e-11 2.0554671816e-11 -1.532049344e-11 5.7305891984e-12 
1.8798395242e-11 1.8798395242e-11 -2.6249208899e-11 -9.7852683346e-13 1.1181505733e-11 -2.6249208899e-11 -1.6371264171e-11 -7.6223657818e-12 -5.1497700469e-12 
-1.6371264171e-11 1.0057976788e-11 2.1103220007e-11 3.3804203205e-11 3.3804203205e-11 -1.1561985042e-11 -1.0194981898e-12 3.372993232e-12 -1.1561985042e-11 
-4.0169436125e-11 -1.6758469506e-11 -4.0476943683e-12 -4.0169436125e-11 -2.7128933753e-11 -3.1079721272e-12 4.7364818805e-12 -2.7128933753e-11 -3.3920456928e-11 
-2.3485407448e-11 -1.4845435624e-11 -3.3920456928e-11 -2.9462939569e-11 -1.1456184467e-11 -6.6123759642e-12 -2.9462939569e-11 2.1455383809e-11 2.675425232e-11 
7.615566387e-11 7.615566387e-11 3.2682759796e-12 1.5501847261e-11 5.2570376759e-11 5.2570376759e-11 1.2819474822e-11 2.9040613484e-11 6.4088211695e-11 
6.4088211695e-11 -8.9599069636e-12 8.6706752578e-12 5.3516311706e-11 5.3516311706e-11 2.4054235423e-11 2.5353756928e-11 5.9636807649e-11 5.9636807649e-11 
2.275793121e-11 4.0762043414e-11 1.2712652538e-10 1.2712652538e-10 4.9164988397e-12 1.29439336e-11 4.7833457561e-11 4.7833457561e-11 -3.1240291777e-12 
1.0189373737e-11 3.0942445441e-11 3.0942445441e-11 2.2940743492e-11 3.9703630396e-11 7.3560326112e-11 7.3560326112e-11 -9.6758652905e-12 2.0931573484e-12 
1.9361482942e-11 1.9361482942e-11 7.854359011e-12 1.8989079856e-11 3.1544461133e-11 3.1544461133e-11 -1.3269951441e-11 -2.4224314765e-12 1.0141262917e-11 
-1.3269951441e-11 -9.4416323009e-11 -4.8739780936e-11 -3.7876696055e-11 -9.4416323009e-11 -5.32487762e-11 -1.4347571857e-11 -6.9823519435e-12 -5.32487762e-11 
-6.4118828416e-12 -4.7602330512e-13 4.3013486147e-11 4.3013486147e-11 8.4936341938e-12 3.9859928093e-11 9.7666837713e-11 9.7666837713e-11 3.6501432851e-11 
5.2339591635e-11 9.7069375514e-11 9.7069375514e-11 -2.9679071615e-11 -9.3133449448e-12 1.810635656e-11 -2.9679071615e-11 -1.1000280969e-12 1.5823767636e-11 
2.7777020461e-11 2.7777020461e-11 3.7442511031e-12 1.1857867916e-11 3.9648780981e-11 3.9648780981e-11 -3.7089431262e-11 6.3350885835e-12 5.2854682679e-11 
5.2854682679e-11 -2.3671632337e-11 6.3771063536e-12 3.7452005983e-11 3.7452005983e-11 -7.7558378065e-13 3.5963063e-11 7.9911420781e-11 7.9911420781e-11 
-1.2461098055e-10 -4.4013012312e-11 1.2520928606e-12 -1.2461098055e-10 -1.8974114621e-10 -7.5889697326e-11 -6.6785056466e-11 -1.8974114621e-10 -1.3812734924e-10 
-4.9924810786e-11 -4.1017639969e-11 -1.3812734924e-10 2.7517040259e-11 3.6428702071e-11 8.8449657669e-11 8.8449657669e-11 -2.5638335621e-12 1.9743240173e-11 
6.772089339e-11 6.772089339e-11 -3.0138719382e-11 -1.6025258786e-12 2.668163526e-11 -3.0138719382e-11 -1.1768340626e-10 -5.350058339e-11 -4.2432310347e-11 
-1.1768340626e-10 7.2905888857e-12 7.1367070302e-11 1.7743964081e-10 1.7743964081e-10 -4.3256448346e-11 5.5581732916e-12 5.0954407055e-11 5.0954407055e-11 
-3.762420912e-11 -1.2591902391e-11 1.2572651511e-11 -3.762420912e-11 -6.5626215989e-11 -4.7379269805e-12 4.6563762969e-11 -6.5626215989e-11 2.2397095483e-11 
4.0733021827e-11 8.841528269e-11 8.841528269e-11 -1.7905311881e-10 -8.5673453909e-11 -7.6392727277e-11 -1.7905311881e-10 4.2528880278e-11 4.9759189187e-11 
1.1707863053e-10 1.1707863053e-10 -1.0958241231e-10 -5.4765286358e-11 -2.174470133e-11 -1.0958241231e-10 -6.8524156967e-11 -1.6521699663e-11 2.655665663e-11 
-6.8524156967e-11 3.4171979329e-11 3.9751077749e-11 1.0579424292e-10 1.0579424292e-10 -5.2983787777e-11 5.584432424e-12 4.3250521353e-11 -5.2983787777e-11 
-4.8659036354e-11 -5.052980793e-12 3.0397347147e-11 -4.8659036354e-11 -9.6735689501e-11 -1.6939189198e-11 3.4157786995e-12 -9.6735689501e-11 -3.4147233189e-11 
4.5427847668e-11 1.6272958552e-10 1.6272958552e-10 4.9913598338e-11 9.0172200791e-11 1.9818550087e-10 1.9818550087e-10 4.3941595419e-11 1.2778216051e-10 
3.0719924407e-10 3.0719924407e-10 2.7847351086e-11 4.180814335e-11 9.7675905564e-11 9.7675905564e-11 -3.1326977217e-11 8.4501763344e-12 9.4277970883e-11 
9.4277970883e-11 -1.1011366313e-10 -1.9836448162e-11 9.6151831291e-11 -1.1011366313e-10 -6.2990043034e-11 -2.7398108118e-11 1.1964251152e-11 -6.2990043034e-11 
-2.2504742849e-10 -1.0097207159e-10 -8.2421999924e-11 -2.2504742849e-10 7.2830202629e-11 9.3635487866e-11 2.119937095e-10 2.119937095e-10 7.51619228e-12 
3.5094240643e-11 8.6915567077e-11 8.6915567077e-11 -4.5234564787e-11 -2.7574997328e-11 1.3510962115e-11 -4.5234564787e-11 -9.3872795112e-12 1.6236202196e-12 
6.8377859292e-11 6.8377859292e-11 3.5249278593e-12 4.914365601e-11 1.6262781613e-10 1.6262781613e-10 1.5851949082e-11 5.760789624e-11 1.7887265468e-10 
1.7887265468e-10 1.3556814175e-11 5.3968522458e-11 1.5074636337e-10 1.5074636337e-10 -1.35470379e-10 -5.405033271e-11 -2.440788289e-12 -1.35470379e-10 
-1.0390624719e-11 3.8712032885e-11 1.4006239183e-10 1.4006239183e-10 5.8058709611e-11 6.0641391713e-11 1.4820489868e-10 1.4820489868e-10 -1.2414195321e-10 
-1.8800836716e-11 5.1589619922e-11 -1.2414195321e-10 -1.029954278e-10 -3.6505184353e-11 1.9527212151e-11 -1.029954278e-10 -3.9828992871e-11 -4.1576078228e-14 
4.8269548949e-11 4.8269548949e-11 -2.1974338164e-10 -7.5345050944e-11 -3.3381267419e-11 -2.1974338164e-10 7.9150666125e-12 1.0663739599e-11 1.7329933789e-11 
1.7329933789e-11 2.810559777e-12 6.8556174733e-12 2.622330275e-11 2.622330275e-11 5.8430074903e-11 8.2716032618e-11 1.4360879248e-10 1.4360879248e-10 
-1.8577612144e-10 -5.7190393127e-11 -7.4503854332e-12 -1.8577612144e-10 -6.495869525e-12 7.4501669335e-12 2.7946242591e-11 2.7946242591e-11 -1.1184117066e-11 
1.0263669592e-10 2.8279632114e-10 2.8279632114e-10 -1.838373131e-11 3.1356443163e-12 1.1335320994e-11 -1.838373131e-11 1.3064417189e-11 1.4319882095e-11 
2.9764000716e-11 2.9764000716e-11 -2.4880606701e-11 4.8882369703e-11 9.9182836998e-11 9.9182836998e-11 -3.733998157e-11 3.6035585026e-11 9.2724396544e-11 
9.2724396544e-11 -3.229516672e-12 5.7416098054e-12 1.8940626867e-11 1.8940626867e-11 1.4590730981e-11 1.4992630848e-11 3.6528938171e-11 3.6528938171e-11 
5.8831569268e-11 6.8242901473e-11 1.7589522926e-10 1.7589522926e-10 -1.7650475146e-10 -5.3415707584e-11 -1.4719409602e-12 -1.7650475146e-10 3.9760126842e-12 
9.1029519681e-12 9.7904653477e-12 9.7904653477e-12 5.6199619719e-11 6.4928799129e-11 1.4391388115e-10 1.4391388115e-10 -1.1254346032e-10 -6.7671140001e-12 
1.0024598432e-10 -1.1254346032e-10 -1.6754585699e-11 -9.9300447483e-12 -4.482609553e-12 -1.6754585699e-11 -1.7472764783e-11 -8.9956021404e-12 -6.5387430763e-12 
-1.7472764783e-11 -1.5666008628e-12 6.087791514e-12 1.5757729349e-11 1.5757729349e-11 -6.7497960398e-12 -4.7065780649e-14 1.104692782e-11 1.104692782e-11 
-1.6099669916e-11 -5.0036182291e-12 5.3172981454e-12 -1.6099669916e-11 -8.8269987914e-12 1.0206906221e-12 4.3841669693e-12 -8.8269987914e-12 -1.9786421416e-11 
-6.6053109246e-12 -1.4023876594e-12 -1.9786421416e-11 -4.4355125297e-12 1.3641001796e-12 8.5357923501e-12 8.5357923501e-12 -3.546798112e-12 4.6235410122e-12 
1.39286171e-11 1.39286171e-11 3.6258484357e-12 6.5513237604e-12 1.1950137804e-11 1.1950137804e-11 -9.7956895487e-12 9.6045976218e-13 6.8113807865e-12 
-9.7956895487e-12 6.4310614093e-12 9.6055672096e-12 1.5275161381e-11 1.5275161381e-11 5.8719792733e-12 8.9429996561e-12 1.4530811071e-11 1.4530811071e-11 
3.1882819601e-12 6.8919076095e-12 1.177733043e-11 1.177733043e-11 3.4901857906e-12 3.7738940655e-12 9.2157901439e-12 9.2157901439e-12 -3.5753722155e-12 
3.1210497043e-14 3.5441617185e-12 -3.5753722155e-12 3.6000038881e-12 4.560530236e-12 9.533645876e-12 9.533645876e-12 -1.127152682e-12 4.1474226866e-12 
1.1281559995e-11 1.1281559995e-11 -7.7572421926e-12 -1.9194449119e-12 9.7415610452e-13 -7.7572421926e-12 -6.1707029862e-12 -4.0017354455e-13 4.9517935308e-12 
-6.1707029862e-12 1.7140286091e-12 4.4124177319e-12 1.5056423659e-11 1.5056423659e-11 1.3448982333e-12 4.2919368459e-12 7.4603249208e-12 7.4603249208e-12 
-9.289442753e-12 -8.0932927102e-13 1.2411202404e-13 -9.289442753e-12 -2.8366800864e-11 -9.3581353608e-12 -3.8313037753e-12 -2.8366800864e-11 -1.1160493182e-11 
-1.3769452263e-12 6.4659084079e-12 -1.1160493182e-11 -1.3315011731e-11 -3.10324442e-12 9.3587615119e-13 -1.3315011731e-11 -2.4830650093e-12 1.3148195545e-12 
6.8928354548e-12 6.8928354548e-12 2.7243872015e-11 3.5820091735e-11 5.7017436249e-11 5.7017436249e-11 -3.0172668957e-11 -1.2917772657e-11 -7.6406583858e-12 
-3.0172668957e-11 7.4250195901e-12 1.8719533033e-11 2.3815447377e-11 2.3815447377e-11 -1.7585760211e-11 -9.8652979935e-12 -2.299401795e-12 -1.7585760211e-11 
-2.4640196698e-11 -1.470846345e-11 -6.7949398522e-12 -2.4640196698e-11 8.6103820692e-12 1.1244559946e-11 1.9610057984e-11 1.9610057984e-11 2.5120154298e-11 
2.9570244327e-11 6.0129101375e-11 6.0129101375e-11 -6.4093035409e-12 4.8198367736e-12 1.9890816767e-11 1.9890816767e-11 -4.3254619029e-12 5.718884615e-12 
2.4107007288e-11 2.4107007288e-11 -1.5723321164e-12 6.3681189181e-12 2.5764239198e-11 2.5764239198e-11 -3.0076522342e-11 -9.6208893163e-12 -2.4563783412e-12 
-3.0076522342e-11 -1.8056109082e-11 -1.4249909366e-11 -2.5040815522e-12 -1.8056109082e-11 -1.00148192e-11 -1.693909586e-12 8.3260127856e-12 -1.00148192e-11 
-5.024644012e-12 8.998715411e-12 3.5592078601e-11 3.5592078601e-11 1.883223887e-11 2.7723976972e-11 4.5326384157e-11 4.5326384157e-11 -7.3579197804e-12 
1.7375373512e-12 1.4640952429e-11 1.4640952429e-11 -2.1909524242e-11 -3.2966935648e-12 2.6150669807e-11 2.6150669807e-11 -1.4923711213e-11 4.7587412442e-12 
3.5800309969e-11 3.5800309969e-11 -2.3928000873e-11 -1.1559050912e-11 3.7416017846e-12 -2.3928000873e-11 -2.8743918358e-12 3.853829822e-12 9.4433620138e-12 
9.4433620138e-12 1.2556945169e-11 2.5633484502e-11 7.7303570329e-11 7.7303570329e-11 9.1321625757e-12 1.8628191368e-11 3.1740746056e-11 3.1740746056e-11 
-7.5430226727e-12 1.0508807444e-11 3.7973685229e-11 3.7973685229e-11 -3.5922335587e-12 1.2932194853e-11 4.6691666706e-11 4.6691666706e-11 -2.3015430114e-11 
-8.6511535636e-12 2.2959367762e-13 -2.3015430114e-11 -6.405357597e-12 2.5325128883e-12 1.7904860709e-11 1.7904860709e-11 1.3889215562e-11 1.8310946822e-11 
4.8204237615e-11 4.8204237615e-11 -1.007877824e-12 6.8117778033e-12 2.1922790021e-11 2.1922790021e-11 -7.1738021665e-11 -4.3555938972e-11 -1.5446239363e-11 
-7.1738021665e-11 -4.5549028498e-11 -2.885987519e-11 -1.7444696312e-11 -4.5549028498e-11 4.84276869e-12 1.7741764359e-11 3.8265766951e-11 3.8265766951e-11 
-6.0947535054e-11 -1.1898466226e-11 1.186079128e-11 -6.0947535054e-11 -1.3214865192e-11 1.7656261602e-12 1.5612509032e-11 1.5612509032e-11 -3.2798035139e-11 
-1.5255116706e-11 -1.1447848155e-11 -3.2798035139e-11 -2.5895325106e-11 -1.3989420338e-11 1.1011225444e-11 -2.5895325106e-11 -5.0010641415e-11 -3.2106102256e-11 
-2.4568656329e-11 -5.0010641415e-11 -1.4289100515e-11 1.5405766609e-11 3.3018843906e-11 3.3018843906e-11 1.8020801976e-11 2.8482131991e-11 6.3305066032e-11 
6.3305066032e-11 -1.41262788e-10 -4.9304871354e-11 -2.2340640645e-11 -1.41262788e-10 -1.961589489e-11 1.4319111819e-11 2.2297073071e-11 2.2297073071e-11 
-4.7424672056e-11 2.7094139488e-12 4.0532640107e-11 -4.7424672056e-11 -1.2906056568e-11 2.197888868e-12 1.54786577e-11 1.54786577e-11 -8.3002883054e-11 
-2.2963851038e-11 -1.0606665908e-11 -8.3002883054e-11 -1.0263182356e-10 -3.1914751951e-11 -3.7831244935e-12 -1.0263182356e-10 4.7416910555e-12 1.0490712683e-11 
4.1030396262e-11 4.1030396262e-11 4.0265843505e-11 8.3239159226e-11 1.1355459727e-10 1.1355459727e-10 -5.6880955163e-11 -2.0404127756e-11 -1.2139917081e-11 
-5.6880955163e-11 1.4130744817e-11 1.9351546432e-11 5.3037108751e-11 5.3037108751e-11 -8.1479626031e-12 8.3873389923e-12 7.1269743611e-11 7.1269743611e-11 
-6.4221092522e-11 -1.5848495757e-11 5.5631882782e-12 -6.4221092522e-11 -6.0724418114e-11 -1.72858443e-11 -2.8086375864e-12 -6.0724418114e-11 -3.5056504764e-11 
4.2814753059e-12 3.4013214458e-11 -3.5056504764e-11 -5.7067301457e-11 -3.0336499691e-11 -2.4919498852e-11 -5.7067301457e-11 -4.3005113934e-11 -7.7610765269e-12 
5.4899304609e-12 -4.3005113934e-11 2.2945792711e-12 1.2908675812e-11 2.4598984917e-11 2.4598984917e-11 -4.028940306e-11 -6.5261009574e-12 1.1195864018e-11 
-4.028940306e-11 1.1402918514e-11 1.9407276521e-11 4.3175804965e-11 4.3175804965e-11 1.8806239751e-11 3.3265109889e-11 4.689465036e-11 4.689465036e-11 
-4.0801430328e-11 -3.4743930877e-12 1.5942043415e-11 -4.0801430328e-11 -8.2357355687e-11 -2.9992192679e-11 -1.6906551634e-11 -8.2357355687e-11 -2.1299719752e-11 
5.9812365907e-12 3.2925933162e-11 3.2925933162e-11 -7.7938569311e-12 8.2946046492e-12 3.8964152282e-11 3.8964152282e-11 -6.8889001925e-11 -5.4729138516e-12 
4.6837605777e-11 -6.8889001925e-11 -3.2354307634e-11 3.4223501207e-12 1.9824617513e-11 -3.2354307634e-11 -1.6855291804e-11 2.4220055389e-12 2.8195366265e-11 
2.8195366265e-11 -4.2352546448e-11 -1.7082810194e-11 1.7339456642e-11 -4.2352546448e-11 -2.428205225e-11 -5.4337516739e-12 1.8700263924e-11 -2.428205225e-11 
2.2569381164e-11 3.3374493454e-11 5.1695725382e-11 5.1695725382e-11 -1.0053481238e-10 -2.0459731317e-11 5.6906243693e-11 -1.0053481238e-10 -8.5458421016e-12 
6.5091417443e-12 3.1527010357e-11 3.1527010357e-11 3.9161087596e-12 2.7998826733e-11 1.2958746451e-10 1.2958746451e-10 -3.1904756212e-12 1.8680529085e-11 
6.0505346537e-11 6.0505346537e-11 7.3933686108e-12 2.249791032e-11 1.0165862107e-10 1.0165862107e-10 2.8340061963e-11 6.0632280792e-11 1.8411145725e-10 
1.8411145725e-10 4.8744103526e-13 1.3318575911e-11 4.7169573053e-11 4.7169573053e-11 -1.5540279759e-11 1.9396667699e-11 7.385921206e-11 7.385921206e-11 
-5.3629142234e-11 -1.1312044864e-11 3.2829507098e-11 -5.3629142234e-11 -4.1866650269e-11 -1.8598282074e-11 -4.4136676575e-12 -4.1866650269e-11 -3.6076871128e-11 
2.7251263199e-11 5.1326367929e-11 5.1326367929e-11 -1.9937894336e-11 1.18691431e-11 5.6506051237e-11 5.6506051237e-11 -5.0642506754e-12 9.5739857122e-12 
4.7199464963e-11 4.7199464963e-11 -1.1382468598e-11 1.3685159077e-11 2.0595689521e-11 2.0595689521e-11 -8.5932744106e-11 -4.457275282e-11 -3.9092603074e-11 
-8.5932744106e-11 -1.1313770448e-10 -5.1925278475e-11 -2.4369217042e-11 -1.1313770448e-10 -5.6015537522e-11 -2.1874274676e-11 -5.2902878021e-12 -5.6015537522e-11 
-1.792136095e-10 -6.8521278242e-11 -4.7442312262e-11 -1.792136095e-10 -1.3119723128e-10 -4.3491215896e-11 -2.2433452827e-11 -1.3119723128e-10 -6.2113248571e-12 
5.2199098912e-11 8.7855825945e-11 8.7855825945e-11 -2.2545375527e-10 -9.0546828423e-11 -7.1189216308e-11 -2.2545375527e-10 -1.7243557471e-10 -3.9140045695e-11 
-1.3158379591e-11 -1.7243557471e-10 -3.4298859647e-12 3.4648000421e-11 1.3743568554e-10 1.3743568554e-10 -8.910398767e-11 -8.2537003984e-12 3.8116868069e-11 
-8.910398767e-11 1.0059190124e-10 1.4279892443e-10 2.7066517433e-10 2.7066517433e-10 -8.1119929152e-11 -2.5838674993e-11 -5.3647358559e-12 -8.1119929152e-11 
-8.4122358387e-13 3.608892213e-11 1.1019930145e-10 1.1019930145e-10 -4.6008966911e-11 -3.9571233475e-13 3.5340989246e-11 -4.6008966911e-11 -6.3047018522e-11 
-4.1206499554e-11 -2.4289481924e-11 -6.3047018522e-11 6.0235551965e-11 7.4947911262e-11 2.0326123677e-10 2.0326123677e-10 -8.4332366147e-11 3.2626701266e-11 
1.1768296488e-10 1.1768296488e-10 2.6091471427e-11 4.5890585639e-11 1.1812394293e-10 1.1812394293e-10 4.6936066665e-11 9.7733463081e-11 2.6647487025e-10 
2.6647487025e-10 -7.6552925916e-11 -2.2914848722e-11 7.6141746381e-12 -7.6552925916e-11 -9.5104989892e-11 -7.4234862385e-11 -3.3449347723e-11 -9.5104989892e-11 
-5.0090162295e-11 -2.984366943e-11 5.1918051725e-11 5.1918051725e-11 2.3006823963e-11 8.9132309577e-11 2.3758096646e-10 2.3758096646e-10 -1.2073065464e-10 
-3.4135233201e-11 -9.7011215926e-13 -1.2073065464e-10 5.7968373588e-11 6.776292148e-11 1.5329950493e-10 1.5329950493e-10 5.6828214442e-11 7.2885511564e-11 
1.7507697399e-10 1.7507697399e-10 1.1414296994e-10 1.3979750221e-10 2.6537752785e-10 2.6537752785e-10 1.5064828403e-10 1.5988876533e-10 3.9517695065e-10 
3.9517695065e-10 -1.588963023e-10 -7.0784839641e-11 -4.9609558059e-11 -1.588963023e-10 4.232064779e-11 8.4315086683e-11 2.4143366553e-10 2.4143366553e-10 
1.2351774812e-11 2.3599099607e-11 6.0152825581e-11 6.0152825581e-11 3.5134753534e-11 4.3207482415e-11 1.4245876405e-10 1.4245876405e-10 -3.7982295111e-11 
1.9142805874e-11 1.1095326924e-10 1.1095326924e-10 -9.0183969262e-11 -2.9628806711e-11 -1.4541524027e-11 -9.0183969262e-11 -1.8518518959e-10 -4.9805412844e-11 
-3.9577975674e-12 -1.8518518959e-10 -1.8945475596e-11 1.1311198723e-11 3.5664496873e-11 3.5664496873e-11 -1.6022239609e-11 5.3737551744e-11 1.8733608786e-10 
1.8733608786e-10 -1.2910110396e-10 -1.2930808512e-11 9.4027124674e-12 -1.2910110396e-10 2.1546858122e-11 6.0449092451e-11 1.2148744943e-10 1.2148744943e-10 
-7.7971105833e-11 2.3615596957e-11 5.8258630876e-11 -7.7971105833e-11 -1.8272964596e-10 -4.9832195446e-11 -2.514085859e-11 -1.8272964596e-10 -1.6777176104e-10 
-6.4929538538e-11 -2.8374700418e-11 -1.6777176104e-10 -1.3049904746e-10 -3.0833952285e-11 6.0366997487e-12 -1.3049904746e-10 -5.2917629874e-11 -4.6736131749e-11 
-7.3401383772e-12 -5.2917629874e-11 -5.019659253e-11 -1.2245434468e-11 8.1452269982e-12 -5.019659253e-11 -9.9332706288e-11 -2.480785111e-11 1.0096857398e-11 
-9.9332706288e-11 -2.4359854902e-10 -4.374146124e-11 9.7908110255e-11 -2.4359854902e-10 3.3378497454e-11 6.8530994074e-11 1.6658730847e-10 1.6658730847e-10 
3.5225395436e-11 6.3162072896e-11 1.4022423167e-10 1.4022423167e-10 5.2673666618e-11 6.206115184e-11 1.5614258154e-10 1.5614258154e-10 -8.3934012488e-11 
-1.3185431229e-11 1.1614352372e-10 1.1614352372e-10 -2.0324860163e-11 5.9018676261e-11 2.064611839e-10 2.064611839e-10 -1.4760773676e-11 6.1076663839e-11 
1.9654560984e-10 1.9654560984e-10 5.5267251336e-11 1.0129363724e-10 2.0196341143e-10 2.0196341143e-10 3.7882263106e-11 7.7103152728e-11 1.9817098417e-10 
1.9817098417e-10 -1.3314535857e-11 4.9380398873e-11 3.0920163698e-10 3.0920163698e-10 1.9098148092e-11 8.9980501614e-11 2.7941285029e-10 2.7941285029e-10 
-1.8343220894e-10 -6.2163032729e-11 6.6371416692e-12 -1.8343220894e-10 -1.9752797893e-10 -9.6868948967e-11 -4.0347672099e-11 -1.9752797893e-10 1.3887348083e-11 
7.7263008699e-11 2.2543704322e-10 2.2543704322e-10 3.2731477369e-11 1.0451225607e-10 1.4582476656e-10 1.4582476656e-10 9.8245131484e-11 1.2939246083e-10 
3.1667540769e-10 3.1667540769e-10 3.2806899858e-11 4.7601233961e-11 1.1145226618e-10 1.1145226618e-10 -7.4050916388e-11 -3.0039616839e-11 1.9358983227e-11 
-7.4050916388e-11 5.44244207e-12 4.2520549293e-11 6.5488008637e-11 6.5488008637e-11 -1.1518382934e-10 -3.9384974713e-11 2.463800405e-11 -1.1518382934e-10 
-1.4535024253e-10 -6.8862659586e-11 1.4392002121e-11 -1.4535024253e-10 2.624057054e-11 4.5843676173e-11 9.5750153286e-11 9.5750153286e-11 -3.2899468741e-12 
1.5792161704e-11 6.008633517e-11 6.008633517e-11 -2.5660025603e-11 4.0284274558e-12 2.9322258147e-11 2.9322258147e-11 3.6998711283e-11 6.7827945038e-11 
1.4505994368e-10 1.4505994368e-10 -7.8678582062e-11 -3.0936881948e-11 -1.454743599e-11 -7.8678582062e-11 -2.3811150454e-10 -1.0773495843e-10 -9.9939537025e-11 
-2.3811150454e-10 -1.9639763049e-10 -9.0500595083e-11 -7.529627443e-11 -1.9639763049e-10 -4.1006254433e-11 4.9829261447e-12 5.1635818289e-11 5.1635818289e-11 
1.8132239099e-10 2.1562582579e-10 4.6180978322e-10 4.6180978322e-10 -1.1963235066e-11 7.0706495793e-11 2.6264313927e-10 2.6264313927e-10 4.9574800147e-12 
1.9515522115e-11 1.0768409787e-10 1.0768409787e-10 -2.1506421007e-10 -1.3164241455e-11 1.5956495152e-10 -2.1506421007e-10 -2.4131583504e-10 -7.753512627e-11 
-6.1470138688e-11 -2.4131583504e-10 1.1469199846e-10 1.161883089e-10 2.7475669264e-10 2.7475669264e-10 3.826252555e-11 1.0920159614e-10 1.7769977831e-10 
1.7769977831e-10 6.9477117782e-12 8.6538002229e-11 2.0556498599e-10 2.0556498599e-10 1.2515636649e-11 2.2326105536e-11 1.3091075781e-10 1.3091075781e-10 
-1.522416238e-10 -6.5354437524e-11 -4.9377638677e-11 -1.522416238e-10 -1.6336008911e-11 2.3538035796e-11 7.8473973115e-11 7.8473973115e-11 -2.2590938457e-10 
-6.6149467458e-11 4.0655520278e-12 -2.2590938457e-10 -1.210491564e-10 -6.8955556424e-11 -5.6672987175e-11 -1.210491564e-10 7.4825821901e-11 1.077455892e-10 
2.856105889e-10 2.856105889e-10 -3.3803799925e-10 -1.5351697984e-10 -1.3658802091e-10 -3.3803799925e-10 -2.9506116247e-11 2.8890079182e-11 1.0062283706e-10 
1.0062283706e-10 1.7135072306e-11 6.9651881737e-11 2.1355124596e-10 2.1355124596e-10 1.4626087638e-11 5.5236335777e-11 1.4099287659e-10 1.4099287659e-10 
-4.7485259892e-11 -3.2113192184e-11 1.0469752076e-11 -4.7485259892e-11 -2.5414330115e-10 -6.9877948199e-11 -5.4555065254e-13 -2.5414330115e-10 -1.9531221605e-10 
-8.5261243621e-11 -6.8876940329e-11 -1.9531221605e-10 -4.1317595624e-10 -1.6898268981e-10 -1.4226135395e-10 -4.1317595624e-10 -1.5870854849e-10 -2.4484286764e-11 
8.6453035255e-11 -1.5870854849e-10 -2.6070085178e-10 -1.1336002472e-10 -1.083661235e-10 -2.6070085178e-10 -2.3213492558e-10 -8.2181136164e-11 -5.6182438252e-11 
-2.3213492558e-10 -1.0784978866e-10 -4.2867070039e-11 -3.6372741302e-11 -1.0784978866e-10 2.6511036232e-11 4.2607279861e-11 8.7700683907e-11 8.7700683907e-11 
-1.5677542486e-10 -5.301516399e-11 -2.3529811148e-11 -1.5677542486e-10 9.8413964904e-12 5.8013207642e-11 2.0415019587e-10 2.0415019587e-10 -6.5055922964e-11 
-1.501684113e-11 1.3893124094e-11 -6.5055922964e-11 1.1966433979e-10 1.2651648638e-10 3.0216517383e-10 3.0216517383e-10 1.2296191014e-10 1.5129417347e-10 
3.7921491639e-10 3.7921491639e-10 -5.2736676684e-10 -2.3932437142e-10 -2.2688086174e-10 -5.2736676684e-10 -1.3302340144e-10 -5.6719981497e-11 -1.3219217066e-11 
-1.3302340144e-10 -2.9145433047e-10 -1.1440883462e-10 -8.9573834914e-11 -2.9145433047e-10 -9.3821873562e-11 -1.9268828129e-11 2.0803401691e-11 -9.3821873562e-11 
-3.571333126e-10 -2.0248280096e-10 -1.6424588644e-10 -3.571333126e-10 3.4724255294e-11 6.996317722e-11 1.8240976749e-10 1.8240976749e-10 5.1635000104e-11 
6.8630738035e-11 1.8703996186e-10 1.8703996186e-10 7.4103942433e-11 1.0490947017e-10 1.509315874e-10 1.509315874e-10 -4.7934486994e-11 -8.0773850236e-12 
1.5612473202e-10 1.5612473202e-10 5.6863163356e-11 6.2772797301e-11 1.8359343934e-10 1.8359343934e-10 3.3350679181e-11 6.1178899234e-11 1.7342742159e-10 
1.7342742159e-10 -1.2626763122e-10 -3.4032738784e-11 5.7364700006e-12 -1.2626763122e-10 -1.2624747039e-10 -2.4940420129e-11 5.2828990522e-11 -1.2624747039e-10 
5.6965070603e-12 4.1485887668e-11 1.7786870527e-10 1.7786870527e-10 -2.8063065363e-11 3.6826899139e-11 1.3762746622e-10 1.3762746622e-10 -1.9538655588e-12 
2.7168851263e-11 9.0404414296e-11 9.0404414296e-11 5.7607935674e-12 6.1285353574e-11 1.9659295286e-10 1.9659295286e-10 -1.0837479027e-10 -2.8445083939e-11 
-2.5652257937e-12 -1.0837479027e-10 -1.1510216372e-12 3.2420569014e-12 1.1029971474e-10 1.1029971474e-10 1.8787583405e-11 5.5959226042e-11 1.6707339055e-10 
1.6707339055e-10 -4.0900423689e-11 2.0008258208e-12 1.9297227869e-11 -4.0900423689e-11 -2.8109142949e-11 1.5760850967e-11 1.0800863898e-10 1.0800863898e-10 
-7.1516539345e-11 5.3362870604e-11 2.3376046874e-10 2.3376046874e-10 1.3490700717e-11 3.3657466091e-11 9.8048233191e-11 9.8048233191e-11 -3.5963481723e-11 
-7.7833262121e-12 3.0524357936e-11 -3.5963481723e-11 2.1778883749e-11 3.4506048265e-11 9.6804367986e-11 9.6804367986e-11 -3.8386486856e-12 3.4342935627e-11 
9.7344813059e-11 9.7344813059e-11 -1.8593517324e-10 -6.6200095156e-11 -1.7613931609e-11 -1.8593517324e-10 -6.702457502e-11 8.9365720826e-13 6.2488003812e-11 
-6.702457502e-11 -1.2786673974e-10 -5.4261297099e-11 -3.9916063165e-11 -1.2786673974e-10 -1.0788260266e-10 -4.1873226221e-11 -1.6083771123e-11 -1.0788260266e-10 
-8.9887155156e-11 -2.6365222077e-11 6.0973772329e-12 -8.9887155156e-11 -1.3025280218e-10 -3.8243288474e-11 -2.5793009344e-11 -1.3025280218e-10 -7.2025931671e-11 
-1.8075211181e-11 1.4814132853e-11 -7.2025931671e-11 6.6901055942e-11 1.1432231632e-10 3.0436462774e-10 3.0436462774e-10 -1.5311780327e-10 -5.1214116361e-11 
-3.4105980374e-11 -1.5311780327e-10 -3.845394276e-11 -6.6754883808e-12 1.6853391141e-11 -3.845394276e-11 -1.3195728392e-10 -3.9595037528e-11 5.3657214461e-12 
-1.3195728392e-10 2.2305030799e-12 1.9689205353e-11 9.4383891567e-11 9.4383891567e-11 -4.6910915422e-11 -2.2778517776e-11 -1.5312066802e-11 -4.6910915422e-11 
-5.8497451348e-11 1.0214116753e-12 7.9333584673e-11 7.9333584673e-11 8.3606541865e-11 9.7052387028e-11 2.2682767111e-10 2.2682767111e-10 -1.4786454855e-11 
7.9700793816e-12 4.9047265473e-11 4.9047265473e-11 -4.8732652332e-11 -1.609084389e-11 -6.0399037773e-12 -4.8732652332e-11 1.6876077862e-13 1.2650200451e-11 
6.2988438771e-11 6.2988438771e-11 5.6558159232e-12 3.0400860808e-11 1.0150682327e-10 1.0150682327e-10 -2.9513462097e-10 -1.3168858862e-10 -9.2726790412e-11 
-2.9513462097e-10 -1.5746005495e-10 -7.4376252289e-11 -6.6623292756e-11 -1.5746005495e-10 -5.5789912407e-11 -2.8113255119e-11 -1.7144432474e-11 -5.5789912407e-11 
-6.6567026819e-11 3.8631653244e-12 7.9434301495e-11 7.9434301495e-11 -3.9835326849e-11 5.2622464813e-11 2.1584986204e-10 2.1584986204e-10 2.8526288816e-11 
3.6663578265e-11 7.5062432919e-11 7.5062432919e-11 5.4053487558e-12 1.6503024078e-11 4.9302127167e-11 4.9302127167e-11 2.6906213463e-11 3.2623119652e-11 
8.3893666886e-11 8.3893666886e-11 2.0542562063e-11 2.290127786e-11 6.0311860077e-11 6.0311860077e-11 1.6395560826e-11 1.9016227283e-11 5.453361189e-11 
5.453361189e-11 1.9532553506e-11 2.4376171352e-11 8.6696675142e-11 8.6696675142e-11 -1.1831382282e-11 9.8103559472e-12 5.1894226334e-11 5.1894226334e-11 
3.104392187e-11 3.4134047318e-11 7.6722430812e-11 7.6722430812e-11 3.5814084199e-11 3.9147275562e-11 1.1662944024e-10 1.1662944024e-10 -6.5326782442e-11 
-1.1116262507e-12 3.9453808693e-11 -6.5326782442e-11 -7.5535203953e-12 5.3857941143e-12 1.7780241281e-11 1.7780241281e-11 -6.7091871124e-12 1.2526717409e-11 
7.4731469703e-11 7.4731469703e-11 1.3562217018e-11 2.5808747311e-11 8.457493567e-11 8.457493567e-11 -3.1617844538e-11 7.839485252e-13 2.5706826012e-11 
-3.1617844538e-11 -1.770640702e-11 -4.2901391591e-12 1.4103546179e-11 -1.770640702e-11 -5.6094065701e-11 -9.125450252e-12 2.5147445953e-11 -5.6094065701e-11 
2.4049305581e-11 3.0221101221e-11 7.6065093198e-11 7.6065093198e-11 -6.2736746952e-11 -2.593165859e-11 -2.3857394458e-11 -6.2736746952e-11 -1.5225059893e-11 
1.5530676754e-11 7.0904883139e-11 7.0904883139e-11 -1.2956776687e-11 8.3047631899e-12 3.8787533497e-11 3.8787533497e-11 -1.2387198655e-10 -4.8545162036e-11 
-4.3121951414e-11 -1.2387198655e-10 -6.199942865e-11 -2.649692649e-11 -2.599544486e-11 -6.199942865e-11 -7.806379585e-11 -1.728791012e-11 1.169940597e-11 
-7.806379585e-11 -1.136838546e-10 -5.3807838861e-11 -4.3258306535e-11 -1.136838546e-10 -1.2651847166e-10 -4.793991044e-11 -3.3448217895e-11 -1.2651847166e-10 
-4.1073412712e-11 -1.2167089794e-11 9.091802506e-12 -4.1073412712e-11 -7.4309582521e-11 -2.0279818339e-11 1.323090086e-11 -7.4309582521e-11 -8.8366162127e-11 
-2.9454239966e-11 -1.5232897907e-11 -8.8366162127e-11 -6.9860519923e-11 -2.0830185909e-11 -5.5579416799e-13 -6.9860519923e-11 -2.8407938511e-11 -1.2307735441e-11 
-7.7698260486e-12 -2.8407938511e-11 -9.2401364851e-11 -4.5979470738e-11 -2.231246441e-11 -9.2401364851e-11 -8.102744921e-11 -2.4187468765e-11 -3.2631820252e-12 
-8.102744921e-11 9.4096616776e-12 1.5266204112e-11 3.629973421e-11 3.629973421e-11 -1.0477959438e-10 -4.1966109518e-11 -3.5400296099e-11 -1.0477959438e-10 
-1.7893754853e-11 -3.7944372684e-13 2.070181058e-11 2.070181058e-11 -5.7323638916e-11 -2.4388771599e-11 -1.8641389486e-11 -5.7323638916e-11 -2.8418537081e-11 
-4.7664189596e-12 1.240685604e-11 -2.8418537081e-11 -3.2421538415e-12 1.7838679312e-11 4.976177453e-11 4.976177453e-11 -4.9210617434e-12 7.9678549368e-12 
1.7856626807e-11 1.7856626807e-11 -6.948498925e-11 -2.5528107132e-11 -1.1576103618e-11 -6.948498925e-11 1.7883946198e-11 2.4950722885e-11 5.4830230917e-11 
5.4830230917e-11 -6.3855627179e-11 -9.1976135711e-12 4.1346400751e-11 -6.3855627179e-11 -5.5066485045e-11 -1.7255558495e-11 -8.8325645983e-13 -5.5066485045e-11 
4.7810291769e-11 5.3037244792e-11 1.1691856344e-10 1.1691856344e-10 3.4502739205e-11 4.4867670539e-11 1.1040879026e-10 1.1040879026e-10 -2.4870547865e-11 
9.9758188528e-12 5.9149429012e-11 5.9149429012e-11 -1.1777497798e-11 3.3732049665e-12 2.9394462832e-11 2.9394462832e-11 -5.8203133485e-11 -1.9990674341e-11 
-1.5577692174e-11 -5.8203133485e-11 -5.7141957218e-11 -2.3431479464e-11 -2.2122263318e-11 -5.7141957218e-11 -4.7285859004e-11 -1.9242807087e-11 -1.734513391e-11 
-4.7285859004e-11 -4.2265711518e-11 -1.6795013346e-11 -1.3257975136e-11 -4.2265711518e-11 -3.5330786505e-11 -1.8112447662e-11 -6.1926658332e-12 -3.5330786505e-11 
-3.8344236632e-11 -1.2620233704e-11 2.7391703365e-12 -3.8344236632e-11 -1.5635782673e-11 -9.060061549e-13 9.6607188281e-12 -1.5635782673e-11 -1.1976722225e-11 
-6.5168529742e-12 3.6572519956e-13 -1.1976722225e-11 -2.3362551019e-11 3.6468040258e-13 7.211902616e-12 -2.3362551019e-11 -3.7137154679e-11 -6.0151271661e-12 
2.2705918449e-12 -3.7137154679e-11 -1.2858581517e-11 -3.5558108051e-12 1.3030423222e-12 -1.2858581517e-11 -2.0870319674e-12 7.8185438521e-12 1.0488158115e-11 
1.0488158115e-11 2.0731066923e-11 2.4469845753e-11 6.0183587324e-11 6.0183587324e-11 -6.8478980921e-12 2.1261169142e-12 1.5245761178e-11 1.5245761178e-11 
-2.2816806078e-11 -1.6047938066e-12 7.4212698851e-12 -2.2816806078e-11 -4.5173551876e-11 -1.9998981644e-11 -1.4017566481e-11 -4.5173551876e-11 -3.0838753988e-11 
-6.6354787107e-12 -1.6438073013e-12 -3.0838753988e-11 -1.3459714209e-11 -3.8241708746e-12 4.7938550839e-12 -1.3459714209e-11 5.5460905479e-12 8.7790033635e-12 
2.5612076089e-11 2.5612076089e-11 -1.3441840928e-11 -6.4722767556e-12 -4.0251023165e-12 -1.3441840928e-11 1.4051581378e-11 1.7227540238e-11 3.2674378384e-11 
3.2674378384e-11 7.1857019765e-12 1.5924692801e-11 4.6972505223e-11 4.6972505223e-11 6.9417376246e-12 1.2057932714e-11 3.2868529661e-11 3.2868529661e-11 
-2.2511877235e-12 1.4719759045e-12 2.398287819e-12 2.398287819e-12 -3.4145767235e-12 3.6669859437e-12 1.863680078e-11 1.863680078e-11 1.2866523685e-13 
7.9584721721e-12 1.9148062591e-11 1.9148062591e-11 -1.5683084229e-11 -6.2367664914e-12 -6.1224927953e-13 -1.5683084229e-11 -2.1056734307e-11 -9.0574213119e-12 
-7.0089143815e-12 -2.1056734307e-11 -1.5249945241e-11 -8.1633339803e-12 5.738409221e-12 -1.5249945241e-11 -4.777684193e-13 1.6964997614e-12 4.7660686579e-12 
4.7660686579e-12 4.2183592088e-12 4.4024183106e-12 1.3236692481e-11 1.3236692481e-11 -1.1306526251e-11 -2.4211189505e-12 2.8353520112e-13 -1.1306526251e-11 
-1.0392140149e-11 -2.8915104458e-12 4.4670059533e-13 -1.0392140149e-11 -1.006295479e-11 -2.9771147534e-12 1.7065395433e-12 -1.006295479e-11 -4.2556948602e-12 
8.6022558266e-13 1.0546389277e-11 1.0546389277e-11 -2.4743145836e-11 -1.5157759699e-11 -9.4518944653e-12 -2.4743145836e-11 -7.2363416044e-12 -3.602189546e-12 
2.2516411504e-12 -7.2363416044e-12 -7.7364735655e-14 4.3877452054e-12 1.161054953e-11 1.161054953e-11 -5.899155638e-12 1.6392373144e-13 4.7323540659e-13 
-5.899155638e-12 -2.3303307288e-12 4.6461475751e-13 3.6871779713e-12 3.6871779713e-12 -5.6008539151e-12 -3.6542841391e-12 -1.6736219458e-12 -5.6008539151e-12 
-1.1814150952e-12 3.9604971224e-12 1.1272176973e-11 1.1272176973e-11 -5.4011522584e-12 -3.2361560935e-12 6.7684835182e-13 -5.4011522584e-12 -1.0681769019e-11 
-6.2835711497e-12 5.1780168676e-14 -1.0681769019e-11 -5.0213467298e-12 -1.4419980882e-12 9.3150481806e-13 -5.0213467298e-12 -6.6754129843e-12 -1.3991012471e-12 
6.1520623133e-13 -6.6754129843e-12 -1.9044095491e-12 -8.0674077079e-13 -1.2223268015e-13 -1.9044095491e-12 -3.6345090456e-12 -2.0975507585e-13 3.1503751214e-12 
-3.6345090456e-12 -1.8751762682e-11 -6.1514846194e-12 -2.3511526982e-12 -1.8751762682e-11 -1.0146108694e-11 -4.065397886e-12 -3.4827034197e-12 -1.0146108694e-11 
1.0530048653e-12 1.5565690286e-12 4.4160561061e-12 4.4160561061e-12 6.7091643916e-12 1.1927830295e-11 2.2649435313e-11 2.2649435313e-11 1.2849941568e-12 
7.8570085051e-12 1.8247327338e-11 1.8247327338e-11 4.6702699229e-12 5.3206641664e-12 1.2820665911e-11 1.2820665911e-11 -8.3844067516e-12 -3.8823510156e-12 
-2.1945222328e-12 -8.3844067516e-12 -8.2523604434e-14 6.524838275e-12 1.1266325329e-11 1.1266325329e-11 -1.8638211223e-11 -8.1548241131e-12 -3.5646746637e-12 
-1.8638211223e-11 -1.8268967697e-12 1.9993167413e-12 1.1363489028e-11 1.1363489028e-11 2.4554041756e-12 3.8524084251e-12 7.0495573993e-12 7.0495573993e-12 
-4.9556767768e-11 -2.3903706561e-11 -1.4963025671e-11 -4.9556767768e-11 -6.3530636112e-12 1.7004203809e-12 1.247816923e-11 1.247816923e-11 5.3979474497e-11 
7.219102037e-11 2.3362800513e-10 2.3362800513e-10 2.4506184375e-11 4.0428805054e-11 9.8895210572e-11 9.8895210572e-11 1.5091310049e-10 1.8075092274e-10 
4.5034997677e-10 4.5034997677e-10 3.1408134183e-11 7.6629819236e-11 2.3534074658e-10 2.3534074658e-10 7.4878243566e-12 9.3926781733e-12 2.234159747e-11 
2.234159747e-11 -4.1683517799e-12 -8.7661625189e-14 6.9882004051e-12 6.9882004051e-12 -1.674367494e-11 5.586599952e-12 2.2328699988e-11 2.2328699988e-11 
-1.5572082343e-10 -5.2569746558e-11 -1.7327730014e-11 -1.5572082343e-10 3.6532592868e-13 3.2134034788e-12 7.5708105925e-12 7.5708105925e-12 -1.146851989e-10 
-5.4999782275e-11 -2.2074018828e-11 -1.146851989e-10 7.6489733659e-13 5.5211793893e-11 1.8887210877e-10 1.8887210877e-10 3.3921820601e-12 8.9293162689e-12 
2.2488601671e-11 2.2488601671e-11 9.003912737e-12 1.3078317293e-11 3.431556997e-11 3.431556997e-11 2.4581909382e-12 5.7988238096e-12 1.3094545252e-11 
1.3094545252e-11 7.0248430322e-11 7.944860363e-11 2.0609426605e-10 2.0609426605e-10 -1.6735916763e-10 -3.2763262478e-11 -4.3873098927e-12 -1.6735916763e-10 
-5.5573737056e-12 3.7685357311e-13 8.9246341325e-12 8.9246341325e-12 -4.9900539485e-12 3.6963355329e-12 1.6299032286e-11 1.6299032286e-11 1.2122674226e-10 
1.4226784616e-10 3.5658241158e-10 3.5658241158e-10 7.7788212085e-11 1.3592914695e-10 2.7625564097e-10 2.7625564097e-10 -1.2013579912e-11 -4.2051855946e-12 
5.8419555062e-12 -1.2013579912e-11 -4.1445785438e-12 7.8769365254e-12 2.9605862018e-11 2.9605862018e-11 -8.696568481e-11 -1.6081999594e-11 8.6157814404e-11 
-8.696568481e-11 -1.479022452e-10 -6.0119798866e-11 2.4992844062e-11 -1.479022452e-10 -1.1468876276e-11 -4.5908937102e-12 -3.7334300136e-12 -1.1468876276e-11 
-7.7416405552e-11 -5.3009918117e-11 2.1988723669e-11 -7.7416405552e-11 4.8752312156e-12 8.7666925606e-12 1.5602636224e-11 1.5602636224e-11 -9.8317701724e-12 
4.1674485174e-12 3.7337451655e-11 3.7337451655e-11 -9.2380657269e-11 -2.9805446399e-11 4.5718036683e-12 -9.2380657269e-11 -1.2087882387e-10 -2.7714137357e-11 
3.4043431229e-11 -1.2087882387e-10 -2.2456589565e-11 -1.8584639843e-11 -1.1983470592e-11 -2.2456589565e-11 -5.7124085552e-12 -1.1077303307e-12 3.5083998859e-12 
-5.7124085552e-12 -1.2266402941e-11 -1.6543652169e-12 5.7849181583e-12 -1.2266402941e-11 -2.2934331323e-10 -8.9095663194e-11 -5.5446123572e-11 -2.2934331323e-10 
-1.6290241202e-10 -3.3742772364e-11 4.3763884382e-11 -1.6290241202e-10 -1.2738900973e-11 2.2085486995e-12 8.2535272735e-12 -1.2738900973e-11 -3.1990450091e-11 
-2.1110765267e-11 -4.5783846417e-12 -3.1990450091e-11 -2.222667576e-11 4.9378081782e-11 6.9841293978e-11 6.9841293978e-11 -4.7617794305e-12 2.105180367e-12 
7.5138290635e-12 7.5138290635e-12 2.5850727171e-12 5.9521980029e-12 1.028447928e-11 1.028447928e-11 3.5207205718e-12 1.0823370356e-11 1.2505549073e-11 
1.2505549073e-11 2.9489481135e-12 1.0802612402e-11 1.2153599485e-11 1.2153599485e-11 -5.6208048337e-12 -2.901588711e-12 -1.4956264554e-12 -5.6208048337e-12 
-1.1952898757e-12 -1.0655451438e-13 2.6173473901e-12 2.6173473901e-12 -6.6216528938e-12 -2.1624777639e-12 -9.3031934231e-13 -6.6216528938e-12 -3.3847465746e-12 
-6.4718860526e-13 -1.5754820168e-14 -3.3847465746e-12 -5.7787815275e-12 -1.9251058939e-12 -6.9507257862e-13 -5.7787815275e-12 -7.6419840302e-12 -2.3511506208e-12 
-9.3562534903e-13 -7.6419840302e-12 -9.8892764482e-12 -6.2373882061e-12 -2.2903153457e-12 -9.8892764482e-12 -1.4164400423e-12 1.1828523931e-12 9.4420856492e-12 
9.4420856492e-12 -1.6687949815e-11 -7.8820103201e-12 -5.9900998649e-12 -1.6687949815e-11 -1.1418564846e-11 -5.2190273277e-12 1.2563821734e-12 -1.1418564846e-11 
1.0878497385e-12 6.3236510144e-12 1.5154409247e-11 1.5154409247e-11 -5.8099593477e-12 3.6812778928e-12 6.581135455e-12 6.581135455e-12 -2.4428719494e-11 
-1.0515795855e-11 -5.4311546519e-12 -2.4428719494e-11 -1.801166734e-11 -1.1339802599e-11 -6.6729600611e-12 -1.801166734e-11 -1.772393189e-12 3.3994788315e-12 
5.4563663575e-12 5.4563663575e-12 1.5338678583e-11 1.9692051321e-11 3.4488370096e-11 3.4488370096e-11 -1.5854098508e-11 -4.6252845106e-12 1.5564030187e-12 
-1.5854098508e-11 -2.5962174842e-11 -7.1712487341e-12 -1.7779064237e-12 -2.5962174842e-11 -1.6286681457e-11 4.7779779665e-13 7.7134636602e-12 -1.6286681457e-11 
-1.5656309147e-11 1.4502305767e-12 1.8860918571e-11 1.8860918571e-11 -5.1615881212e-12 4.4333904093e-12 1.4389190712e-11 1.4389190712e-11 1.0950681185e-11 
2.3060140869e-11 4.1680977946e-11 4.1680977946e-11 -2.323879005e-12 8.7409033331e-12 2.4851365672e-11 2.4851365672e-11 -1.0071462725e-11 6.2866373212e-13 
2.4605389925e-12 -1.0071462725e-11 -1.0278656018e-11 -5.6236333918e-12 1.934282941e-11 1.934282941e-11 -5.7539615578e-11 -2.3674691295e-11 -1.2489693127e-11 
-5.7539615578e-11 -9.1669073435e-11 -3.8742038131e-11 -1.1055688433e-11 -9.1669073435e-11 -2.3460388147e-11 3.1519019471e-12 3.89278562e-11 3.89278562e-11 
-1.4950167321e-11 -1.0109513554e-11 1.0892770875e-11 -1.4950167321e-11 -2.0776648476e-11 3.9043093464e-13 1.8767141542e-11 -2.0776648476e-11 -2.2373921666e-11 
1.2355484544e-11 4.6751187122e-11 4.6751187122e-11 -1.4026982716e-11 9.486205323e-12 3.9350857393e-11 3.9350857393e-11 -5.6893483331e-13 9.9642848712e-12 
4.7272219962e-11 4.7272219962e-11 -6.6742515186e-12 8.1411087885e-12 3.162297273e-11 3.162297273e-11 7.1343791961e-12 1.1294873712e-11 5.4429147092e-11 
5.4429147092e-11 -2.2972914844e-11 2.4555619094e-12 1.9404239935e-11 -2.2972914844e-11 1.5082161798e-11 2.1136525814e-11 5.9205612388e-11 5.9205612388e-11 
-4.1927833023e-13 1.4227636867e-11 6.0365541463e-11 6.0365541463e-11 5.7254041339e-12 1.1729543702e-11 6.3498732164e-11 6.3498732164e-11 -2.6013096394e-12 
1.2634314986e-11 2.9431894653e-11 2.9431894653e-11 -5.9017057669e-12 -1.5093285655e-12 1.2571832332e-11 1.2571832332e-11 -1.1227690903e-11 2.350212839e-11 
6.5036362513e-11 6.5036362513e-11 -2.068619066e-11 8.8710989465e-12 3.3470211714e-11 3.3470211714e-11 4.3521679015e-11 4.3905213809e-11 1.0220710718e-10 
1.0220710718e-10 2.0552752081e-11 3.073109917e-11 7.3486148749e-11 7.3486148749e-11 4.7272500972e-11 5.5268455925e-11 1.489220431e-10 1.489220431e-10 
5.0353849443e-11 6.4752639829e-11 1.2805831073e-10 1.2805831073e-10 1.1650944769e-11 2.4371523729e-11 8.1259331502e-11 8.1259331502e-11 3.1862557604e-13 
1.2069428853e-11 3.8612835571e-11 3.8612835571e-11 5.9336488991e-13 8.4623867877e-12 1.2700578322e-11 1.2700578322e-11 4.3850506681e-11 4.8510022522e-11 
1.259106708e-10 1.259106708e-10 -6.0439869649e-12 7.0363054294e-12 6.1240871536e-11 6.1240871536e-11 1.4518948643e-11 2.3142558873e-11 5.9280692484e-11 
5.9280692484e-11 -5.62739513e-12 7.0833541223e-12 4.1955481008e-11 4.1955481008e-11 -3.0643055779e-11 -1.1881632297e-11 -5.5416119242e-12 -3.0643055779e-11 
-1.6746327211e-11 2.3739827812e-12 2.590826443e-11 2.590826443e-11 -2.3691862816e-11 -2.5909311809e-12 1.4645683997e-11 -2.3691862816e-11 -3.8080232635e-11 
-5.5701060811e-12 2.4322598717e-11 -3.8080232635e-11 6.6479883102e-11 7.1033418966e-11 1.6414079793e-10 1.6414079793e-10 3.2321001951e-11 3.5129883181e-11 
7.9176514868e-11 7.9176514868e-11 6.6168068282e-12 5.6771398001e-11 1.8544379517e-10 1.8544379517e-10 4.9046563456e-11 9.6273829632e-11 2.9729430691e-10 
2.9729430691e-10 5.2109982577e-11 7.6074664248e-11 2.1151735317e-10 2.1151735317e-10 -3.6002260452e-13 5.0983870403e-12 7.2370135564e-11 7.2370135564e-11 
1.0309688681e-10 1.0930874637e-10 2.7412736682e-10 2.7412736682e-10 2.0533500649e-11 7.7689464352e-11 2.02217135e-10 2.02217135e-10 -6.9751861095e-11 
2.5946203476e-11 1.2081295762e-10 1.2081295762e-10 9.3432614896e-11 1.3142938479e-10 3.2876100032e-10 3.2876100032e-10 5.2926997524e-11 9.8630884401e-11 
2.8113951807e-10 2.8113951807e-10 7.6438151053e-11 8.9190450401e-11 1.8439489855e-10 1.8439489855e-10 4.0958736519e-11 7.7816996894e-11 2.4561696659e-10 
2.4561696659e-10 -3.832567713e-11 1.0927478557e-11 9.9750598573e-11 9.9750598573e-11 -3.4859449654e-11 -6.3873552414e-12 2.7585874895e-11 -3.4859449654e-11 
5.2759535137e-11 6.6854519917e-11 1.4075394495e-10 1.4075394495e-10 -9.2762365834e-12 3.386056465e-11 8.1768671934e-11 8.1768671934e-11 -9.6911928793e-12 
5.6486307985e-11 1.8442908489e-10 1.8442908489e-10 5.2968894547e-11 7.9806737308e-11 1.9083706814e-10 1.9083706814e-10 -3.4405764857e-11 2.6278267969e-11 
5.9836728888e-11 5.9836728888e-11 -3.0825835929e-10 -1.217124591e-10 -9.0158181611e-11 -3.0825835929e-10 -1.8816454148e-10 -8.7317635331e-11 -5.1368623186e-11 
-1.8816454148e-10 -1.3538213692e-10 -3.5323144397e-11 8.0358131903e-13 -1.3538213692e-10 3.9124101554e-12 1.9135757103e-11 3.2405132741e-11 3.2405132741e-11 
-3.331598853e-11 1.7363541242e-11 1.1289464729e-10 1.1289464729e-10 -1.854120896e-11 3.7165897183e-11 1.2486591178e-10 1.2486591178e-10 -1.1423316992e-10 
-1.4948469522e-11 1.8817394394e-12 -1.1423316992e-10 -6.901258081e-11 -5.3858516784e-11 -1.8494402406e-11 -6.901258081e-11 1.0166415268e-11 5.2530580711e-11 
2.5423690402e-10 2.5423690402e-10 -2.7642607148e-10 -1.2610284009e-10 -1.0271608843e-10 -2.7642607148e-10 -3.2797343973e-10 -1.2897278169e-10 -3.1710778584e-11 
-3.2797343973e-10 -2.3145481132e-10 -9.0035233892e-11 -6.3687854784e-11 -2.3145481132e-10 8.1104776489e-12 6.0793508871e-11 1.7978621348e-10 1.7978621348e-10 
-3.5974227028e-11 5.0185894228e-11 1.444981328e-10 1.444981328e-10 -2.3383995077e-10 -4.0563879786e-11 1.0062313056e-10 -2.3383995077e-10 -7.5329018393e-11 
-1.2020566426e-11 2.5521174819e-11 -7.5329018393e-11 -1.6571872181e-10 -6.8799054306e-11 -3.8296623884e-11 -1.6571872181e-10 -3.2416692268e-10 -1.3018645004e-10 
-1.0969162729e-10 -3.2416692268e-10 -1.9889873734e-10 -6.9914734999e-11 -6.2691927661e-11 -1.9889873734e-10 -1.4295330121e-10 -6.1232849894e-11 -3.0276448896e-11 
-1.4295330121e-10 3.5856122168e-11 5.6320140151e-11 1.1223193768e-10 1.1223193768e-10 6.1005570248e-11 7.8805480627e-11 2.0748114913e-10 2.0748114913e-10 
2.4492578933e-11 4.3515709637e-11 1.4581121143e-10 1.4581121143e-10 2.3239207903e-11 2.6662528538e-11 1.0937476356e-10 1.0937476356e-10 8.8632439317e-11 
1.0829451897e-10 2.1988414172e-10 2.1988414172e-10 -5.3999244609e-11 -8.1251905502e-12 2.7415495159e-11 -5.3999244609e-11 -8.9728575076e-11 -2.8097186458e-11 
2.0681161534e-11 -8.9728575076e-11 -6.6352490307e-11 -1.2495331659e-11 3.6954251966e-11 -6.6352490307e-11 -3.0031867951e-11 5.7445880084e-11 1.7193458787e-10 
1.7193458787e-10 1.1952160522e-10 1.3476551414e-10 3.2564488064e-10 3.2564488064e-10 1.259080617e-10 1.3655723091e-10 3.0188270739e-10 3.0188270739e-10 
5.0757087785e-11 5.5956264544e-11 1.2137414767e-10 1.2137414767e-10 3.7113055342e-11 6.8491686585e-11 1.8309675807e-10 1.8309675807e-10 7.3622356719e-11 
8.765747741e-11 2.5967966587e-10 2.5967966587e-10 1.0115993021e-10 1.2509896243e-10 2.4286810736e-10 2.4286810736e-10 -3.3785538328e-11 1.6546062724e-11 
6.9454675603e-11 6.9454675603e-11 -1.1141173328e-10 -5.5743340939e-11 -4.4640425782e-11 -1.1141173328e-10 2.6811775922e-12 1.0870998039e-11 3.3097424369e-11 
3.3097424369e-11 6.3675064229e-11 7.8764059918e-11 1.8684007585e-10 1.8684007585e-10 1.7395769519e-11 2.200646261e-11 7.636156787e-11 7.636156787e-11 
-3.3559987834e-12 1.6518212561e-12 6.3590075273e-12 6.3590075273e-12 -5.4501648268e-11 -7.0615062325e-12 6.0085845005e-12 -5.4501648268e-11 -4.5781025529e-11 
-1.5028195404e-11 1.5677470934e-11 -4.5781025529e-11 4.5438132147e-12 3.5414107883e-11 7.5198778903e-11 7.5198778903e-11 3.0445085697e-11 3.1043424067e-11 
1.1003229024e-10 1.1003229024e-10 5.6069412629e-11 6.6319175082e-11 1.5295591229e-10 1.5295591229e-10 8.9733650109e-11 1.0702650022e-10 2.6204484967e-10 
2.6204484967e-10 -3.9444179642e-12 2.2563659939e-11 9.2186158025e-11 9.2186158025e-11 -1.1047941281e-10 -4.6946962921e-11 -4.4957624271e-11 -1.1047941281e-10 
-8.7449359118e-11 -1.617972867e-11 -2.1167122118e-12 -8.7449359118e-11 2.914278712e-11 3.2661672922e-11 8.5025339958e-11 8.5025339958e-11 -5.1899370361e-12 
6.6746003882e-12 2.4825266648e-11 2.4825266648e-11 1.5075998555e-11 2.4431761778e-11 4.8327039667e-11 4.8327039667e-11 2.500060449e-11 3.5465890361e-11 
7.2196405149e-11 7.2196405149e-11 5.0457003578e-11 5.5499529644e-11 1.1352886678e-10 1.1352886678e-10 1.7326719439e-11 2.3763982091e-11 9.207819847e-11 
9.207819847e-11 2.8791230179e-11 3.9862463531e-11 1.0145040629e-10 1.0145040629e-10 -6.7728600168e-12 2.0442688705e-12 2.0615771146e-11 2.0615771146e-11 
1.3760297299e-11 2.5310221299e-11 4.0567781402e-11 4.0567781402e-11 3.9770058325e-11 4.7367895356e-11 9.7639046319e-11 9.7639046319e-11 -9.6805516695e-12 
1.5438220736e-11 4.8582530933e-11 4.8582530933e-11 5.1095042554e-12 1.250911383e-11 3.9757281914e-11 3.9757281914e-11 -6.6838390846e-12 1.3099306471e-11 
5.0151032614e-11 5.0151032614e-11 2.1667061554e-11 3.5387552488e-11 9.2709885958e-11 9.2709885958e-11 -1.2688243992e-13 5.6652492713e-12 1.6319143169e-11 
1.6319143169e-11 -2.0856266846e-13 1.1222954815e-11 4.7980577853e-11 4.7980577853e-11 5.0558544965e-11 6.0652044883e-11 1.4278151015e-10 1.4278151015e-10 
1.006572734e-11 1.5028196961e-11 2.4085475699e-11 2.4085475699e-11 2.7840208005e-11 3.1331673739e-11 7.9157818256e-11 7.9157818256e-11 2.5179777754e-11 
4.2491907885e-11 9.8789414362e-11 9.8789414362e-11 -2.2320225805e-11 -3.1265987547e-12 8.6489245595e-12 -2.2320225805e-11 -2.6820024908e-11 3.1360885347e-13 
3.9661367055e-11 3.9661367055e-11 1.7587070068e-11 2.7039261589e-11 7.5893568343e-11 7.5893568343e-11 1.4320818138e-11 2.1006665408e-11 4.4412016455e-11 
4.4412016455e-11 -2.0063014029e-11 -1.129579132e-12 1.6436563161e-11 -2.0063014029e-11 5.8392994977e-12 1.6315336846e-11 3.9977363656e-11 3.9977363656e-11 
-3.5122155201e-11 -1.032756926e-11 3.4549844608e-12 -3.5122155201e-11 -1.7578478994e-11 -1.0141116418e-11 -3.3463845873e-12 -1.7578478994e-11 -4.8800489781e-13 
4.1321181259e-12 1.2445416772e-11 1.2445416772e-11 -3.0524005987e-11 -2.3293811413e-12 1.3424497128e-11 -3.0524005987e-11 -9.3017812166e-13 6.0555780719e-12 
2.432153005e-11 2.432153005e-11 5.4287802251e-12 8.6527676252e-12 1.921067215e-11 1.921067215e-11 -4.5280371808e-12 9.7513978177e-12 3.0092709363e-11 
3.0092709363e-11 -4.9841099427e-11 -1.444742171e-11 3.4719211369e-12 -4.9841099427e-11 -2.9675438706e-11 -1.0807236952e-11 -6.268124342e-12 -2.9675438706e-11 
-8.6151852439e-12 5.4079370687e-12 1.5755078175e-11 1.5755078175e-11 -4.6873806407e-11 -1.5438447422e-11 -1.5399461715e-12 -4.6873806407e-11 -2.5030696904e-11 
-7.9608614306e-12 -4.7531216653e-12 -2.5030696904e-11 -3.0370948964e-11 -1.3702501715e-11 -9.254849321e-12 -3.0370948964e-11 -1.55496823e-11 -8.6704168488e-12 
-4.0124908508e-12 -1.55496823e-11 6.5595664431e-12 9.779828018e-12 2.0089765539e-11 2.0089765539e-11 8.7545715221e-12 1.1808218609e-11 2.0318839869e-11 
2.0318839869e-11 6.5639887903e-13 7.3259117015e-12 1.498831942e-11 1.498831942e-11 7.5591978845e-12 1.3892115894e-11 1.8114836222e-11 1.8114836222e-11 
1.9843117957e-12 2.6323690852e-12 8.9430691191e-12 8.9430691191e-12 -3.574488559e-12 9.9514218031e-14 5.296441341e-12 5.296441341e-12 -4.0228745594e-12 
-7.1866492518e-13 8.9623748455e-13 -4.0228745594e-12 6.1456989117e-13 2.4620074089e-12 1.00784127e-11 1.00784127e-11 1.5273007013e-12 4.3416031007e-12 
7.286086198e-12 7.286086198e-12 -6.2575823508e-12 -1.4229402402e-12 -5.1605440899e-13 -6.2575823508e-12 -1.7100804497e-13 8.5002113803e-13 2.3567579069e-12 
2.3567579069e-12 4.6338171953e-12 8.5221091616e-12 1.0118283643e-11 1.0118283643e-11 3.0409468264e-12 6.0635016185e-12 8.549691555e-12 8.549691555e-12 
-8.2849828651e-12 -5.905483449e-12 -2.8780368589e-13 -8.2849828651e-12 -2.7949555308e-11 -1.5638862142e-11 -1.176368255e-11 -2.7949555308e-11 5.770531222e-12 
1.236785213e-11 1.9852046648e-11 1.9852046648e-11 2.4246548543e-12 6.0468185165e-12 8.8323866292e-12 8.8323866292e-12 -3.0247252757e-12 1.5841936638e-12 
8.483504612e-12 8.483504612e-12 -1.0126871519e-11 4.0616145977e-12 6.0652569209e-12 -1.0126871519e-11 -6.3688154888e-12 -4.6134498293e-12 -1.6667646819e-12 
-6.3688154888e-12 -9.4725366189e-12 -1.9902253672e-12 2.2542659861e-12 -9.4725366189e-12 6.7056661119e-12 1.1213066469e-11 1.6486567419e-11 1.6486567419e-11 
5.5301202888e-12 9.8286329073e-12 1.3582246804e-11 1.3582246804e-11 -3.5718224806e-12 4.7477446626e-13 4.1899200143e-12 4.1899200143e-12 4.4085766925e-12 
7.5362122425e-12 1.5134211065e-11 1.5134211065e-11 -8.1016809319e-12 -9.6399093637e-13 9.702978683e-13 -8.1016809319e-12 3.1812840601e-13 1.4079239024e-12 
5.1550176916e-12 5.1550176916e-12 6.1327390979e-13 2.0683178399e-12 5.4716082503e-12 5.4716082503e-12 -4.9169847375e-12 -1.8830836929e-12 5.3428964304e-12 
5.3428964304e-12 -4.0255965566e-12 -5.8313199582e-13 4.8515934524e-12 4.8515934524e-12 3.7814209388e-12 8.7027563105e-12 1.8116312751e-11 1.8116312751e-11 
-1.0857557344e-12 2.0753948455e-12 7.9152708888e-12 7.9152708888e-12 -9.980246806e-13 8.7704372402e-13 3.5036949566e-12 3.5036949566e-12 -1.5140828163e-12 
2.6318297818e-12 9.8110030346e-12 9.8110030346e-12 -4.4755972361e-12 -8.8044771639e-14 2.1237800774e-13 -4.4755972361e-12 2.4864299491e-13 1.8916942156e-12 
6.0995947895e-12 6.0995947895e-12 5.7330067722e-12 9.2866208908e-12 1.8495272337e-11 1.8495272337e-11 -1.1944135714e-11 -1.8832807386e-12 3.4862645242e-13 
-1.1944135714e-11 -1.4176215354e-11 -2.0883797392e-13 4.5694133278e-12 -1.4176215354e-11 -2.5028075301e-12 5.6926375618e-12 1.4417619968e-11 1.4417619968e-11 
3.1352974396e-12 6.5304844339e-12 1.3232578127e-11 1.3232578127e-11 6.8060410528e-12 1.1792411263e-11 2.1716507684e-11 2.1716507684e-11 8.8954532529e-12 
1.0409620564e-11 2.5797666183e-11 2.5797666183e-11 2.0688729263e-12 2.7551650377e-12 7.5792320359e-12 7.5792320359e-12 2.442939507e-12 8.5852234091e-12 
2.2264057084e-11 2.2264057084e-11 -1.0900278779e-11 -2.7590262916e-12 1.637665071e-12 -1.0900278779e-11 4.0434622486e-15 4.5174040343e-12 1.1568112503e-11 
1.1568112503e-11 -1.0065162242e-11 2.1176713876e-12 2.1608450855e-11 2.1608450855e-11 1.4929588042e-11 1.8734128477e-11 3.8182783481e-11 3.8182783481e-11 
-2.3220702287e-11 -1.2756103795e-11 -9.1548939186e-12 -2.3220702287e-11 -1.5989768258e-11 -1.6829253545e-12 1.2511893612e-11 -1.5989768258e-11 5.5118580475e-12 
1.4298222352e-11 3.56432196e-11 3.56432196e-11 -1.551831085e-11 -2.7029666353e-12 4.4591374855e-12 -1.551831085e-11 1.0671643661e-12 2.2443029325e-11 
3.1336006309e-11 3.1336006309e-11 -1.7116967684e-11 1.5478526818e-12 2.3158525002e-11 2.3158525002e-11 -1.1253809311e-11 6.1011360973e-12 1.7599313214e-11 
1.7599313214e-11 4.2345028048e-12 9.6595017703e-12 3.0832995425e-11 3.0832995425e-11 -5.1686282983e-11 -2.6030256602e-11 -2.1613760415e-11 -5.1686282983e-11 
-6.7569949248e-13 5.308280971e-12 1.0748628521e-11 1.0748628521e-11 1.7953503612e-11 2.0791402109e-11 4.1702994278e-11 4.1702994278e-11 1.5084917381e-11 
2.6051511055e-11 3.3138671564e-11 3.3138671564e-11 -4.3905778499e-11 -1.7023430948e-11 -1.2015890553e-11 -4.3905778499e-11 -3.8513525154e-11 -1.2289946976e-11 
3.5669721302e-12 -3.8513525154e-11 -8.0336928796e-12 5.4231854697e-12 4.401836741e-11 4.401836741e-11 -3.2984743761e-11 -1.0518930956e-11 -1.0209252826e-12 
-3.2984743761e-11 -2.1656477872e-11 -2.3015470468e-13 1.7130596577e-11 -2.1656477872e-11 2.4046156934e-11 3.056740643e-11 6.7019536636e-11 6.7019536636e-11 
2.8429649835e-12 7.7416725011e-12 4.2035342515e-11 4.2035342515e-11 2.9555099551e-11 3.6187805118e-11 8.9384695331e-11 8.9384695331e-11 -2.3796807283e-11 
1.4241646946e-11 4.1474060337e-11 4.1474060337e-11 3.465182417e-13 6.4270663908e-12 2.8947275367e-11 2.8947275367e-11 -9.2087348682e-12 1.1786775029e-11 
4.2755999839e-11 4.2755999839e-11 1.0446659266e-11 2.6360898624e-11 5.9122542109e-11 5.9122542109e-11 -2.6402361541e-11 -9.2026113707e-12 -7.2303708785e-13 
-2.6402361541e-11 4.4533083992e-11 4.8201281079e-11 1.0165583493e-10 1.0165583493e-10 -3.7485603728e-11 -1.2242449627e-11 -3.1954466447e-12 -3.7485603728e-11 
9.1669614174e-12 1.8170722999e-11 5.0580315584e-11 5.0580315584e-11 2.7998280249e-14 7.6775758931e-12 4.3729005827e-11 4.3729005827e-11 4.824993793e-12 
2.7227993246e-11 7.5413112961e-11 7.5413112961e-11 2.1414033715e-11 3.1421688238e-11 5.0501678048e-11 5.0501678048e-11 -5.2926806326e-11 -1.667788048e-11 
-8.8048131938e-12 -5.2926806326e-11 -7.6770580504e-11 -2.7889988185e-11 -1.7377231311e-11 -7.6770580504e-11 7.0582816834e-12 1.1541944928e-11 1.5096803389e-11 
1.5096803389e-11 -4.337961952e-11 1.1047889061e-12 3.8996204614e-11 -4.337961952e-11 -3.3106597485e-11 1.1990980278e-12 3.7574260457e-11 3.7574260457e-11 
8.0628253951e-12 1.052906946e-11 2.8968405145e-11 2.8968405145e-11 3.7439933643e-12 2.0205228082e-11 6.4593978554e-11 6.4593978554e-11 -2.7388916828e-11 
-1.6341897306e-12 1.9187186559e-11 -2.7388916828e-11 4.870572811e-12 1.1784487381e-11 3.9810139808e-11 3.9810139808e-11 1.0211678579e-11 1.4760899491e-11 
2.4813921931e-11 2.4813921931e-11 -2.5401692479e-11 -3.4128125992e-12 1.0114145078e-11 -2.5401692479e-11 -9.0517509246e-11 -3.7953363266e-11 -3.1311627488e-11 
-9.0517509246e-11 -2.2475834078e-11 1.2594091298e-11 6.057914278e-11 6.057914278e-11 4.4467992371e-14 6.8839605684e-12 1.6924061439e-11 1.6924061439e-11 
2.812491672e-11 5.5267932681e-11 1.398375506e-10 1.398375506e-10 -1.7236486074e-11 1.0141383203e-11 2.743474287e-11 2.743474287e-11 -1.266950232e-10 
-4.8176966216e-11 -4.4552710579e-11 -1.266950232e-10 1.7879489092e-11 2.1704286477e-11 5.5638124431e-11 5.5638124431e-11 2.3354962593e-11 3.8351806781e-11 
8.7754130626e-11 8.7754130626e-11 -2.6329115798e-11 -1.5260619365e-11 1.7200251631e-12 -2.6329115798e-11 7.9917585348e-12 1.5219726339e-11 3.9122915126e-11 
3.9122915126e-11 5.1652368439e-12 2.5017614776e-11 7.303314838e-11 7.303314838e-11 3.4644401475e-12 2.7961240711e-11 7.5028519142e-11 7.5028519142e-11 
-1.9899083753e-11 1.4982429076e-11 3.1267074677e-11 3.1267074677e-11 -8.8318487779e-11 -3.4160355581e-11 -2.3151156639e-11 -8.8318487779e-11 -3.1265568495e-11 
-1.2385006357e-11 1.9577485183e-13 -3.1265568495e-11 3.5559293055e-11 4.5235825622e-11 1.1450588132e-10 1.1450588132e-10 -4.574163393e-11 8.22172811e-12 
7.540628582e-11 7.540628582e-11 -4.6740959924e-11 1.1748124822e-11 5.7544245102e-11 5.7544245102e-11 -9.9936082975e-11 -3.9896868345e-11 -1.9342448679e-11 
-9.9936082975e-11 2.9558478646e-11 5.4077150763e-11 1.0883197059e-10 1.0883197059e-10 7.6900626345e-11 8.847529146e-11 1.8580128219e-10 1.8580128219e-10 
-1.6059580029e-11 6.6720576563e-12 5.4490322372e-11 5.4490322372e-11 -3.7822832252e-11 -1.3628349523e-11 3.2427021775e-11 -3.7822832252e-11 -1.9791896088e-10 
-9.1132539139e-11 -5.5082699979e-11 -1.9791896088e-10 -7.7108275941e-11 -1.3173222843e-11 -1.1963012156e-12 -7.7108275941e-11 -6.4940306034e-11 -1.6848956897e-11 
1.1359512931e-11 -6.4940306034e-11 -1.2170080705e-10 -2.9129605121e-11 -5.8156878302e-12 -1.2170080705e-10 -2.3723158879e-10 -9.8750093288e-11 -8.9546017918e-11 
-2.3723158879e-10 -1.0498435014e-11 4.4466501858e-11 9.7523933156e-11 9.7523933156e-11 -1.3001567489e-10 -4.7437389998e-11 -3.6750435111e-11 -1.3001567489e-10 
-4.103385007e-11 -5.6345905438e-12 3.3068250614e-11 -4.103385007e-11 -2.0551278215e-11 -1.9405050299e-12 3.1599075245e-11 3.1599075245e-11 -3.6726126151e-11 
6.7473765688e-13 2.4029757494e-11 -3.6726126151e-11 -1.9557369839e-10 -6.0056507041e-11 -3.3617294569e-11 -1.9557369839e-10 -1.4453523392e-10 -5.6733844969e-11 
-4.4888021106e-11 -1.4453523392e-10 -6.0817203366e-11 -8.0373341944e-12 4.6563347561e-11 -6.0817203366e-11 -9.7930065141e-11 -3.0131508506e-11 -2.1818526353e-11 
-9.7930065141e-11 6.7281291797e-12 4.6791056754e-11 7.3202314066e-11 7.3202314066e-11 3.9105428643e-11 5.3454474699e-11 1.3621539666e-10 1.3621539666e-10 
1.1841870533e-10 1.194230162e-10 2.7799527848e-10 2.7799527848e-10 6.9842289596e-11 7.9387807872e-11 1.9126190253e-10 1.9126190253e-10 -3.4603711708e-11 
1.2450684128e-12 5.4782503295e-11 5.4782503295e-11 -9.1418185904e-11 -3.7775378606e-11 -3.574963549e-11 -9.1418185904e-11 -9.3610416498e-11 1.9757445936e-11 
1.1645491056e-10 1.1645491056e-10 -7.8439272578e-13 2.4815579078e-11 1.0067811365e-10 1.0067811365e-10 1.5363888698e-11 5.2539797729e-11 7.2045113573e-11 
7.2045113573e-11 -1.2996367434e-10 -2.7696365155e-11 3.7530539491e-11 -1.2996367434e-10 -4.9468788066e-11 -2.6086956873e-12 4.3982113753e-11 -4.9468788066e-11 
1.1165900378e-11 3.3004987569e-11 1.0093861205e-10 1.0093861205e-10 -1.0379590561e-10 -3.7311600573e-11 2.9087706178e-11 -1.0379590561e-10 3.3673035754e-11 
4.5731666003e-11 1.1660449824e-10 1.1660449824e-10 -9.4669198838e-11 -2.416692677e-11 8.6378256085e-12 -9.4669198838e-11 8.5293465744e-11 1.0848159148e-10 
3.1947244277e-10 3.1947244277e-10 -1.7911129374e-10 -3.5338443273e-11 3.2303737016e-11 -1.7911129374e-10 -3.2787274841e-11 3.4391870909e-12 4.098519175e-11 
4.098519175e-11 -3.0991097202e-10 -1.2717869275e-10 -9.6699335228e-11 -3.0991097202e-10 7.938964032e-12 3.3558317965e-11 1.41429618e-10 1.41429618e-10 
-8.7520953695e-11 -2.1758103393e-12 8.3220434035e-11 -8.7520953695e-11 1.1374887528e-10 1.2860675703e-10 2.7625336769e-10 2.7625336769e-10 -4.6652591028e-11 
-2.0538275399e-11 -9.1153357345e-13 -4.6652591028e-11 -1.8134605937e-11 -3.6618954791e-12 6.0148371416e-11 6.0148371416e-11 -1.4835637213e-11 7.8773597529e-11 
2.0118563968e-10 2.0118563968e-10 -1.6610947509e-10 -8.0167749516e-11 -2.4613975398e-11 -1.6610947509e-10 -2.9041202627e-10 -1.1471315028e-10 -8.9705023442e-11 
-2.9041202627e-10 -2.9919027509e-10 -1.1106824319e-10 -6.2886481724e-11 -2.9919027509e-10 -2.4719438636e-10 -7.9158618556e-11 -2.3196950829e-12 -2.4719438636e-10 
-1.6583358022e-10 -6.8315635425e-11 -4.5444284354e-11 -1.6583358022e-10 -3.8829169327e-10 -1.6333780399e-10 -1.4853950274e-10 -3.8829169327e-10 -4.4433122703e-10 
-1.8917322647e-10 -1.764385465e-10 -4.4433122703e-10 -3.7372166028e-10 -1.4610564725e-10 -9.592669247e-11 -3.7372166028e-10 5.2786385748e-11 6.9486650593e-11 
1.4720226366e-10 1.4720226366e-10 8.1014045493e-12 4.194997156e-11 1.1752272389e-10 1.1752272389e-10 -6.6198039817e-12 8.841935311e-12 5.6469398671e-11 
5.6469398671e-11 -3.4640734409e-10 -1.5165520985e-10 -1.3835644606e-10 -3.4640734409e-10 1.0673431673e-10 1.226781916e-10 3.1075149167e-10 3.1075149167e-10 
1.7121737861e-10 1.8500665401e-10 4.1765296737e-10 4.1765296737e-10 -3.8941662791e-11 1.3709637327e-11 4.0815645464e-11 4.0815645464e-11 -1.9422325429e-10 
-6.8699188879e-11 2.9572943172e-11 -1.9422325429e-10 3.4700054528e-11 7.0384494506e-11 1.4246015097e-10 1.4246015097e-10 -1.0744173913e-11 1.3482441304e-11 
4.6976832609e-11 4.6976832609e-11 -5.5801011188e-11 5.4899753766e-11 1.8924055742e-10 1.8924055742e-10 -6.7355731604e-12 4.6284157851e-12 6.7041773753e-12 
-6.7355731604e-12 -2.0327347694e-12 2.552983894e-12 5.4500858754e-12 5.4500858754e-12 1.0693685725e-11 1.547360139e-11 2.6897912884e-11 2.6897912884e-11 
-9.3059789909e-12 -7.1879022763e-12 -1.5689287328e-12 -9.3059789909e-12 -4.4490415967e-12 -1.9459226795e-13 2.3084248647e-12 -4.4490415967e-12 -1.4109197995e-11 
-5.8860457952e-12 -3.8354862101e-12 -1.4109197995e-11 7.387734881e-12 9.7880533699e-12 1.7345231749e-11 1.7345231749e-11 1.7053880613e-12 4.5449374454e-12 
1.3785734493e-11 1.3785734493e-11 -6.6204293479e-13 1.0558117816e-12 4.1598811531e-12 4.1598811531e-12 2.7698036759e-12 3.4558468356e-12 5.8070194884e-12 
5.8070194884e-12 -1.5065207715e-11 -3.9422347598e-12 7.9280047494e-13 -1.5065207715e-11 -5.4117191767e-12 -1.7744328218e-12 1.0270199852e-13 -5.4117191767e-12 
7.7929658651e-13 1.3832102436e-12 3.0994931699e-12 3.0994931699e-12 2.3775351484e-12 6.5979054225e-12 8.6786994292e-12 8.6786994292e-12 9.2984145643e-13 
1.5982430717e-12 4.2373454719e-12 4.2373454719e-12 1.9160909119e-12 3.4429399162e-12 8.0995291719e-12 8.0995291719e-12 -2.6904762842e-12 8.6334230283e-13 
1.3414115813e-12 -2.6904762842e-12 -1.0760694964e-11 -5.3088520533e-12 -2.6970029829e-12 -1.0760694964e-11 -1.9202594687e-12 -3.7173471123e-13 3.91106618e-12 
3.91106618e-12 -7.9537795771e-13 5.6865717956e-12 7.3530661621e-12 7.3530661621e-12 -5.1258400383e-12 -4.0435592459e-12 9.2945928421e-13 -5.1258400383e-12 
-2.6248754481e-12 -1.0545453486e-12 2.4651157967e-12 -2.6248754481e-12 -7.833947521e-12 9.7320200776e-13 1.0746524513e-11 1.0746524513e-11 -2.544589683e-11 
-2.1514856984e-11 -9.8081461863e-12 -2.544589683e-11 -2.6775487295e-13 1.919420849e-12 7.9615840239e-12 7.9615840239e-12 -1.1280566019e-11 -9.3882365261e-12 
-2.3095974552e-12 -1.1280566019e-11 -3.0574980754e-12 6.2643305677e-13 7.2882950186e-12 7.2882950186e-12 -1.9878505827e-11 -5.6712616111e-12 -1.5697825622e-12 
-1.9878505827e-11 -9.3179937558e-12 2.7809932415e-12 6.9012879144e-12 -9.3179937558e-12 1.4361514485e-12 5.7507288374e-12 1.1910849714e-11 1.1910849714e-11 
-1.2834572897e-11 -5.2820975138e-12 -4.7122795893e-12 -1.2834572897e-11 -1.9749277972e-12 1.6685587581e-12 7.5922090392e-12 7.5922090392e-12 -1.5660105216e-11 
-7.569065093e-12 -6.6948596906e-12 -1.5660105216e-11 -5.8528533043e-12 5.2407326633e-12 1.0326580641e-11 1.0326580641e-11 -7.2061468796e-12 3.3665501941e-12 
1.2582609686e-11 1.2582609686e-11 1.4334844972e-11 1.5980628025e-11 3.2322427003e-11 3.2322427003e-11 -2.6293325609e-12 1.0223780074e-11 1.9900902487e-11 
1.9900902487e-11 -6.9956198989e-12 5.8999783732e-13 8.8342360616e-12 8.8342360616e-12 6.0403712335e-12 1.3088909638e-11 4.9236119128e-11 4.9236119128e-11 
-1.5596795648e-11 1.5730184631e-12 1.3619004985e-11 -1.5596795648e-11 1.1194115004e-11 1.4369504189e-11 3.1508880807e-11 3.1508880807e-11 -2.9809019977e-11 
-1.0312303258e-11 -6.0222467651e-12 -2.9809019977e-11 -9.5712630985e-12 9.4673585281e-12 2.482374457e-11 2.482374457e-11 -2.1926787157e-11 -6.1406403398e-12 
-5.7000250327e-13 -2.1926787157e-11 -3.3405880666e-11 -9.5906357366e-12 -1.1135359777e-13 -3.3405880666e-11 8.4056760513e-12 1.5455329596e-11 1.6678084353e-11 
1.6678084353e-11 -2.0156844382e-11 -6.6334330814e-12 4.3986346381e-13 -2.0156844382e-11 2.1909564525e-11 3.3360178051e-11 6.5432257424e-11 6.5432257424e-11 
4.5692637315e-12 1.1934301049e-11 3.4323815219e-11 3.4323815219e-11 3.4180436777e-12 5.0860461009e-12 1.1391850221e-11 1.1391850221e-11 -2.3580806658e-11 
-1.729905945e-11 -7.1012389157e-13 -2.3580806658e-11 1.2852810286e-11 1.868273326e-11 2.5536856454e-11 2.5536856454e-11 -2.5387925355e-11 -1.1202529759e-11 
-4.6959748857e-12 -2.5387925355e-11 1.384203203e-11 1.7724245044e-11 3.7870022926e-11 3.7870022926e-11 2.8641732747e-12 5.9526633675e-12 2.0124133358e-11 
2.0124133358e-11 -4.4460369328e-12 1.0996652204e-11 4.2932394729e-11 4.2932394729e-11 1.3812552862e-12 8.0596997489e-12 3.9911924965e-11 3.9911924965e-11 
-6.1615147585e-11 -2.0439851468e-11 -1.2782300948e-11 -6.1615147585e-11 2.0776540718e-13 6.2303489431e-12 3.339111565e-11 3.339111565e-11 -7.4944418743e-11 
-2.9597348927e-11 -1.4257832329e-11 -7.4944418743e-11 -4.2715271503e-11 -2.8075326003e-11 -1.8460902494e-11 -4.2715271503e-11 2.3009425173e-11 2.8987764252e-11 
6.0186010576e-11 6.0186010576e-11 1.0389597132e-11 1.5497275164e-11 4.5930627704e-11 4.5930627704e-11 -1.473894601e-11 9.8241178861e-12 4.8225068124e-11 
4.8225068124e-11 1.2771719687e-11 3.3867518722e-11 1.0053466159e-10 1.0053466159e-10 3.3081564001e-11 4.5329087307e-11 9.6729648692e-11 9.6729648692e-11 
-1.989543803e-11 -1.5284012679e-13 2.6206518156e-11 2.6206518156e-11 -4.7022085609e-11 -1.0462524073e-11 6.4838096823e-12 -4.7022085609e-11 1.9866255194e-11 
2.6720054151e-11 5.4808290654e-11 5.4808290654e-11 -2.0279396062e-11 2.4784370106e-12 1.0888749051e-11 -2.0279396062e-11 -8.4252787349e-12 7.901535718e-12 
4.5800083017e-11 4.5800083017e-11 -2.7108822726e-12 2.2268412993e-11 7.673696928e-11 7.673696928e-11 -1.0486602593e-11 4.2248551887e-12 2.5690660404e-11 
2.5690660404e-11 -7.8350652955e-11 -2.2119314525e-11 4.5397674805e-12 -7.8350652955e-11 -3.4410114351e-11 -1.5853749385e-11 1.1753043736e-11 -3.4410114351e-11 
-4.4637059062e-11 -1.5450869043e-11 -2.0171894725e-14 -4.4637059062e-11 -5.2591578283e-11 -2.5623600166e-11 -1.9415121552e-11 -5.2591578283e-11 -4.6133539519e-11 
-1.360080302e-11 -1.8309574613e-12 -4.6133539519e-11 1.6497673327e-11 2.3804083343e-11 4.075324333e-11 4.075324333e-11 2.2510425046e-12 1.6811365584e-11 
5.0355491911e-11 5.0355491911e-11 -6.6019509206e-11 -2.8479419078e-11 -2.0946871715e-11 -6.6019509206e-11 -9.2359773385e-12 1.2248562354e-11 4.4252014985e-11 
4.4252014985e-11 -1.9197127896e-11 3.5986878098e-12 3.4055950086e-11 3.4055950086e-11 -5.9575540812e-12 1.1306250939e-11 4.0997303142e-11 4.0997303142e-11 
-5.0841537532e-11 -5.2862877308e-12 1.2817545263e-11 -5.0841537532e-11 -1.3281528857e-11 3.872501757e-12 2.39807271e-11 2.39807271e-11 -7.7298941863e-11 
-3.0434502647e-11 -1.5541554896e-12 -7.7298941863e-11 1.0797051145e-11 2.9271949852e-11 4.2604999003e-11 4.2604999003e-11 2.4288859175e-11 3.8574373885e-11 
5.128156694e-11 5.128156694e-11 3.1183734327e-11 4.6952185939e-11 1.2250527973e-10 1.2250527973e-10 -1.0914096522e-11 6.4349079688e-12 2.3821318554e-11 
2.3821318554e-11 -7.754337332e-12 1.3950589483e-11 5.3608347849e-11 5.3608347849e-11 -9.7816024422e-11 -5.7875466302e-11 -4.3252309275e-11 -9.7816024422e-11 
3.5191533368e-11 4.096653789e-11 1.0542752874e-10 1.0542752874e-10 -2.943522097e-11 -3.2330937284e-12 1.6173954698e-11 -2.943522097e-11 1.4982150166e-11 
3.0260119839e-11 8.5396929995e-11 8.5396929995e-11 2.2602377225e-11 3.8204922402e-11 8.3452300373e-11 8.3452300373e-11 8.8639928659e-12 1.7154685369e-11 
5.3098021765e-11 5.3098021765e-11 5.6396370833e-12 1.6425240241e-11 4.3305292676e-11 4.3305292676e-11 -4.0636602152e-11 1.1251879328e-11 6.0835312823e-11 
6.0835312823e-11 -4.9420309684e-11 -9.0190494993e-12 3.5627749183e-11 -4.9420309684e-11 2.9149019035e-11 3.640062154e-11 8.3996759425e-11 8.3996759425e-11 
2.914485349e-11 4.9254409158e-11 1.0253243735e-10 1.0253243735e-10 -7.4064761058e-11 -2.4462317735e-11 -1.0760521207e-11 -7.4064761058e-11 -3.1471063165e-12 
1.4586940158e-11 4.9518416159e-11 4.9518416159e-11 -1.8386034287e-11 2.3796484368e-11 9.1976949919e-11 9.1976949919e-11 -4.7582644676e-11 -1.6232087034e-11 
3.8280317094e-12 -4.7582644676e-11 -9.1714671298e-11 -8.5106598833e-12 3.7341631181e-11 -9.1714671298e-11 -1.9083309062e-10 -9.3283784865e-11 -7.1501824518e-11 
-1.9083309062e-10 -1.9779221509e-10 -8.2098883341e-11 -5.7355201566e-11 -1.9779221509e-10 -5.4582741182e-11 -2.2346739597e-11 -9.5292192217e-12 -5.4582741182e-11 
-5.9641204994e-11 -1.4438676061e-11 5.9919810548e-12 -5.9641204994e-11 -1.6720590412e-10 -7.2802238715e-11 -6.7089457161e-11 -1.6720590412e-10 1.7241130077e-11 
3.6937930926e-11 9.8271538997e-11 9.8271538997e-11 -4.6778536233e-11 -2.4963277999e-11 3.8001414232e-11 -4.6778536233e-11 -2.2126709376e-11 2.5425593684e-11 
1.0588751569e-10 1.0588751569e-10 -5.7258505217e-11 -3.0531376322e-12 4.189464685e-11 -5.7258505217e-11 1.7825160328e-11 5.2845328018e-11 1.4883841165e-10 
1.4883841165e-10 -9.2574591652e-11 -3.1261616971e-11 -2.4516913778e-12 -9.2574591652e-11 2.540992158e-11 8.0642494355e-11 1.6989908406e-10 1.6989908406e-10 
-5.6410840282e-11 6.4953407506e-12 4.3115339531e-11 -5.6410840282e-11 8.1700417114e-11 8.8608888782e-11 2.315248941e-10 2.315248941e-10 -3.4976584119e-10 
-1.4892483883e-10 -1.3361631998e-10 -3.4976584119e-10 -7.9481691858e-11 -3.5704073406e-12 7.0605489198e-11 -7.9481691858e-11 -2.332021404e-10 -1.4011668467e-10 
-1.0681817493e-10 -2.332021404e-10 1.9883415172e-11 3.8746939994e-11 1.0695684483e-10 1.0695684483e-10 -2.6591774658e-10 -1.1425994743e-10 -9.7131305989e-11 
-2.6591774658e-10 -1.0918960776e-11 1.7338151643e-13 1.482217626e-11 1.482217626e-11 -1.292240697e-10 -5.301448182e-11 -1.8300484763e-12 -1.292240697e-10 
8.6740529174e-12 4.3978631756e-11 1.2474651533e-10 1.2474651533e-10 3.2210241194e-11 5.7087554765e-11 1.4350210404e-10 1.4350210404e-10 -6.769233079e-11 
-2.6566572225e-11 2.1487203015e-11 -6.769233079e-11 5.0670767415e-11 5.8621656705e-11 1.5856357588e-10 1.5856357588e-10 -3.8761682506e-11 3.5840412887e-12 
7.0278212175e-12 -3.8761682506e-11 -1.6044384419e-10 -7.5512667651e-11 -6.470558816e-11 -1.6044384419e-10 2.9401623688e-11 3.8404514324e-11 7.5077261989e-11 
7.5077261989e-11 -9.1670068277e-11 -5.2327397274e-12 3.3273148004e-11 -9.1670068277e-11 -3.6265337717e-10 -1.4522714664e-10 -1.2076547619e-10 -3.6265337717e-10 
-2.2366262895e-10 -8.7568705736e-11 -6.0086365317e-11 -2.2366262895e-10 -1.217331549e-11 4.7278923101e-11 1.6454639239e-10 1.6454639239e-10 -4.9953090396e-11 
-2.5762670952e-11 1.0628961349e-11 -4.9953090396e-11 -6.491868283e-11 1.0453944086e-11 9.9580868744e-11 9.9580868744e-11 4.6941211848e-11 5.9401020034e-11 
1.6375456812e-10 1.6375456812e-10 -2.3976594511e-10 -9.8114097659e-11 -7.2403557231e-11 -2.3976594511e-10 -5.0020083869e-11 -3.2190558868e-11 -1.7160057263e-11 
-5.0020083869e-11 1.0982441271e-10 1.2938540563e-10 3.5895818166e-10 3.5895818166e-10 -9.48187799e-11 -2.8628757204e-11 -6.3965628964e-12 -9.48187799e-11 
-1.0337167095e-10 1.4849955683e-12 2.7813955379e-11 -1.0337167095e-10 -2.3411949877e-10 -7.2229246525e-11 -5.8914954707e-11 -2.3411949877e-10 4.0716066929e-11 
9.5471885328e-11 2.5696714774e-10 2.5696714774e-10 -7.6499549959e-11 -1.7537533585e-11 4.872233544e-12 -7.6499549959e-11 -1.2362406723e-10 -5.2020776439e-11 
1.6954436657e-12 -1.2362406723e-10 7.5819822924e-11 9.0984095258e-11 2.1813108182e-10 2.1813108182e-10 -2.2122947997e-10 -8.4778605589e-11 -5.7909814441e-11 
-2.2122947997e-10 -2.6757176439e-10 -1.0605071826e-10 -7.8828517351e-11 -2.6757176439e-10 -3.8877869897e-10 -1.7242335154e-10 -1.3702394949e-10 -3.8877869897e-10 
-2.720641509e-10 -8.3887635107e-11 -6.9662113992e-11 -2.720641509e-10 -3.3309895776e-10 -1.1276331182e-10 -9.9828730425e-11 -3.3309895776e-10 -5.9158048532e-11 
-1.6230431333e-11 1.1637399865e-11 -5.9158048532e-11 -3.6095357994e-11 4.8563661134e-11 1.9760629686e-10 1.9760629686e-10 3.2633504339e-11 5.6834679802e-11 
1.3906421586e-10 1.3906421586e-10 -2.2054660596e-10 -8.5181459117e-11 -7.1173634928e-11 -2.2054660596e-10 -1.1397847134e-10 1.0549907947e-12 8.0380030541e-11 
-1.1397847134e-10 -1.8748578761e-11 1.1496212045e-11 8.7902566716e-11 8.7902566716e-11 2.0494998679e-11 5.3355143578e-11 1.1748955774e-10 1.1748955774e-10 
1.723488892e-11 5.1659523008e-11 1.1633398807e-10 1.1633398807e-10 -4.7581385409e-11 -2.0254415531e-11 -9.3737990603e-12 -4.7581385409e-11 -9.930970848e-11 
-3.5345458744e-11 3.5284467224e-11 -9.930970848e-11 -9.7678766162e-11 -3.3224774931e-11 2.6473141093e-11 -9.7678766162e-11 -7.3639246559e-11 4.4270764733e-11 
1.4192538183e-10 1.4192538183e-10 2.507227319e-11 8.0681969434e-11 1.2213055738e-10 1.2213055738e-10 3.3406273831e-11 3.9174559297e-11 1.3506556687e-10 
1.3506556687e-10 -3.1580691163e-10 -1.6285935256e-10 -1.2885073581e-10 -3.1580691163e-10 -3.989229706e-11 4.4691968817e-11 2.0125842824e-10 2.0125842824e-10 
-1.0235873617e-10 -4.7261438959e-11 -2.4936424871e-11 -1.0235873617e-10 3.99754355e-11 7.6548912413e-11 2.1164185209e-10 2.1164185209e-10 -1.3341989915e-10 
-5.076438029e-11 -1.9697420558e-11 -1.3341989915e-10 -1.5170919567e-10 -4.9440248245e-11 2.0379743915e-11 -1.5170919567e-10 -1.2454582112e-10 1.4385503317e-11 
9.3506937802e-11 -1.2454582112e-10 -1.5158558536e-10 -6.1259511023e-11 -3.1603803613e-11 -1.5158558536e-10 -3.8587525407e-10 -1.5786135149e-10 -1.3465539444e-10 
-3.8587525407e-10 -6.3380274258e-11 6.8703567986e-12 1.0751081746e-10 1.0751081746e-10 -1.8386017438e-10 -7.7045004175e-11 -2.9112021448e-11 -1.8386017438e-10 
-9.0399694194e-11 -3.5502437542e-11 -2.4914768264e-11 -9.0399694194e-11 3.4825642599e-11 6.7434853043e-11 1.9362600436e-10 1.9362600436e-10 -2.0508311209e-13 
1.2720142281e-11 4.3776740831e-11 4.3776740831e-11 -3.5578277284e-11 -2.5403698698e-11 -1.4305024018e-11 -3.5578277284e-11 -5.1554705546e-11 4.2216197312e-11 
1.9221310823e-10 1.9221310823e-10 -1.9611453398e-10 -5.693603269e-11 -2.4904433333e-11 -1.9611453398e-10 3.471739439e-12 8.5919597992e-12 2.8413140762e-11 
2.8413140762e-11 -4.7695865433e-12 1.1134720891e-12 8.9181144542e-12 8.9181144542e-12 -1.2458448337e-11 2.9680060156e-11 1.0906673818e-10 1.0906673818e-10 
-1.7262693695e-12 5.275781686e-12 1.4945307683e-11 1.4945307683e-11 2.3237792253e-12 4.1549761787e-12 1.4444634596e-11 1.4444634596e-11 -1.972800258e-10 
-4.5505901118e-11 -4.3530273078e-11 -1.972800258e-10 -9.6734807225e-12 2.3272676281e-11 6.7097017441e-11 6.7097017441e-11 -3.4151783546e-10 -1.9244493082e-10 
-1.4556323372e-10 -3.4151783546e-10 -1.3535185716e-11 -3.3157427204e-12 2.7852084361e-12 -1.3535185716e-11 2.8139676613e-12 3.4941973431e-12 1.1785004996e-11 
1.1785004996e-11 -2.4847068865e-10 -9.4841408867e-11 -7.4773202481e-11 -2.4847068865e-10 1.2410272289e-11 1.3125214417e-11 3.3405113294e-11 3.3405113294e-11 
-1.9577264002e-12 8.4990602955e-12 1.9332746105e-11 1.9332746105e-11 -1.0979348456e-12 1.7506362404e-11 3.4835272442e-11 3.4835272442e-11 -1.8637116546e-10 
-6.5952724017e-11 -4.4247110519e-11 -1.8637116546e-10 -2.2523079026e-12 4.3859445242e-12 1.2217253378e-11 1.2217253378e-11 -2.6119823536e-11 -1.245113073e-11 
-9.1182457341e-12 -2.6119823536e-11 -6.574224105e-11 -3.3390072182e-11 -1.5343586768e-11 -6.574224105e-11 -9.7136551576e-11 6.8659865711e-12 1.67544665e-10 
1.67544665e-10 1.3892615148e-11 2.6832657572e-11 4.457972728e-11 4.457972728e-11 -7.1220038821e-12 5.8980143791e-12 2.7837549503e-11 2.7837549503e-11 
2.2084237414e-10 2.8826682378e-10 5.8027480208e-10 5.8027480208e-10 4.0430964994e-12 2.8170222196e-11 1.087473813e-10 1.087473813e-10 1.7921892553e-13 
6.4489622053e-12 2.1908028869e-11 2.1908028869e-11 -2.267261127e-11 -2.6291938831e-12 1.3725415153e-11 -2.267261127e-11 -4.8147415567e-11 -4.8782534037e-12 
5.1325644971e-11 5.1325644971e-11 -8.3621163281e-11 8.7359267498e-13 2.0089360606e-11 -8.3621163281e-11 -2.600657526e-15 6.7971291789e-12 2.3158381479e-11 
2.3158381479e-11 7.4596024284e-13 1.2140884004e-11 2.0708975753e-11 2.0708975753e-11 5.7366234538e-11 7.8863392563e-11 2.624674729e-10 2.624674729e-10 
-1.4330390219e-10 -2.5037041219e-11 1.1999043404e-11 -1.4330390219e-10 -1.3107821744e-11 3.516389917e-12 1.3962911827e-11 1.3962911827e-11 1.33680305e-11 
2.0002719892e-11 4.8319049608e-11 4.8319049608e-11 4.4692518639e-13 1.3069506463e-10 2.5531151018e-10 2.5531151018e-10 -1.0566570505e-10 1.1109557268e-11 
1.6785615078e-10 1.6785615078e-10 -1.1607798784e-11 -1.0181435638e-12 7.6675223479e-12 -1.1607798784e-11 5.6549031464e-11 7.0116656815e-11 1.2378541172e-10 
1.2378541172e-10 -4.8311189705e-12 1.3027442404e-12 8.0061297301e-12 8.0061297301e-12 -1.5463767543e-11 -5.9588883261e-12 2.3985258688e-12 -1.5463767543e-11 
-5.8867950138e-11 -8.3726971282e-12 3.5365057266e-11 -5.8867950138e-11 -2.6921205149e-10 -1.3142390379e-10 -7.9882044724e-11 -2.6921205149e-10 -1.8425649213e-11 
-2.0145621338e-12 8.4185513464e-12 -1.8425649213e-11 2.3946685248e-11 3.4581868652e-11 4.60366461e-11 4.60366461e-11 5.4596415425e-11 8.7324048183e-11 
1.5230563639e-10 1.5230563639e-10 -2.3347885861e-11 3.4673629088e-11 1.3681965677e-10 1.3681965677e-10 -1.6085517792e-11 4.4653048237e-13 1.415483831e-11 
-1.6085517792e-11 -1.4484489145e-11 5.6212974834e-12 3.0180981661e-11 3.0180981661e-11 -1.2171570366e-10 -6.3401370532e-12 -1.0653792896e-12 -1.2171570366e-10 
-1.3568859046e-10 1.4495309793e-12 1.0197318948e-10 -1.3568859046e-10 -4.0816249991e-12 3.6894005228e-12 2.3261644476e-11 2.3261644476e-11 1.1413936022e-11 
1.7024433057e-11 4.0939130921e-11 4.0939130921e-11 1.2163801307e-11 4.0520913163e-11 1.1327048553e-10 1.1327048553e-10 -9.0190609536e-12 2.0677832696e-11 
8.5242828257e-11 8.5242828257e-11 8.6858466527e-12 1.064809857e-11 2.4381054778e-11 2.4381054778e-11 -1.0814492593e-10 -6.6392181728e-11 -1.2899892341e-11 
-1.0814492593e-10 -9.5785610076e-11 -5.1000921882e-11 -4.1916668042e-11 -9.5785610076e-11 1.1048116005e-11 1.8336657578e-11 3.3672426417e-11 3.3672426417e-11 
-4.060449082e-11 4.6571759035e-12 1.1220575492e-10 1.1220575492e-10 -3.3006414309e-11 -1.83468597e-11 -1.1638825991e-11 -3.3006414309e-11 1.3935809683e-11 
1.5119943216e-11 3.1438847101e-11 3.1438847101e-11 -1.6482452495e-10 -4.7233934676e-11 1.1366559631e-11 -1.6482452495e-10 -1.2092570551e-11 -1.4973005941e-12 
1.9527611449e-12 -1.2092570551e-11 -8.224235605e-11 -2.2852444164e-11 6.2897700213e-11 -8.224235605e-11 -1.0331057659e-11 -1.3710125147e-12 3.5055001742e-12 
-1.0331057659e-11 1.8672592307e-11 5.4145814144e-11 6.0350493549e-11 6.0350493549e-11 -2.3486755533e-13 4.0022570928e-12 6.1747404625e-12 6.1747404625e-12 
2.4180068857e-12 4.3586524858e-12 1.1811560629e-11 1.1811560629e-11 3.9630717745e-12 6.4292293998e-12 8.2893388256e-12 8.2893388256e-12 -1.1080224762e-11 
-3.9342462952e-12 -2.0792289424e-12 -1.1080224762e-11 -1.7257169422e-11 -7.4956830669e-12 -6.5388575108e-12 -1.7257169422e-11 -2.5858289028e-12 8.8608779946e-13 
4.9690271033e-12 4.9690271033e-12 -1.7574616105e-12 1.4997264352e-12 4.2742821753e-12 4.2742821753e-12 1.7836829704e-12 2.0138541365e-12 6.1037328931e-12 
6.1037328931e-12 -4.0425895073e-12 1.7312453855e-12 5.3004081218e-12 5.3004081218e-12 9.8326655713e-12 1.2481402617e-11 2.2428531811e-11 2.2428531811e-11 
4.3051151911e-12 7.5791090347e-12 1.4550275774e-11 1.4550275774e-11 -5.3473395017e-12 7.9266471637e-15 6.7405318546e-12 6.7405318546e-12 -7.2911843132e-12 
1.4274218814e-12 1.0067130432e-11 1.0067130432e-11 -2.3169880557e-11 -1.2575543492e-11 -7.6893759516e-12 -2.3169880557e-11 -6.0878513927e-12 -9.699666002e-13 
1.0700741993e-11 1.0700741993e-11 5.3386972509e-12 1.024129302e-11 2.8975809729e-11 2.8975809729e-11 1.0864568137e-11 1.8458744559e-11 4.1386687305e-11 
4.1386687305e-11 -2.5292783022e-11 -2.1513935838e-11 -8.6777811393e-12 -2.5292783022e-11 -5.0547782764e-11 -1.9007744756e-11 -1.1989872479e-11 -5.0547782764e-11 
-3.7206792391e-11 -8.4559254879e-12 -2.9095821211e-12 -3.7206792391e-11 -6.8190044059e-11 -3.6710420824e-11 -3.0914935117e-11 -6.8190044059e-11 -9.1822408361e-12 
8.3461201924e-12 1.5594610644e-11 1.5594610644e-11 -5.2926850303e-11 -2.1551983623e-11 -1.7341366074e-11 -5.2926850303e-11 -4.0633397474e-11 -1.1527682229e-11 
3.6822597024e-12 -4.0633397474e-11 1.4416920028e-11 1.7299624082e-11 3.927375589e-11 3.927375589e-11 1.4769155217e-11 1.6031074275e-11 3.7948170508e-11 
3.7948170508e-11 8.5692671493e-12 1.8799513847e-11 3.7923519004e-11 3.7923519004e-11 -1.8137633549e-11 -3.4561818472e-12 6.0880653959e-12 -1.8137633549e-11 
-2.8420636657e-11 -1.4030989488e-12 -7.2071439441e-13 -2.8420636657e-11 -1.2584245461e-11 -2.5250003471e-12 5.114575808e-12 -1.2584245461e-11 2.2616266787e-11 
4.2177548922e-11 7.4010784291e-11 7.4010784291e-11 1.1642395549e-11 1.6502981835e-11 3.4344722616e-11 3.4344722616e-11 6.3095091339e-12 2.3634205676e-11 
7.850315519e-11 7.850315519e-11 3.0108489603e-11 4.8750047514e-11 1.0001816288e-10 1.0001816288e-10 5.6958169993e-11 6.2069677933e-11 1.2784995207e-10 
1.2784995207e-10 5.0700071017e-11 7.1549569532e-11 1.8870585945e-10 1.8870585945e-10 2.7392149064e-11 3.2017713654e-11 6.7812037282e-11 6.7812037282e-11 
-6.0301496001e-11 -2.6623159359e-11 -1.264844464e-11 -6.0301496001e-11 3.2175715613e-11 4.77211475e-11 1.1158993689e-10 1.1158993689e-10 2.5796781512e-11 
3.9063191512e-11 5.2273926976e-11 5.2273926976e-11 -3.3449774742e-11 -1.3976416169e-12 1.5511916359e-11 -3.3449774742e-11 4.1694541074e-11 6.6315638172e-11 
1.1598252075e-10 1.1598252075e-10 -3.0297342623e-11 -1.0102042535e-11 -7.6123148424e-12 -3.0297342623e-11 9.2204020206e-12 2.0197273192e-11 5.8386024787e-11 
5.8386024787e-11 2.5392535173e-11 3.4905701554e-11 9.9803363273e-11 9.9803363273e-11 8.1001198065e-11 9.9389130283e-11 1.9492377165e-10 1.9492377165e-10 
6.4545545812e-11 8.4351569862e-11 1.3945428433e-10 1.3945428433e-10 -1.4115377095e-11 1.1014764991e-11 4.5601372104e-11 4.5601372104e-11 -9.9926013602e-12 
1.9473900913e-12 3.4199551269e-11 3.4199551269e-11 -3.5549713074e-12 2.2230204634e-11 5.6705166674e-11 5.6705166674e-11 -1.1141817496e-10 -4.6348353284e-11 
-3.1572271756e-11 -1.1141817496e-10 -5.4845035037e-11 -1.9191722834e-11 -1.2272442129e-11 -5.4845035037e-11 -3.2852772894e-12 7.8053563448e-12 3.0321190945e-11 
3.0321190945e-11 5.593408078e-12 4.8899042068e-11 1.0710364985e-10 1.0710364985e-10 -8.3186248406e-11 -1.8450706591e-11 1.8130054996e-11 -8.3186248406e-11 
-1.3897181301e-11 1.6498611169e-12 3.7000540184e-11 3.7000540184e-11 3.5422600257e-11 5.0219057601e-11 8.1465542143e-11 8.1465542143e-11 4.5094403493e-11 
7.0810780535e-11 1.7319361597e-10 1.7319361597e-10 -8.1675207063e-11 -2.8103611555e-11 -4.8330813817e-12 -8.1675207063e-11 -5.7691194531e-11 -2.0354897501e-11 
1.9946192032e-11 -5.7691194531e-11 2.0277920646e-13 2.0650527251e-11 7.5450523543e-11 7.5450523543e-11 -1.1844625258e-10 -4.5308189333e-11 -3.2776658086e-11 
-1.1844625258e-10 -8.5992283929e-11 -3.901034277e-11 -2.86538733e-11 -8.5992283929e-11 8.7297458792e-11 9.7548733077e-11 2.0102250813e-10 2.0102250813e-10 
6.5508507817e-13 4.1945306222e-11 6.72476087e-11 6.72476087e-11 -4.394045432e-11 -1.6980483557e-11 -1.4085962123e-11 -4.394045432e-11 -1.3254489764e-10 
-2.0278600668e-11 -1.2976001687e-11 -1.3254489764e-10 -7.3514561032e-11 -1.7036913922e-11 4.1232074954e-11 -7.3514561032e-11 -9.1137048413e-11 -3.8528737097e-11 
-5.1222144898e-12 -9.1137048413e-11 -4.5180918645e-11 2.1979295688e-11 9.5873222958e-11 9.5873222958e-11 1.1116970167e-10 1.6713924308e-10 2.6103005525e-10 
2.6103005525e-10 6.3558090241e-11 1.0191640152e-10 2.5000540824e-10 2.5000540824e-10 3.053098428e-11 6.3727203876e-11 1.6037281184e-10 1.6037281184e-10 
1.2271116294e-10 1.6570507554e-10 3.4339676152e-10 3.4339676152e-10 -3.4179041866e-11 1.4011641979e-12 8.2097397668e-11 8.2097397668e-11 1.8381353158e-11 
7.3738685037e-11 1.9753826181e-10 1.9753826181e-10 1.7093516481e-10 1.8439885849e-10 4.400369767e-10 4.400369767e-10 1.60916014e-10 1.9354669647e-10 
3.5870828953e-10 3.5870828953e-10 3.0353828097e-11 6.5093340586e-11 1.5628823132e-10 1.5628823132e-10 -4.182854643e-11 -5.9945533044e-12 1.4289539734e-11 
-4.182854643e-11 -2.3123514677e-10 -1.0026316844e-10 -9.8833984786e-11 -2.3123514677e-10 -1.3143300758e-10 -5.6988083347e-11 -4.2576809069e-11 -1.3143300758e-10 
-1.2508722612e-10 -2.561635143e-11 -7.4365224493e-12 -1.2508722612e-10 -4.0065826356e-10 -1.8056963117e-10 -1.5641710527e-10 -4.0065826356e-10 -2.3757439561e-11 
4.157954026e-12 2.1374244535e-11 -2.3757439561e-11 3.2384085257e-11 5.9556131118e-11 1.2962408363e-10 1.2962408363e-10 -3.8764475021e-11 -1.147364697e-11 
7.415062199e-11 7.415062199e-11 -1.505228204e-10 -4.5253271949e-11 5.0039235058e-13 -1.505228204e-10 -1.1993561102e-10 -4.8590894372e-11 -2.3940894606e-11 
-1.1993561102e-10 -2.9514640764e-11 1.3495667344e-12 9.1698740299e-12 -2.9514640764e-11 -1.3089523946e-10 -5.3093539932e-11 -2.469852061e-11 -1.3089523946e-10 
-3.8317248007e-12 5.5605771664e-12 2.7515647634e-11 2.7515647634e-11 -1.5069988587e-11 2.511118644e-11 4.6272202147e-11 4.6272202147e-11 -1.9463891963e-10 
-8.4547449929e-11 -5.1945330438e-11 -1.9463891963e-10 -6.9038107711e-11 -3.7022545994e-12 8.585489231e-11 8.585489231e-11 -1.1115925926e-11 1.825788664e-11 
5.8337139286e-11 5.8337139286e-11 2.1369723367e-10 2.477487285e-10 5.5109903783e-10 5.5109903783e-10 1.9348918133e-11 8.6977770838e-11 2.2022831103e-10 
2.2022831103e-10 -7.0169752877e-11 -2.6875292999e-11 -2.2330554124e-11 -7.0169752877e-11 -1.8024944668e-10 -6.5079465261e-11 -5.3857488057e-11 -1.8024944668e-10 
-1.7232615161e-10 -5.2419343816e-11 -8.308404577e-12 -1.7232615161e-10 6.075830349e-11 7.9031997493e-11 1.4613199902e-10 1.4613199902e-10 7.2405048429e-11 
8.0610913384e-11 1.8605533819e-10 1.8605533819e-10 -1.8571329151e-12 4.6098283278e-11 1.6714154964e-10 1.6714154964e-10 3.2729310504e-11 8.4550150633e-11 
1.6565413886e-10 1.6565413886e-10 7.7818108226e-11 1.2832734843e-10 3.2833654334e-10 3.2833654334e-10 5.4574635643e-11 6.046026627e-11 1.7294269809e-10 
1.7294269809e-10 -5.8719821544e-11 6.9482510295e-12 7.2975220515e-11 7.2975220515e-11 9.1999751066e-11 1.1096163592e-10 2.4427661301e-10 2.4427661301e-10 
7.0647672327e-11 1.1162756237e-10 2.219949653e-10 2.219949653e-10 -9.7527491492e-11 -1.7857863341e-11 4.8878754833e-11 -9.7527491492e-11 1.306835826e-10 
1.4125967366e-10 3.5342474374e-10 3.5342474374e-10 1.2391936202e-10 1.3744279162e-10 3.0347784636e-10 3.0347784636e-10 8.2767653092e-11 1.1701459227e-10 
2.4474675464e-10 2.4474675464e-10 6.3851527888e-11 8.6110091333e-11 1.7052188078e-10 1.7052188078e-10 -1.3209960768e-10 -4.9636145566e-11 -3.2261946757e-11 
-1.3209960768e-10 3.1651737981e-11 3.7586890322e-11 7.9186971697e-11 7.9186971697e-11 1.0382881383e-10 1.2490655681e-10 2.8566362936e-10 2.8566362936e-10 
2.8657149861e-11 4.150008244e-11 1.186207677e-10 1.186207677e-10 -6.1238507934e-11 -6.7472655219e-12 3.2770923456e-11 -6.1238507934e-11 3.5960052321e-11 
4.3861584419e-11 1.1147826326e-10 1.1147826326e-10 -1.1364028026e-11 4.0217539913e-11 1.4049548811e-10 1.4049548811e-10 -1.9040091599e-11 2.8492195677e-12 
3.1696592031e-11 3.1696592031e-11 -1.8120809351e-10 -6.8659125258e-11 -4.7917881233e-11 -1.8120809351e-10 -1.0811225112e-10 -5.8838823564e-11 -3.9948025319e-11 
-1.0811225112e-10 -4.3413066672e-11 -1.5537556559e-11 -1.0638476769e-11 -4.3413066672e-11 3.7343606476e-12 2.242208412e-11 8.6493755232e-11 8.6493755232e-11 
9.4491156584e-11 1.0405420131e-10 2.3823164211e-10 2.3823164211e-10 -1.1677124506e-10 -4.5032534802e-11 -4.0891820138e-11 -1.1677124506e-10 -1.7771044052e-10 
-6.7879578842e-11 -5.8734180642e-11 -1.7771044052e-10 -3.8150169631e-12 1.9297133391e-11 6.6717083572e-11 6.6717083572e-11 2.9119590215e-12 1.5227241308e-11 
3.697159967e-11 3.697159967e-11 -1.0981663222e-10 -3.9459278141e-11 -2.2034689635e-11 -1.0981663222e-10 2.1013495198e-11 2.7876141253e-11 6.2639663549e-11 
6.2639663549e-11 5.0521906315e-11 6.3514756006e-11 1.4638513768e-10 1.4638513768e-10 3.6295953956e-11 4.3848866601e-11 1.0508357944e-10 1.0508357944e-10 
1.7357276562e-11 1.8407986465e-11 6.9505736973e-11 6.9505736973e-11 4.154668186e-11 5.1006139567e-11 1.1752197857e-10 1.1752197857e-10 1.0739473591e-11 
2.6440326083e-11 6.8931900326e-11 6.8931900326e-11 1.9574362041e-11 2.6282172677e-11 8.0244465282e-11 8.0244465282e-11 2.1912274831e-11 2.4388658449e-11 
5.1497566721e-11 5.1497566721e-11 -1.9496375028e-11 -4.4508684938e-12 6.7601235221e-12 -1.9496375028e-11 2.5522523906e-11 3.7385795463e-11 9.719328063e-11 
9.719328063e-11 -1.8375013766e-11 -3.8250935971e-12 1.3139507363e-11 -1.8375013766e-11 -1.0860793904e-10 -4.1507934535e-11 -3.5766426429e-11 -1.0860793904e-10 
-1.0933835027e-11 4.8339294218e-12 6.6603596056e-12 -1.0933835027e-11 2.9013784835e-11 3.4744394736e-11 9.8865520429e-11 9.8865520429e-11 -2.9094366166e-11 
1.8053508121e-12 2.9904446354e-11 2.9904446354e-11 1.8567209558e-11 2.4104439477e-11 4.7093650965e-11 4.7093650965e-11 8.633242784e-12 2.2245723988e-11 
6.2622633228e-11 6.2622633228e-11 -3.5521844219e-11 -3.6372177328e-12 2.4026931952e-11 -3.5521844219e-11 -3.6150425481e-11 -1.6353120866e-11 -1.2975653654e-11 
-3.6150425481e-11 -3.257262029e-12 3.1544387224e-12 1.3740423307e-11 1.3740423307e-11 9.7895667134e-12 2.0698482516e-11 4.2276850771e-11 4.2276850771e-11 
-2.8834941006e-11 5.4062905844e-13 1.6618331948e-11 -2.8834941006e-11 -2.5596967981e-11 -3.3759915366e-12 1.0439395174e-12 -2.5596967981e-11 -1.728222399e-11 
-4.5581679301e-12 6.0544119198e-12 -1.728222399e-11 -3.4777505547e-11 -7.4790707165e-12 -1.365053737e-12 -3.4777505547e-11 -4.6794691723e-11 -1.7342667639e-11 
-1.4605740638e-11 -4.6794691723e-11 -3.5145909876e-11 -1.3086848732e-11 -8.2791413912e-12 -3.5145909876e-11 -2.6077626874e-11 -7.3256137791e-12 -8.7753934702e-13 
-2.6077626874e-11 -1.7867340638e-11 -1.0750212176e-12 4.5574608559e-12 -1.7867340638e-11 -2.0760026076e-11 -3.6446356087e-12 8.8989016847e-12 -2.0760026076e-11 
-1.2003920116e-11 -2.3204899859e-12 4.1429101021e-12 -1.2003920116e-11 5.4290507029e-12 1.2905191099e-11 2.6501758198e-11 2.6501758198e-11 -2.6608939308e-11 
-1.0093449107e-12 1.3513644219e-11 -2.6608939308e-11 -1.3339056933e-11 -9.8249065513e-12 -6.8200365155e-12 -1.3339056933e-11 4.8712177802e-12 9.3007356767e-12 
1.2542756543e-11 1.2542756543e-11 -1.9193044124e-11 -5.2792852466e-12 8.4003937048e-13 -1.9193044124e-11 -2.7251611645e-11 -1.7375401544e-11 -1.1604786811e-11 
-2.7251611645e-11 -3.3974524157e-12 -2.7095284453e-12 3.771775861e-12 3.771775861e-12 -1.4679372714e-12 5.0063219422e-12 1.5890482329e-11 1.5890482329e-11 
-8.9118610811e-12 -5.3747967075e-12 -3.7843221142e-13 -8.9118610811e-12 -1.1828680633e-11 -7.9695115164e-12 -3.1802178504e-12 -1.1828680633e-11 8.3376520441e-12 
1.1106678183e-11 1.7078259773e-11 1.7078259773e-11 -4.9994789919e-12 5.4815170062e-13 4.9183662913e-12 -4.9994789919e-12 5.1118614462e-12 6.7449847443e-12 
1.1308373809e-11 1.1308373809e-11 -2.5627609536e-14 5.1395436946e-13 1.6600640401e-12 1.6600640401e-12 -1.5989474995e-12 1.1291854501e-12 5.5698450494e-12 
5.5698450494e-12 -6.1695250098e-12 -5.2902949505e-12 -3.1118500396e-12 -6.1695250098e-12 7.4358181169e-12 1.5843094691e-11 2.1245587192e-11 2.1245587192e-11 
-4.0766335993e-12 -1.4635794106e-12 3.3604860993e-13 -4.0766335993e-12 -8.3156825543e-12 -4.9838383943e-12 5.4930094859e-13 -8.3156825543e-12 6.746702809e-13 
4.0483655383e-12 1.1427294181e-11 1.1427294181e-11 -4.9574294885e-12 5.9591980704e-13 1.1126929682e-11 1.1126929682e-11 -1.3431683049e-10 -4.5245428336e-11 
-2.730384117e-11 -1.3431683049e-10 -1.8664640573e-11 -9.8602677477e-12 -6.9935416788e-12 -1.8664640573e-11 -7.7618680997e-12 2.6521844579e-11 8.3039423521e-11 
8.3039423521e-11 -1.5745365181e-11 -5.7523920892e-12 -4.3669227294e-12 -1.5745365181e-11 -2.4435428733e-10 -8.222426241e-11 -1.1625502586e-12 -2.4435428733e-10 
1.5705076572e-11 1.9756254616e-11 3.4765968812e-11 3.4765968812e-11 3.9312962423e-11 7.214604715e-11 2.2227299043e-10 2.2227299043e-10 -6.0236655031e-12 
-7.4983367244e-13 3.2317771755e-12 -6.0236655031e-12 -4.5803966324e-12 2.6102448658e-12 5.0733707665e-12 5.0733707665e-12 -2.0074797374e-11 -1.170852883e-11 
-9.3681737951e-12 -2.0074797374e-11 -5.4863825276e-13 7.8784263195e-13 5.0227986208e-12 5.0227986208e-12 1.8540256762e-12 3.6234838919e-12 5.7210904319e-12 
5.7210904319e-12 1.9924280779e-13 2.4136403601e-12 5.7523468321e-12 5.7523468321e-12 1.5892211831e-12 2.1076771016e-12 4.6683317153e-12 4.6683317153e-12 
2.4958469677e-12 4.0887537385e-12 7.1775392938e-12 7.1775392938e-12 1.3675843757e-12 5.7740490864e-12 7.4300365379e-12 7.4300365379e-12 2.285841088e-12 
3.7069685586e-12 9.9281003534e-12 9.9281003534e-12 -3.9615677263e-12 -1.7814055953e-12 2.9095903216e-12 -3.9615677263e-12 -8.5809778272e-12 1.5263491967e-12 
1.1776928631e-11 1.1776928631e-11 -1.5462251738e-11 -6.6231221238e-12 -4.6293661381e-12 -1.5462251738e-11 -4.6612175752e-11 -1.6364705089e-11 -7.7227191587e-12 
-4.6612175752e-11 1.3806504504e-12 3.1675623392e-12 1.096792721e-11 1.096792721e-11 -8.2446430451e-12 1.2017683317e-12 5.8285637134e-12 -8.2446430451e-12 
-6.3202460982e-12 -2.6885300109e-12 1.5215226109e-11 1.5215226109e-11 -2.7710969392e-11 -1.4912262974e-12 1.4225695689e-11 -2.7710969392e-11 -6.725250205e-12 
7.2366775973e-12 3.1060512608e-11 3.1060512608e-11 -2.3963409209e-11 -9.2000557075e-12 -2.4561550837e-12 -2.3963409209e-11 4.7465908278e-11 5.3183682483e-11 
1.0578210924e-10 1.0578210924e-10 -1.2629393153e-11 1.4435027832e-11 2.720283532e-11 2.720283532e-11 -4.4432180031e-12 -2.3302265907e-12 2.8606785938e-12 
-4.4432180031e-12 -2.3568719685e-11 -7.1324443536e-12 8.9786040389e-12 -2.3568719685e-11 -1.9248686955e-11 5.0578287111e-12 1.2301943244e-11 -1.9248686955e-11 
1.9495796358e-11 2.447292385e-11 5.9921979791e-11 5.9921979791e-11 -8.6269523475e-12 4.8303903179e-12 3.091609203e-11 3.091609203e-11 6.704915207e-12 
1.0092071555e-11 4.3648513238e-11 4.3648513238e-11 -6.4290326948e-12 1.2209221363e-11 4.9538211332e-11 4.9538211332e-11 1.7624311697e-11 3.1025215343e-11 
7.723357296e-11 7.723357296e-11 -7.5915211917e-11 -5.7921164599e-11 -3.9269823484e-11 -7.5915211917e-11 -3.4446678628e-11 -1.7899782365e-11 -1.0662539007e-11 
-3.4446678628e-11 -5.1724470335e-12 1.3900639052e-11 3.9304307982e-11 3.9304307982e-11 -1.4861153087e-10 -5.6348944166e-11 -5.3417224968e-11 -1.4861153087e-10 
-1.4246997702e-13 2.2296222122e-11 6.4871547855e-11 6.4871547855e-11 6.4155557422e-12 1.6869180892e-11 7.2105863366e-11 7.2105863366e-11 -9.5828418367e-12 
1.0921374372e-14 3.2508860462e-11 3.2508860462e-11 -7.5342437731e-11 -4.6293338747e-11 -2.4350823522e-11 -7.5342437731e-11 2.322648275e-11 3.0124068393e-11 
9.0747148857e-11 9.0747148857e-11 -4.5409102819e-11 -1.1294195186e-11 -1.8532519947e-12 -4.5409102819e-11 -8.6510996957e-11 -2.4032415855e-11 1.0700412812e-11 
-8.6510996957e-11 -3.2638570474e-11 9.6844587983e-12 1.1080841676e-11 -3.2638570474e-11 -4.966867788e-11 -1.9915633393e-11 -5.4328987274e-12 -4.966867788e-11 
-2.8907329897e-11 4.632849443e-12 4.4377999454e-11 4.4377999454e-11 -5.2430387631e-11 -2.8031617113e-11 -1.0476095255e-11 -5.2430387631e-11 2.9769851696e-11 
4.8444229875e-11 6.4264618429e-11 6.4264618429e-11 -1.2362784901e-10 -7.5447072398e-11 -5.2421478595e-11 -1.2362784901e-10 5.0506880612e-11 6.24469123e-11 
1.4515340709e-10 1.4515340709e-10 -2.5383239408e-10 -1.1624376555e-10 -1.0903484036e-10 -2.5383239408e-10 -1.0109856782e-10 -3.1764920288e-11 -1.676611189e-11 
-1.0109856782e-10 3.7504305585e-11 5.5608108871e-11 1.4475718554e-10 1.4475718554e-10 -1.0226475221e-10 -3.243699651e-11 -1.5467451277e-11 -1.0226475221e-10 
-1.0096892398e-10 -2.0455749437e-11 3.2510443416e-11 -1.0096892398e-10 -1.0927281725e-10 -1.0633048235e-11 7.1603417489e-11 -1.0927281725e-10 -1.9125247273e-10 
-9.2497090573e-11 -5.3423036699e-11 -1.9125247273e-10 -3.2644267496e-11 -7.1883882247e-12 2.1618055721e-11 -3.2644267496e-11 -8.1857455261e-11 -2.4203872309e-11 
2.84522757e-12 -8.1857455261e-11 -2.1091773132e-10 -8.7857385075e-11 -6.1603883601e-11 -2.1091773132e-10 -3.4252658e-10 -1.4706674123e-10 -1.4076667877e-10 
-3.4252658e-10 -3.0624296406e-11 1.6009059164e-11 8.1402137242e-11 8.1402137242e-11 -1.854698971e-10 -6.9409075515e-11 -5.4634427384e-11 -1.854698971e-10 
-1.1244319599e-10 -4.1299249961e-12 2.1587340987e-11 -1.1244319599e-10 2.5535485838e-11 3.1012821397e-11 1.1628829276e-10 1.1628829276e-10 -1.7712062184e-10 
-6.6197403322e-11 -5.8369574842e-11 -1.7712062184e-10 -1.2764206502e-10 -3.7983177061e-11 9.3844420807e-12 -1.2764206502e-10 -2.4831836368e-11 1.1100128526e-11 
4.1795677842e-11 4.1795677842e-11 -1.6639342397e-10 -3.75055676e-11 3.8483491566e-11 -1.6639342397e-10 -1.2003081309e-10 -3.3037460747e-11 1.1938973835e-11 
-1.2003081309e-10 7.2983874915e-11 1.1746870029e-10 2.504754248e-10 2.504754248e-10 -9.8883453162e-11 -9.4507956264e-12 3.0213848788e-11 -9.8883453162e-11 
-3.2448580936e-10 -1.6663352733e-10 -1.3370866332e-10 -3.2448580936e-10 -1.2773691586e-10 1.5506667126e-11 1.1236518483e-10 -1.2773691586e-10 -2.7145813847e-10 
-1.5151363648e-10 -1.1267122505e-10 -2.7145813847e-10 1.9137191656e-11 6.4941388382e-11 1.1452791996e-10 1.1452791996e-10 1.5131525358e-11 8.1214165823e-11 
2.5607300882e-10 2.5607300882e-10 4.2975607099e-11 5.0980656256e-11 1.2191993664e-10 1.2191993664e-10 2.727121184e-11 7.3215842299e-11 1.0081804586e-10 
1.0081804586e-10 -7.8837668977e-12 3.4321291671e-11 1.1145377523e-10 1.1145377523e-10 -1.9305624965e-10 -9.3700225953e-11 -4.3669624399e-11 -1.9305624965e-10 
-2.5714047118e-10 -4.1257436909e-11 2.3020508087e-11 -2.5714047118e-10 6.9319634286e-11 1.5250801792e-10 2.8237834779e-10 2.8237834779e-10 8.7721162862e-11 
1.1009768252e-10 2.8021295461e-10 2.8021295461e-10 1.6500253156e-10 2.2098787924e-10 3.8860158919e-10 3.8860158919e-10 -1.1943022871e-10 -8.0538520477e-11 
1.1481449191e-11 -1.1943022871e-10 2.6376397634e-12 4.9552617606e-11 1.4331314263e-10 1.4331314263e-10 5.7887046659e-11 7.7109829659e-11 1.9488942368e-10 
1.9488942368e-10 -2.6689862113e-10 -1.6079971722e-10 -1.2588966165e-10 -2.6689862113e-10 -3.8491974579e-11 4.9799263681e-11 1.450684109e-10 1.450684109e-10 
-1.8212859507e-10 -6.9678848314e-11 -5.0959956614e-11 -1.8212859507e-10 1.168808054e-10 1.2826259272e-10 3.1756660188e-10 3.1756660188e-10 -2.2232290666e-10 
-4.0400784356e-11 7.1470591019e-11 -2.2232290666e-10 -5.6108604731e-11 6.5604773149e-11 2.7331613158e-10 2.7331613158e-10 -1.6506550952e-10 -1.1384721988e-10 
-7.0706570599e-11 -1.6506550952e-10 6.0020244797e-12 5.0789651912e-11 1.3628292361e-10 1.3628292361e-10 -3.6541892014e-11 4.0023122372e-11 9.8115869643e-11 
9.8115869643e-11 -6.3626718838e-11 2.0677736228e-11 1.2079948261e-10 1.2079948261e-10 3.0270640938e-12 2.6705054321e-11 1.1800848159e-10 1.1800848159e-10 
-4.1116809767e-11 6.2930295313e-11 1.7274541445e-10 1.7274541445e-10 -2.9117715256e-11 1.3693004768e-11 3.3099594287e-11 3.3099594287e-11 -3.3572444359e-11 
-1.7670292161e-11 1.1398193652e-10 1.1398193652e-10 -6.0919446046e-11 1.0614795415e-11 1.4650475063e-10 1.4650475063e-10 -1.8178949489e-10 -6.4835582825e-11 
-2.0252322285e-11 -1.8178949489e-10 -8.8904704032e-12 7.5098016008e-11 2.539650544e-10 2.539650544e-10 7.7944260931e-11 8.9892712331e-11 2.2789212674e-10 
2.2789212674e-10 -1.5045310217e-10 -2.8579433153e-11 5.0316035322e-11 -1.5045310217e-10 -8.3750796971e-11 -2.4995428697e-11 9.1730956675e-12 -8.3750796971e-11 
-6.1342837814e-11 -2.0422614294e-11 4.3852102108e-11 -6.1342837814e-11 -1.8970502616e-10 -3.5501278825e-11 -6.9960950134e-12 -1.8970502616e-10 -1.500985297e-10 
-7.3730562661e-11 -5.1953707642e-11 -1.500985297e-10 8.8263843657e-11 1.4473198138e-10 3.1762517496e-10 3.1762517496e-10 2.036808317e-11 4.0280388094e-11 
1.6035482874e-10 1.6035482874e-10 4.3901544027e-11 8.402195867e-11 2.074943973e-10 2.074943973e-10 -1.0514696506e-10 -1.826564775e-11 4.1379512807e-11 
-1.0514696506e-10 -1.1530174653e-10 -5.1471131192e-12 7.0662359653e-11 -1.1530174653e-10 -2.6421234075e-10 -1.2201835653e-10 -1.1338930272e-10 -2.6421234075e-10 
-1.363427794e-11 2.6130038875e-11 6.3870539065e-11 6.3870539065e-11 -3.239915646e-10 -1.1359565639e-10 -9.2929779011e-11 -3.239915646e-10 -2.2502676527e-10 
-5.9710665035e-11 -1.7037696913e-12 -2.2502676527e-10 -4.2750706359e-11 -4.273068875e-12 3.9063275234e-11 -4.2750706359e-11 -2.5261362905e-11 3.0333475703e-12 
3.6934615335e-11 3.6934615335e-11 -2.5442090802e-10 -9.4117710634e-11 -7.4040381349e-11 -2.5442090802e-10 -1.6153171707e-10 -5.5555144797e-11 -2.5909638131e-11 
-1.6153171707e-10 -1.7510512075e-10 -8.139360874e-11 -7.3388270508e-11 -1.7510512075e-10 -2.0911298216e-10 -7.384558756e-11 -4.2340930276e-11 -2.0911298216e-10 
-4.9492729142e-11 2.167053428e-11 7.3561094862e-11 7.3561094862e-11 -4.0375820701e-11 2.8841169947e-11 1.2581435075e-10 1.2581435075e-10 -1.9966518624e-11 
2.8835688959e-11 1.2686332967e-10 1.2686332967e-10 1.9748552917e-11 4.8932716502e-11 1.1184563058e-10 1.1184563058e-10 -2.5774232479e-10 -1.0565814717e-10 
-9.3178528044e-11 -2.5774232479e-10 -2.6161879478e-10 -9.469197097e-11 -8.5022034254e-11 -2.6161879478e-10 -1.215137109e-10 -5.4595943133e-11 -3.4775145965e-11 
-1.215137109e-10 -5.7604681064e-11 5.1174826529e-12 3.5891658412e-11 -5.7604681064e-11 7.3560706635e-11 7.5541373407e-11 1.7808591996e-10 1.7808591996e-10 
-4.6944574112e-11 4.3882469635e-12 5.9826467148e-11 5.9826467148e-11 -9.9553209298e-11 -5.6588467664e-11 -3.7607623038e-11 -9.9553209298e-11 -4.3345613305e-11 
-2.5240030754e-12 2.009936638e-11 -4.3345613305e-11 -4.4520747211e-11 -1.7737769027e-11 -1.0869683762e-11 -4.4520747211e-11 -1.8540595185e-11 5.3968354838e-12 
2.2183604701e-11 2.2183604701e-11 -1.2820009726e-10 -4.6638762748e-11 -2.484723999e-11 -1.2820009726e-10 1.809241497e-11 2.4101632563e-11 6.7768152467e-11 
6.7768152467e-11 4.7614489676e-11 4.9539287698e-11 1.2965152263e-10 1.2965152263e-10 -2.1469646178e-10 -8.0966485558e-11 -5.7430452661e-11 -2.1469646178e-10 
1.9622795824e-11 2.7802993779e-11 4.6615510396e-11 4.6615510396e-11 -3.8914035933e-11 -8.2217623132e-12 4.0953982464e-12 -3.8914035933e-11 -1.007647158e-10 
-5.1343223302e-11 -3.6244460895e-11 -1.007647158e-10 -4.0676754893e-11 -9.1879092422e-12 2.7765641348e-12 -4.0676754893e-11 -3.318776626e-11 8.1598016073e-13 
4.8562616099e-11 4.8562616099e-11 -1.1540518007e-10 -4.6548765638e-11 -4.3398554295e-11 -1.1540518007e-10 -1.0153655157e-10 -2.9830608818e-11 -1.6508339617e-11 
-1.0153655157e-10 -2.2233036067e-11 -3.5575771446e-12 1.4592053211e-11 -2.2233036067e-11 -6.2655458037e-11 -1.6022106169e-11 6.921642062e-13 -6.2655458037e-11 
-8.9212279251e-11 -3.7816177511e-11 -3.5823543237e-11 -8.9212279251e-11 -5.9195210229e-11 -1.7621548674e-11 8.8155589039e-12 -5.9195210229e-11 -6.9509078731e-11 
-1.9826245263e-11 1.5004239934e-12 -6.9509078731e-11 1.415038871e-12 1.2420818777e-11 4.2696842352e-11 4.2696842352e-11 -4.8010562068e-11 -1.7565477528e-11 
-1.1195060404e-11 -4.8010562068e-11 -7.3503227369e-12 -2.5162731979e-12 2.9855159348e-12 -7.3503227369e-12 3.2266803069e-11 3.2747921705e-11 7.5979675226e-11 
7.5979675226e-11 -3.1517340712e-12 2.689694305e-12 1.7192506766e-11 1.7192506766e-11 3.3727229359e-11 4.1853927856e-11 8.6596142785e-11 8.6596142785e-11 
3.1731890798e-11 3.5125169496e-11 8.4661439706e-11 8.4661439706e-11 3.3154597932e-11 4.1611573252e-11 9.2808128816e-11 9.2808128816e-11 2.4617673358e-11 
2.9059519856e-11 6.5055006786e-11 6.5055006786e-11 1.3136538419e-11 2.1772188893e-11 4.7259372688e-11 4.7259372688e-11 1.8496597102e-11 2.9726734528e-11 
7.779466837e-11 7.779466837e-11 5.8205455177e-12 1.7933893676e-11 4.5730860806e-11 4.5730860806e-11 2.3442591386e-12 8.068051297e-12 1.8730999564e-11 
1.8730999564e-11 7.7619093646e-12 8.2482984234e-12 1.8934842212e-11 1.8934842212e-11 -1.7168829496e-11 -4.7556783018e-12 -1.9568722019e-12 -1.7168829496e-11 
-2.6053731305e-11 -1.2882726644e-11 -9.2310420503e-12 -2.6053731305e-11 -3.2167574407e-11 -1.401337469e-11 -1.1566050903e-11 -3.2167574407e-11 5.0602933649e-12 
8.213950618e-12 1.3710336017e-11 1.3710336017e-11 -3.8330122511e-12 1.7508621123e-12 4.9155291389e-12 4.9155291389e-12 -5.2344054957e-12 -3.0698803959e-13 
3.3826275353e-12 -5.2344054957e-12 -7.6316115754e-12 -1.9148185141e-12 1.4510570895e-12 -7.6316115754e-12 1.9133322309e-12 3.9045180428e-12 8.4839797262e-12 
8.4839797262e-12 5.2061440542e-12 6.8482752494e-12 1.2906330696e-11 1.2906330696e-11 5.2475851692e-13 3.072307129e-12 5.4427743541e-12 5.4427743541e-12 
1.9798940965e-12 2.8362317487e-12 7.1920141548e-12 7.1920141548e-12 4.1286260665e-12 6.36616355e-12 7.7198003835e-12 7.7198003835e-12 -7.3028014448e-12 
-4.4387456839e-12 1.3817712876e-13 -7.3028014448e-12 4.0887928019e-12 6.0238340637e-12 1.3323523134e-11 1.3323523134e-11 5.2282537506e-12 7.2581707433e-12 
1.3823495506e-11 1.3823495506e-11 -8.5685476437e-12 -3.0974498853e-12 1.101537529e-12 -8.5685476437e-12 -1.9102147672e-12 1.2018394966e-11 2.1564909801e-11 
2.1564909801e-11 -2.0394852172e-12 2.2165170532e-11 7.6006914685e-11 7.6006914685e-11 2.1662246893e-12 5.6042983134e-12 1.3722696997e-11 1.3722696997e-11 
-1.9345772859e-10 -5.0531596361e-11 2.4078924947e-11 -1.9345772859e-10 -9.0432818906e-12 -5.1797283965e-13 8.3469457302e-12 -9.0432818906e-12 1.1069459188e-11 
5.4930326215e-11 1.668438146e-10 1.668438146e-10 5.2003116468e-12 5.8438903814e-12 1.5367007972e-11 1.5367007972e-11 -6.7234904517e-11 -2.2486198207e-11 
-2.0274897276e-11 -6.7234904517e-11 -2.9591876546e-10 -1.052211177e-10 -8.3368516831e-11 -2.9591876546e-10 4.140285339e-12 1.1267004786e-11 2.1730309875e-11 
2.1730309875e-11 -2.267509484e-11 -9.1753361024e-12 -8.1205190577e-12 -2.267509484e-11 2.2885699521e-11 6.0540062804e-11 1.5184593768e-10 1.5184593768e-10 
1.6757629545e-12 5.4402770776e-12 1.1665229968e-11 1.1665229968e-11 -2.9373986167e-10 -1.0527172334e-10 -7.9587614986e-11 -2.9373986167e-10 -1.6937152018e-10 
-1.0460099066e-10 -6.4920489158e-11 -1.6937152018e-10 -1.8805690784e-12 4.7669796103e-12 9.0542694682e-12 9.0542694682e-12 5.5248000878e-13 5.7187574764e-12 
7.8956725148e-12 7.8956725148e-12 -2.6503639995e-12 1.0073031648e-11 3.8518532352e-11 3.8518532352e-11 -1.0559548098e-11 -2.9233370785e-12 -6.21754823e-13 
-1.0559548098e-11 -1.6295957633e-11 -5.2309085061e-12 -3.5687638612e-12 -1.6295957633e-11 -1.0943041124e-11 -4.597317519e-12 -1.594861357e-12 -1.0943041124e-11 
-4.5606805919e-13 1.7262142779e-12 4.8013847813e-12 4.8013847813e-12 -1.9953277489e-13 1.7120569655e-12 3.8843858094e-12 3.8843858094e-12 -3.9160674745e-12 
-1.8108095353e-12 -7.4942299027e-13 -3.9160674745e-12 -2.8323455041e-12 5.7345077406e-13 3.33828373e-12 3.33828373e-12 1.8304541501e-12 4.7748745616e-12 
7.8314312882e-12 7.8314312882e-12 2.1987433751e-12 3.0590328738e-12 4.9963637511e-12 4.9963637511e-12 -1.856471062e-11 -1.0027633909e-11 -5.6781154711e-12 
-1.856471062e-11 -4.5190901858e-12 4.1495646156e-12 4.8219815702e-12 4.8219815702e-12 -3.3827344481e-11 -1.774019846e-11 -1.3870057059e-11 -3.3827344481e-11 
-2.6974668186e-11 -7.1184691955e-12 -1.2566726184e-12 -2.6974668186e-11 3.8895175134e-12 1.2217465831e-11 2.4639706656e-11 2.4639706656e-11 -4.7916197939e-12 
2.353382371e-12 9.0494574229e-12 9.0494574229e-12 -1.9418146326e-13 8.6304438351e-12 2.7183427628e-11 2.7183427628e-11 -2.7084702023e-11 -3.2180473339e-12 
7.5465935667e-13 -2.7084702023e-11 -2.8612773209e-11 -4.6695462621e-13 5.4682368354e-12 -2.8612773209e-11 -5.3230558835e-11 -2.1317683676e-11 -1.1262757488e-11 
-5.3230558835e-11 -2.2575887304e-11 -6.8649197992e-12 1.1070371035e-12 -2.2575887304e-11 9.9121278126e-12 1.3583300052e-11 3.7759672135e-11 3.7759672135e-11 
-9.7575582637e-11 -4.0424302817e-11 -2.8495014546e-11 -9.7575582637e-11 -5.0238635566e-11 -2.0504050885e-11 -1.1965013549e-11 -5.0238635566e-11 -8.5361900057e-11 
-3.2976855914e-11 -2.778284403e-11 -8.5361900057e-11 -1.4939555036e-11 -1.1298691593e-12 1.1077234196e-11 -1.4939555036e-11 -2.8005303507e-11 -8.2479570128e-13 
6.9725952085e-12 -2.8005303507e-11 -2.2778125886e-11 -1.2838043792e-13 1.9263592324e-11 -2.2778125886e-11 -2.8689856716e-11 -2.5715816128e-13 1.3295934878e-11 
-2.8689856716e-11 -7.8216376862e-11 -2.5909482755e-11 -7.0506403822e-12 -7.8216376862e-11 -4.2671842262e-11 -2.022585978e-11 6.3650020424e-12 -4.2671842262e-11 
-7.7271547973e-11 -3.7535872916e-11 -1.9710779111e-11 -7.7271547973e-11 -2.7583695827e-11 -2.0070319376e-11 1.0820055203e-11 -2.7583695827e-11 -1.1775616813e-10 
-4.6604339175e-11 -2.8984292699e-11 -1.1775616813e-10 1.6893832432e-11 2.4217911421e-11 5.8326556147e-11 5.8326556147e-11 3.5158994116e-11 5.2158861222e-11 
1.4097154466e-10 1.4097154466e-10 -2.136801026e-11 1.6020665027e-11 7.3888195234e-11 7.3888195234e-11 -7.7509794179e-11 -3.5485239973e-11 -1.1673765848e-11 
-7.7509794179e-11 2.4430271337e-11 3.8285332731e-11 9.6088695932e-11 9.6088695932e-11 4.3318393537e-11 5.2890116545e-11 1.4085118992e-10 1.4085118992e-10 
-4.9502448735e-11 -1.3969847821e-11 -3.1796034439e-12 -4.9502448735e-11 1.9476259407e-11 2.4831959336e-11 6.9701681258e-11 6.9701681258e-11 8.7519995945e-13 
1.3667215285e-11 6.7625684756e-11 6.7625684756e-11 -5.5794674247e-11 -2.0935561488e-11 6.3375573474e-13 -5.5794674247e-11 5.0000887029e-12 3.2453362863e-11 
4.8897248434e-11 4.8897248434e-11 -6.4399781695e-13 2.6479757692e-11 5.5792640125e-11 5.5792640125e-11 -1.6813219774e-11 1.1216494749e-11 4.8637125025e-11 
4.8637125025e-11 6.2719560334e-11 7.8676157569e-11 1.660934821e-10 1.660934821e-10 1.1844913269e-12 3.0288009509e-11 8.3346899164e-11 8.3346899164e-11 
-4.8066593848e-11 -1.9352208423e-11 -8.1379977292e-12 -4.8066593848e-11 8.650302103e-12 1.8547555477e-11 3.931914242e-11 3.931914242e-11 -3.1638000888e-11 
-1.1220067913e-11 3.2603928802e-11 3.2603928802e-11 -9.1430244667e-12 8.7385102482e-13 2.4729803442e-11 2.4729803442e-11 -1.8851379967e-11 3.0278900594e-12 
5.8594119908e-11 5.8594119908e-11 -5.844305169e-11 1.4606495951e-11 8.2559405739e-11 8.2559405739e-11 1.5859229881e-11 2.6922135661e-11 1.0995133446e-10 
1.0995133446e-10 1.5621255397e-11 5.6634374238e-11 1.2689067036e-10 1.2689067036e-10 -1.9536876171e-10 -8.1704072185e-11 -6.5361866108e-11 -1.9536876171e-10 
-2.6460368653e-10 -1.2113538389e-10 -1.1091292959e-10 -2.6460368653e-10 -1.9824793984e-10 -6.3395716719e-11 -1.8051743438e-11 -1.9824793984e-10 -9.982548711e-11 
-1.18010346e-11 1.016442171e-11 -9.982548711e-11 6.889043776e-11 1.1582759467e-10 2.1816226757e-10 2.1816226757e-10 -8.2776098845e-11 -4.6176230642e-12 
5.9869401909e-11 -8.2776098845e-11 -1.8280944686e-10 -7.3497999088e-11 -3.4856454054e-11 -1.8280944686e-10 2.2353130408e-11 5.0841316679e-11 1.3215845291e-10 
1.3215845291e-10 -3.2695667304e-11 -6.7912151593e-12 8.4551182463e-11 8.4551182463e-11 1.0359876216e-11 4.6433514819e-11 1.5759910896e-10 1.5759910896e-10 
1.5217429403e-10 1.7629711284e-10 4.1185059313e-10 4.1185059313e-10 1.2870385873e-10 1.6792156528e-10 4.6083257599e-10 4.6083257599e-10 2.6065050085e-11 
1.1705573111e-10 2.5125891881e-10 2.5125891881e-10 -1.2101192785e-10 -4.0793436035e-11 4.4852638865e-12 -1.2101192785e-10 -6.2732282665e-12 3.7677870132e-11 
1.1350255813e-10 1.1350255813e-10 -9.4047759386e-11 -8.1784057255e-12 9.5884785112e-11 9.5884785112e-11 2.9351023147e-11 8.1899321949e-11 2.410338549e-10 
2.410338549e-10 1.8921561361e-11 3.865001235e-11 1.1445512629e-10 1.1445512629e-10 3.0747798699e-11 1.1578993122e-10 3.0329527009e-10 3.0329527009e-10 
4.2539450588e-11 5.5218198086e-11 1.5319855133e-10 1.5319855133e-10 6.5160481999e-11 9.2716746975e-11 1.7942997103e-10 1.7942997103e-10 -7.0533991466e-11 
2.0799219452e-11 1.5389527201e-10 1.5389527201e-10 -1.8125173211e-10 -6.3400582741e-11 -3.7606685149e-11 -1.8125173211e-10 -9.3599788641e-11 3.3250668906e-11 
1.4386641973e-10 1.4386641973e-10 5.7233466622e-11 9.1614512718e-11 2.0950742066e-10 2.0950742066e-10 -1.5310634511e-10 -8.3334306354e-11 -4.6492448537e-11 
-1.5310634511e-10 -2.4458819692e-10 -7.866893614e-11 -3.5098266941e-11 -2.4458819692e-10 -1.7029960519e-10 -9.381761227e-11 -5.3626182545e-11 -1.7029960519e-10 
4.6232118103e-11 5.590967871e-11 1.3208420319e-10 1.3208420319e-10 8.4986231281e-11 1.1084425186e-10 2.8597961686e-10 2.8597961686e-10 -7.881287004e-11 
-1.965118603e-11 1.130385607e-11 -7.881287004e-11 -4.2936443061e-10 -1.5443699259e-10 -1.265675768e-10 -4.2936443061e-10 -5.0340831538e-11 7.7502501012e-12 
7.8210201437e-11 7.8210201437e-11 -8.8877000785e-12 2.8449756499e-11 8.434784358e-11 8.434784358e-11 -9.8686125696e-11 -2.585709539e-11 3.1125210859e-12 
-9.8686125696e-11 -8.0539262303e-11 -2.0525661429e-11 1.0739183733e-11 -8.0539262303e-11 6.8325644138e-11 9.7795061916e-11 1.4069369395e-10 1.4069369395e-10 
-1.6408538841e-10 -7.8777394104e-11 -5.3292617482e-11 -1.6408538841e-10 -1.5634095644e-10 -2.8672390561e-11 5.2788846999e-11 -1.5634095644e-10 -2.7223428859e-10 
-9.5086021543e-11 -5.6877789864e-11 -2.7223428859e-10 7.9684715574e-11 1.1162807155e-10 3.2895021288e-10 3.2895021288e-10 1.028656315e-10 1.3657588607e-10 
3.4531548244e-10 3.4531548244e-10 3.7240888263e-11 1.0388808957e-10 3.4796602217e-10 3.4796602217e-10 3.7600121216e-11 4.464918429e-11 1.7761189449e-10 
1.7761189449e-10 1.7334205389e-11 8.2863589545e-11 2.1862480507e-10 2.1862480507e-10 1.8730442439e-11 7.43698821e-11 2.7928727546e-10 2.7928727546e-10 
-4.8302810585e-11 2.6420274301e-11 1.5410693628e-10 1.5410693628e-10 -1.9134899612e-10 -5.2062527389e-11 -1.5100776486e-11 -1.9134899612e-10 9.1322164373e-11 
1.0784772363e-10 3.00181112e-10 3.00181112e-10 1.8148955837e-10 2.3465097577e-10 5.2791546587e-10 5.2791546587e-10 9.8598778409e-11 1.056301681e-10 
2.3966805349e-10 2.3966805349e-10 1.648903955e-10 1.950383273e-10 4.451572772e-10 4.451572772e-10 -1.1274349239e-11 5.390354195e-11 1.9847780729e-10 
1.9847780729e-10 1.8046644461e-10 2.028919078e-10 4.8972764759e-10 4.8972764759e-10 7.2339388979e-11 1.0102416802e-10 2.87398443e-10 2.87398443e-10 
1.1329182759e-10 1.5285478389e-10 3.6583138852e-10 3.6583138852e-10 3.246586682e-11 6.7325813151e-11 1.6991942003e-10 1.6991942003e-10 -1.2848856369e-10 
-5.3050673039e-11 -4.7964863271e-11 -1.2848856369e-10 -1.5963280589e-10 -6.0569408404e-11 -5.2882185711e-11 -1.5963280589e-10 -1.0160072057e-10 -2.9112536605e-11 
-7.1779428231e-12 -1.0160072057e-10 -2.3660599566e-11 1.2145240798e-11 5.2666898768e-11 5.2666898768e-11 1.1209595285e-10 1.4182164923e-10 3.2746539792e-10 
3.2746539792e-10 -5.9299806604e-11 8.0031655325e-12 6.1415831072e-11 6.1415831072e-11 5.683921895e-11 7.4727854536e-11 1.8212822651e-10 1.8212822651e-10 
2.5086526262e-11 3.2104727569e-11 8.6231746169e-11 8.6231746169e-11 -8.5064769249e-11 -3.1996720481e-11 -2.163931027e-11 -8.5064769249e-11 -5.9719659176e-11 
1.7445367224e-12 2.5593612454e-11 -5.9719659176e-11 -1.4010060763e-11 3.5993831583e-11 1.0376442918e-10 1.0376442918e-10 2.861764506e-11 6.5962690256e-11 
1.9496396468e-10 1.9496396468e-10 -1.6735332416e-10 -3.4641616771e-11 -4.3017590651e-12 -1.6735332416e-10 -2.7286208111e-10 -1.153110631e-10 -1.0861285579e-10 
-2.7286208111e-10 -1.7778374184e-10 -7.8052856169e-11 -7.6343301987e-11 -1.7778374184e-10 -1.2709157173e-10 -2.6096581157e-11 4.1471952891e-11 -1.2709157173e-10 
-4.1800221315e-11 1.4073797643e-12 3.324189155e-11 -4.1800221315e-11 7.546487061e-11 8.9451302494e-11 2.152970269e-10 2.152970269e-10 7.1452857548e-11 
8.2380981429e-11 1.8023506102e-10 1.8023506102e-10 3.6874317266e-11 3.913862886e-11 1.1368915387e-10 1.1368915387e-10 -2.9159203576e-12 1.5317786789e-11 
3.5900533569e-11 3.5900533569e-11 -4.667930099e-11 -9.9387957029e-12 1.4346966925e-12 -4.667930099e-11 1.4683876964e-12 2.1719730936e-11 7.8678681367e-11 
7.8678681367e-11 -9.0912813897e-11 -2.5949438064e-11 -2.1973448039e-11 -9.0912813897e-11 -2.932105007e-12 1.5459064612e-11 3.9553240396e-11 3.9553240396e-11 
5.6739113631e-11 7.3908099163e-11 1.7063578721e-10 1.7063578721e-10 -2.6429226838e-11 6.7780447358e-12 2.3294106102e-11 -2.6429226838e-11 -4.727272012e-11 
-2.0089497804e-11 -1.1297782076e-11 -4.727272012e-11 7.5002574692e-11 8.2862277483e-11 1.7350624783e-10 1.7350624783e-10 4.0311591951e-12 2.3635568293e-11 
6.0977572512e-11 6.0977572512e-11 -1.6529819093e-10 -6.8066446474e-11 -4.8624262594e-11 -1.6529819093e-10 3.724588707e-11 4.3850809344e-11 8.2429803586e-11 
8.2429803586e-11 3.5136593841e-11 4.7017855405e-11 1.2670665075e-10 1.2670665075e-10 -6.1203811613e-11 -1.8064760372e-11 1.6879719846e-12 -6.1203811613e-11 
1.6574515022e-11 1.8879517117e-11 5.6698267862e-11 5.6698267862e-11 -1.0253116275e-11 4.4234599945e-12 2.3504556281e-11 2.3504556281e-11 -1.7672332166e-10 
-7.6527865788e-11 -7.4071912555e-11 -1.7672332166e-10 -3.8916977696e-12 1.5251329668e-11 4.3688868102e-11 4.3688868102e-11 -3.6021641206e-11 -1.8857004565e-11 
-1.5551054229e-11 -3.6021641206e-11 2.4569581224e-11 3.6656727457e-11 7.7879191319e-11 7.7879191319e-11 -1.8957244027e-11 -2.7954994668e-12 3.8079934941e-12 
-1.8957244027e-11 -3.4222370697e-11 -1.7167072325e-11 -1.3508456978e-11 -3.4222370697e-11 4.0098754561e-12 1.0432591595e-11 3.9121932949e-11 3.9121932949e-11 
-6.3139971082e-11 -1.9819027563e-11 -1.5130001355e-11 -6.3139971082e-11 -1.3158757324e-11 -5.2693720354e-12 -3.2945006403e-12 -1.3158757324e-11 3.4681034494e-11 
4.4943485388e-11 9.7259480118e-11 9.7259480118e-11 -9.6953752935e-12 3.3333520642e-12 1.8370163229e-11 1.8370163229e-11 6.1446598184e-12 1.3443638121e-11 
3.330150206e-11 3.330150206e-11 4.8092176412e-12 1.1466496758e-11 2.3391585601e-11 2.3391585601e-11 -1.3216943493e-12 5.117250341e-12 7.5379640083e-12 
7.5379640083e-12 1.0157887721e-11 1.6237612785e-11 3.1891199494e-11 3.1891199494e-11 -5.7584624192e-14 1.1629130283e-11 2.6881534341e-11 2.6881534341e-11 
-1.1260418024e-11 -2.0991388625e-12 4.0498668867e-12 -1.1260418024e-11 -2.3613673604e-11 -6.8157896539e-12 -6.0280674191e-13 -2.3613673604e-11 -3.4117046252e-11 
-1.4691752493e-11 -1.2851001255e-11 -3.4117046252e-11 1.8517440507e-12 3.6905822219e-12 1.0243653727e-11 1.0243653727e-11 -9.3931419275e-12 -1.5042816376e-12 
-1.6625643491e-13 -9.3931419275e-12 3.0950401208e-12 4.8320488171e-12 9.8827410622e-12 9.8827410622e-12 5.5227304826e-12 8.6365421448e-12 1.4849137373e-11 
1.4849137373e-11 -5.0292675926e-12 -7.8545017015e-13 2.0368797627e-12 -5.0292675926e-12 -4.8217661202e-12 1.1825285552e-12 2.829700065e-12 -4.8217661202e-12 
1.438344748e-12 4.54351016e-12 9.2644450919e-12 9.2644450919e-12 -1.4980337312e-12 1.9939987266e-12 7.4644850046e-12 7.4644850046e-12 -3.4375420541e-12 
7.9102204418e-13 5.8846750099e-12 5.8846750099e-12 9.9201684313e-13 3.778417886e-12 7.2377152709e-12 7.2377152709e-12 -3.501268757e-12 -1.5232010561e-12 
1.1117028131e-12 -3.501268757e-12 1.3670046539e-12 2.6697425886e-12 9.5230027574e-12 9.5230027574e-12 -3.5091454645e-12 4.0355199278e-12 1.0922802537e-11 
1.0922802537e-11 -7.5777373121e-13 2.3776532392e-12 9.106490492e-12 9.106490492e-12 -1.0695544321e-11 -4.0209354973e-12 -1.5754601818e-12 -1.0695544321e-11 
-2.8606173088e-11 2.5402531615e-12 3.7399449926e-11 3.7399449926e-11 -4.845680162e-12 3.7726324955e-12 1.3944697667e-11 1.3944697667e-11 2.2773142449e-11 
5.9221081801e-11 3.3681977575e-10 3.3681977575e-10 -4.9416754443e-11 1.261145287e-11 6.9851742572e-11 6.9851742572e-11 1.1040098783e-11 1.3978517136e-11 
2.3857184081e-11 2.3857184081e-11 -1.3672133075e-10 -5.3351914696e-11 -7.8587545507e-12 -1.3672133075e-10 -3.5252351922e-12 3.665593017e-12 1.3621802175e-11 
1.3621802175e-11 -3.1529752726e-10 -1.1215613218e-10 -7.5702340561e-11 -3.1529752726e-10 -5.2248409322e-12 2.1550994029e-12 1.2480620529e-11 1.2480620529e-11 
1.5535426432e-12 4.300555161e-12 4.9734721958e-12 4.9734721958e-12 -6.5906784266e-12 -4.9162644072e-12 -1.4456571662e-12 -6.5906784266e-12 -1.2358330019e-11 
-7.1823493269e-12 -3.1668006536e-12 -1.2358330019e-11 1.0071080607e-12 2.7535209754e-12 8.7467209639e-12 8.7467209639e-12 1.7411632834e-12 4.2678113207e-12 
7.9555453959e-12 7.9555453959e-12 -5.2599780911e-12 -9.748215388e-13 2.3490206299e-12 -5.2599780911e-12 -1.0706014544e-12 2.2482196761e-12 5.3796317783e-12 
5.3796317783e-12 -6.7213296371e-12 -2.4322406103e-12 -1.4108997526e-12 -6.7213296371e-12 -1.7956223795e-12 1.236870146e-12 5.9017022336e-12 5.9017022336e-12 
-1.1055405418e-12 2.2626413201e-12 3.8215552217e-12 3.8215552217e-12 -2.7647655627e-12 -1.5811683549e-12 2.8887679176e-12 2.8887679176e-12 -2.153369657e-12 
2.0546973901e-12 1.1634584267e-11 1.1634584267e-11 1.2673431564e-12 8.539853928e-12 1.6057522916e-11 1.6057522916e-11 6.4455941731e-12 1.2424761233e-11 
1.5251654594e-11 1.5251654594e-11 -3.3433514559e-11 -1.5813285791e-11 -7.2183996493e-12 -3.3433514559e-11 -2.3511141076e-11 -1.0825315401e-11 -5.6142235232e-12 
-2.3511141076e-11 -3.9039878564e-12 4.8662576501e-12 2.4538210206e-11 2.4538210206e-11 -7.6167335262e-12 1.669364143e-12 4.0044823832e-12 -7.6167335262e-12 
-6.146134816e-11 -2.8369866755e-11 -2.2613585085e-11 -6.146134816e-11 -5.4389416524e-11 -2.1129486872e-11 -1.3732596605e-11 -5.4389416524e-11 -6.5819111541e-13 
5.2106356202e-12 2.2405161495e-11 2.2405161495e-11 -2.3794295169e-12 2.9873232607e-12 1.5299516256e-11 1.5299516256e-11 -1.5568623526e-11 8.7338686733e-13 
1.0080876659e-11 -1.5568623526e-11 1.5896506118e-11 2.70758812e-11 5.1379112682e-11 5.1379112682e-11 -1.3322758776e-11 -6.8092036275e-13 2.0925259139e-11 
2.0925259139e-11 -1.4501225838e-11 -2.3524436188e-12 1.3210705457e-11 -1.4501225838e-11 -6.0801619512e-12 1.6754650292e-11 2.545109166e-11 2.545109166e-11 
-1.5456247371e-11 -9.2941722679e-12 8.4786836391e-12 -1.5456247371e-11 -3.4199568232e-11 -1.2655323232e-11 -2.0815685368e-12 -3.4199568232e-11 -8.6543141035e-11 
-3.5398751283e-11 -1.9524807681e-11 -8.6543141035e-11 2.2383470274e-11 2.5776118746e-11 6.549951098e-11 6.549951098e-11 1.4450474378e-11 3.3399741318e-11 
6.5181384305e-11 6.5181384305e-11 2.5326852709e-11 5.3866383218e-11 1.4496806407e-10 1.4496806407e-10 3.6397298915e-11 5.14546307e-11 1.1639417039e-10 
1.1639417039e-10 -9.7826927797e-11 -2.9418001548e-11 1.0671529345e-11 -9.7826927797e-11 -8.8201416049e-11 -3.8911718938e-11 -2.6253765012e-11 -8.8201416049e-11 
2.7049804386e-11 4.1395880861e-11 9.9128614753e-11 9.9128614753e-11 -6.019951916e-11 -1.7230968305e-11 6.7577874648e-12 -6.019951916e-11 -4.0773592676e-11 
-1.1867537214e-11 -4.5527401105e-12 -4.0773592676e-11 2.0250847323e-11 2.7345224323e-11 6.0234328354e-11 6.0234328354e-11 -1.1194176988e-12 3.2056967415e-11 
3.6334950284e-11 3.6334950284e-11 1.0556145222e-11 1.3937755439e-11 1.0373679934e-10 1.0373679934e-10 -2.5228497853e-11 -4.581847774e-12 1.5845825627e-11 
-2.5228497853e-11 -1.2982190564e-10 -2.9928664489e-11 -7.5200298723e-12 -1.2982190564e-10 -8.3433396685e-11 -3.3960399854e-11 -2.6380003461e-11 -8.3433396685e-11 
2.376967813e-12 2.3858184188e-11 7.8438147999e-11 7.8438147999e-11 1.2986434818e-11 4.7691683882e-11 9.88817813e-11 9.88817813e-11 -1.697587375e-11 
1.2055141347e-12 3.5199269615e-11 3.5199269615e-11 5.1561904711e-11 6.7089812872e-11 1.6027418242e-10 1.6027418242e-10 -1.8462346575e-11 1.9776113485e-11 
4.325123309e-11 4.325123309e-11 -3.1413989557e-11 -1.6812784142e-11 -1.1274226301e-11 -3.1413989557e-11 -1.769048482e-11 7.4811840427e-12 5.1374280777e-11 
5.1374280777e-11 -1.2744314301e-11 2.6937716877e-11 6.2065097423e-11 6.2065097423e-11 1.040515012e-11 4.5332509044e-11 1.4025144084e-10 1.4025144084e-10 
-1.0050391891e-10 -2.6981385954e-11 1.7347704862e-11 -1.0050391891e-10 -1.2916730181e-10 -9.3013124451e-12 4.7152754254e-11 -1.2916730181e-10 -4.9054741623e-12 
6.0028857154e-11 1.4730151701e-10 1.4730151701e-10 -3.8214289455e-11 -2.1770345108e-12 5.2291503966e-11 5.2291503966e-11 1.7480135853e-12 2.9760119604e-11 
1.0983706681e-10 1.0983706681e-10 -1.1747575749e-10 -3.192511397e-11 -3.6016285358e-12 -1.1747575749e-10 2.1663644717e-11 7.7050676595e-11 1.8118307869e-10 
1.8118307869e-10 6.134016783e-11 9.3473585298e-11 2.3667864687e-10 2.3667864687e-10 -3.0091545972e-10 -1.3812551007e-10 -1.3010403021e-10 -3.0091545972e-10 
-9.0389969671e-11 -3.5058461683e-11 -2.1634468646e-11 -9.0389969671e-11 -1.0030086172e-10 -6.4464805776e-11 -2.0294632499e-11 -1.0030086172e-10 1.8551761162e-12 
4.9653645779e-11 6.2635978105e-11 6.2635978105e-11 1.7009719386e-11 6.6527000207e-11 1.8106068041e-10 1.8106068041e-10 8.8973171834e-12 4.7619413208e-11 
1.4542206961e-10 1.4542206961e-10 -5.0537227065e-11 -3.0649907794e-12 3.5630497844e-11 -5.0537227065e-11 -6.7647421298e-12 2.8994740493e-11 3.5206701637e-11 
3.5206701637e-11 -4.5652464411e-11 -5.5556236098e-12 3.5179258021e-11 -4.5652464411e-11 -3.7811132709e-11 3.8486676914e-12 6.5534418017e-11 6.5534418017e-11 
-1.9749342633e-10 -5.3052699771e-11 9.5722026101e-11 -1.9749342633e-10 -6.1408660745e-11 1.0773280237e-11 6.7514280508e-11 6.7514280508e-11 -1.088706264e-10 
-2.4658142256e-11 2.8734168657e-11 -1.088706264e-10 -1.4625910423e-10 -3.5098211397e-11 2.7990415628e-11 -1.4625910423e-10 -3.1211229876e-11 1.4924687037e-11 
5.356575284e-11 5.356575284e-11 -3.0145513683e-11 3.3077920769e-11 6.4461692913e-11 6.4461692913e-11 -2.0694448168e-10 -7.440849504e-11 -2.7930723279e-11 
-2.0694448168e-10 4.610843773e-11 1.1960228116e-10 2.9596828111e-10 2.9596828111e-10 2.8015768604e-11 7.1349894548e-11 2.4246133685e-10 2.4246133685e-10 
4.3119640954e-11 1.0254202777e-10 2.3830233128e-10 2.3830233128e-10 1.0264502963e-10 1.2903289547e-10 2.3267307491e-10 2.3267307491e-10 -5.0156395244e-11 
1.6882317565e-11 1.4377597768e-10 1.4377597768e-10 -3.9222579156e-10 -1.5058558134e-10 -7.34496271e-11 -3.9222579156e-10 -1.6301699834e-10 -3.3583697378e-11 
1.2147795713e-11 -1.6301699834e-10 -1.1224863996e-10 -2.6288758355e-11 5.6571598316e-11 -1.1224863996e-10 -1.3900104572e-10 -4.7282760988e-11 5.6231606712e-11 
-1.3900104572e-10 -3.3905192198e-12 8.942309655e-11 3.4398342267e-10 3.4398342267e-10 -1.8952683967e-10 -6.2758238411e-11 6.4795878084e-11 -1.8952683967e-10 
-5.155574148e-11 -1.743460876e-12 1.1110018236e-10 1.1110018236e-10 -3.8168026537e-12 -1.3793477152e-12 4.7104233688e-12 4.7104233688e-12 -1.0585790924e-10 
-8.2546500255e-12 7.804761927e-11 -1.0585790924e-10 -9.6443211484e-12 -3.7599267405e-12 -2.6245921111e-12 -9.6443211484e-12 -2.3288674067e-12 3.8032019921e-12 
1.4918805415e-11 1.4918805415e-11 -7.3732454923e-11 -3.5967925784e-11 1.0300680706e-11 -7.3732454923e-11 -2.9399199063e-11 3.9770809749e-11 1.5264898931e-10 
1.5264898931e-10 -2.3046136436e-10 -4.8094841754e-11 1.4323306111e-11 -2.3046136436e-10 7.533343532e-13 3.3247273896e-12 7.6234382572e-12 7.6234382572e-12 
-6.2498173065e-12 -3.096371644e-12 -8.5399104955e-13 -6.2498173065e-12 -1.7901094056e-12 -1.1633004335e-12 -8.2360160915e-14 -1.7901094056e-12 2.4911852391e-12 
4.2797968716e-12 7.0923578893e-12 7.0923578893e-12 -6.2599671635e-12 1.718270771e-12 3.5297763925e-12 -6.2599671635e-12 6.4893508496e-13 1.675184216e-12 
3.934230699e-12 3.934230699e-12 -2.3460506497e-14 1.0869596293e-12 4.4008808772e-12 4.4008808772e-12 -3.0197256156e-12 -6.6017062805e-13 2.3936324368e-13 
-3.0197256156e-12 -3.9802454273e-14 1.2149394817e-12 4.7446029726e-12 4.7446029726e-12 -1.508487166e-13 2.9561460602e-13 9.4811011059e-13 9.4811011059e-13 
3.7119167265e-12 5.0892597898e-12 9.0086534837e-12 9.0086534837e-12 -9.6114912536e-13 5.0459659057e-14 1.4626464663e-12 1.4626464663e-12 1.7792199433e-12 
5.5789251418e-12 7.0617449149e-12 7.0617449149e-12 1.1083160217e-12 3.5804199018e-12 8.6686440765e-12 8.6686440765e-12 1.8615348984e-12 5.4735572222e-12 
1.1486657879e-11 1.1486657879e-11 -7.3394126605e-12 -2.7996043659e-12 -1.5183329736e-12 -7.3394126605e-12 3.2911743362e-12 6.7787260593e-12 8.8732796045e-12 
8.8732796045e-12 -1.0624898323e-12 5.3090885455e-12 1.3360841287e-11 1.3360841287e-11 -8.3559071511e-12 -1.2254228671e-12 3.3580110182e-12 -8.3559071511e-12 
9.4283550889e-12 1.2371450527e-11 2.4222394384e-11 2.4222394384e-11 -2.4408632433e-12 2.8708996055e-12 1.4141633638e-11 1.4141633638e-11 5.3121730991e-12 
1.4436201977e-11 2.7407224924e-11 2.7407224924e-11 -7.3442679954e-12 -3.9372534052e-12 6.1814394007e-12 -7.3442679954e-12 -4.1279483494e-12 5.5012528943e-12 
1.3603135455e-11 1.3603135455e-11 -2.1104467671e-11 -9.4308206159e-12 -4.0724117127e-12 -2.1104467671e-11 1.744512529e-11 1.9345720701e-11 4.3960554008e-11 
4.3960554008e-11 -1.977541768e-12 4.6187266664e-12 9.5018851017e-12 9.5018851017e-12 -1.5984748385e-11 -6.4326161017e-14 9.4715845464e-12 -1.5984748385e-11 
1.1552239101e-11 1.1739382036e-11 2.9227078863e-11 2.9227078863e-11 -2.5109347994e-11 -1.1309936209e-11 1.4340984203e-11 -2.5109347994e-11 6.5123043285e-12 
1.6788166059e-11 5.0165129613e-11 5.0165129613e-11 1.3130772785e-11 2.2225801596e-11 2.5561025618e-11 2.5561025618e-11 3.9319449447e-12 9.3762060745e-12 
1.2799398981e-11 1.2799398981e-11 1.3222365069e-11 1.8570556011e-11 2.907417892e-11 2.907417892e-11 1.3622373253e-11 1.8309336445e-11 7.0980790302e-11 
7.0980790302e-11 1.9140355372e-11 2.0918236797e-11 5.445490783e-11 5.445490783e-11 4.0122112046e-13 1.0936712881e-11 3.7537865999e-11 3.7537865999e-11 
-6.4793759915e-12 7.4502548239e-12 4.3108491168e-11 4.3108491168e-11 -3.6970573518e-11 -1.3740385015e-11 -1.2433041467e-11 -3.6970573518e-11 -7.0891593384e-12 
-1.4714083005e-12 1.2507067639e-11 1.2507067639e-11 -7.8605870418e-12 5.4852005336e-12 2.3220976508e-11 2.3220976508e-11 -3.8545948356e-11 -1.8189533855e-11 
-8.556917789e-12 -3.8545948356e-11 -7.289980879e-11 -2.5341778171e-11 -1.4081713039e-11 -7.289980879e-11 -8.7777318227e-11 -3.4743083594e-11 -2.6029698179e-11 
-8.7777318227e-11 -7.5283337855e-11 -1.9964752173e-11 -1.2703809972e-11 -7.5283337855e-11 -1.3998555783e-10 -5.5222462569e-11 -2.2031179601e-11 -1.3998555783e-10 
-4.791858123e-11 -1.1683931957e-11 -8.7628868127e-12 -4.791858123e-11 -5.422251695e-11 -2.3993354911e-11 -1.548812814e-11 -5.422251695e-11 -1.5901088448e-12 
1.094790322e-11 3.1928635625e-11 3.1928635625e-11 -2.3412020074e-11 -8.5229481007e-12 -4.8990318249e-12 -2.3412020074e-11 -1.652638781e-11 8.2107377419e-12 
2.5876381068e-11 2.5876381068e-11 -2.5797713471e-11 1.8896812354e-11 6.2303601117e-11 6.2303601117e-11 -9.2539211871e-11 -4.6356727786e-11 -3.6267760344e-11 
-9.2539211871e-11 -6.9734368355e-11 -1.935869268e-11 2.8773610355e-12 -6.9734368355e-11 -9.4122915887e-11 -4.3308246153e-11 -2.376803796e-11 -9.4122915887e-11 
5.3996459813e-12 8.4408722075e-12 1.9795801811e-11 1.9795801811e-11 1.5380461814e-11 2.5253439941e-11 8.1357198246e-11 8.1357198246e-11 -2.3572045748e-11 
-2.0249316515e-12 1.5174207399e-11 -2.3572045748e-11 7.370855911e-12 1.8159626154e-11 5.8661417935e-11 5.8661417935e-11 -5.2535964413e-11 1.0342238318e-12 
1.9120220582e-11 -5.2535964413e-11 3.6506049326e-11 4.497338079e-11 1.2424386988e-10 1.2424386988e-10 -2.4387729629e-12 4.9022193139e-12 3.4208593649e-11 
3.4208593649e-11 -2.9967008046e-11 -9.302219273e-12 4.2183566319e-11 4.2183566319e-11 2.5448451533e-11 6.40912472e-11 9.4326601267e-11 9.4326601267e-11 
-3.3850623223e-11 -1.8304562249e-11 -1.1697114529e-11 -3.3850623223e-11 -7.235031823e-11 -3.7833553454e-11 -2.8433828316e-11 -7.235031823e-11 -5.1527331705e-11 
-2.4965489301e-11 -1.6705178994e-11 -5.1527331705e-11 -8.6504054674e-11 -2.7783997271e-11 -1.1190248055e-11 -8.6504054674e-11 -9.0012013575e-11 -4.0852132807e-11 
-1.5307953618e-11 -9.0012013575e-11 -7.8447459459e-11 -3.0408570205e-11 -1.5853270336e-11 -7.8447459459e-11 -3.1986757524e-11 7.8824055511e-12 5.8610891973e-11 
5.8610891973e-11 -1.5816285894e-11 1.8927287723e-11 4.6675598172e-11 4.6675598172e-11 -4.2812294108e-11 -9.991779117e-12 3.7764632252e-12 -4.2812294108e-11 
-2.9717517288e-11 -4.4526460375e-12 2.4152133326e-11 -2.9717517288e-11 -8.8926495596e-11 -5.355733766e-11 -3.5563866744e-11 -8.8926495596e-11 5.608235113e-11 
6.882441416e-11 1.7029143471e-10 1.7029143471e-10 9.4013567276e-12 2.1697706118e-11 5.1878537155e-11 5.1878537155e-11 -3.4914409154e-11 -1.5938259672e-11 
1.4754658825e-11 -3.4914409154e-11 -9.7868928267e-12 5.6508610953e-12 3.7225931731e-11 3.7225931731e-11 -3.6243982736e-11 2.1635616022e-11 1.1624586671e-10 
1.1624586671e-10 -1.2439076779e-11 1.0377454334e-11 3.7883622445e-11 3.7883622445e-11 -1.0716880525e-10 -2.9836640278e-11 -9.1955447454e-13 -1.0716880525e-10 
6.3702087293e-12 3.6667769342e-11 1.4080802193e-10 1.4080802193e-10 -5.4767994494e-11 -1.0217515323e-11 3.0256389817e-11 -5.4767994494e-11 -1.5902526141e-11 
-4.1631071762e-12 9.6428333177e-12 -1.5902526141e-11 -9.4869188452e-12 2.995122313e-11 8.0808795716e-11 8.0808795716e-11 -1.0339998178e-11 4.1350966495e-12 
3.4012471529e-11 3.4012471529e-11 1.0811813119e-11 3.0125029838e-11 9.3648757043e-11 9.3648757043e-11 4.6515661229e-11 5.6977410137e-11 1.1214742863e-10 
1.1214742863e-10 2.9141446826e-11 8.0019681811e-11 1.6008377136e-10 1.6008377136e-10 3.2940498792e-11 4.5039534743e-11 9.7851566465e-11 9.7851566465e-11 
-1.038651308e-10 -2.2653553425e-11 5.9276484224e-11 -1.038651308e-10 5.6803234407e-11 8.169535379e-11 1.964067118e-10 1.964067118e-10 -3.0646572587e-11 
-8.7413618553e-13 2.6865868772e-11 -3.0646572587e-11 -4.6979981391e-11 -1.2609623434e-11 2.5690224825e-11 -4.6979981391e-11 -1.023294876e-11 -7.256279026e-12 
4.2989667786e-11 4.2989667786e-11 4.4068576623e-11 5.497978096e-11 1.2280564242e-10 1.2280564242e-10 -8.1550048091e-11 2.4077079083e-11 1.4951736901e-10 
1.4951736901e-10 -1.0443853142e-10 -2.6850834562e-11 4.1228265979e-11 -1.0443853142e-10 1.3408257215e-11 9.1245049849e-11 2.0914349294e-10 2.0914349294e-10 
-1.2147168303e-10 -1.247773904e-12 1.0662985193e-10 -1.2147168303e-10 4.0929506489e-11 6.835225192e-11 1.7872954159e-10 1.7872954159e-10 -4.5529451142e-11 
-1.4913208175e-12 7.0902151959e-11 7.0902151959e-11 -1.4435426511e-10 -6.0603003036e-11 2.4632768146e-11 -1.4435426511e-10 5.3003177867e-12 2.7000895464e-11 
7.1218286749e-11 7.1218286749e-11 -1.35006374e-10 -2.9911444782e-11 3.0635718781e-11 -1.35006374e-10 -1.3420485126e-10 -4.7566777494e-11 -1.8952971246e-11 
-1.3420485126e-10 -5.8419307202e-11 2.6649197641e-11 8.7628109561e-11 8.7628109561e-11 -2.2036138632e-10 -7.6076275097e-11 -5.2797038586e-11 -2.2036138632e-10 
-1.6267378664e-10 -9.7769114576e-11 -6.0235198781e-11 -1.6267378664e-10 -3.5252552698e-10 -1.428219317e-10 -1.2593554132e-10 -3.5252552698e-10 -2.2452583357e-11 
5.2666845461e-11 1.473173379e-10 1.473173379e-10 -2.1275999232e-11 2.4358066494e-11 3.6990032738e-11 3.6990032738e-11 -1.0736055657e-10 -1.400752012e-11 
3.5961891691e-11 -1.0736055657e-10 -1.7109554595e-11 4.6439542401e-11 1.1201521219e-10 1.1201521219e-10 2.5890594416e-11 6.0000449671e-11 1.9228665591e-10 
1.9228665591e-10 -1.0514197506e-10 -1.7608181949e-11 4.6754757012e-11 -1.0514197506e-10 -1.8625977791e-10 -6.0500119774e-11 -1.4721102319e-11 -1.8625977791e-10 
-1.6190597324e-10 -1.1614103279e-11 5.0267926516e-11 -1.6190597324e-10 -2.0782303762e-10 -6.4448253675e-11 -2.2805308704e-11 -2.0782303762e-10 -1.1786682978e-11 
1.6749374612e-11 7.2995708365e-11 7.2995708365e-11 8.3965468151e-11 1.2170497467e-10 1.9171105718e-10 1.9171105718e-10 -4.9421226397e-11 4.766411641e-12 
3.7065404756e-11 -4.9421226397e-11 -2.159830269e-10 -9.8533610593e-11 -7.1511762509e-11 -2.159830269e-10 -3.1579220332e-10 -1.2051954757e-10 -8.4524249115e-11 
-3.1579220332e-10 3.0151291175e-11 5.8755699727e-11 1.553897091e-10 1.553897091e-10 -2.9640296402e-11 1.9543295454e-11 3.8026080948e-11 3.8026080948e-11 
-2.2673755728e-11 1.1188769967e-13 8.6110581028e-11 8.6110581028e-11 -5.8439571178e-11 -2.4618416085e-11 -3.2589127363e-12 -5.8439571178e-11 -1.3383300797e-11 
-1.1903173838e-11 4.7042864635e-11 4.7042864635e-11 -1.1750181613e-10 -4.0626626878e-11 -1.952465699e-11 -1.1750181613e-10 -2.6492112152e-11 3.3811028474e-11 
7.1143883678e-11 7.1143883678e-11 7.6173585419e-11 1.2088984371e-10 2.9230157087e-10 2.9230157087e-10 -1.4943659209e-10 -2.956789696e-11 2.630548905e-11 
-1.4943659209e-10 -1.1859468059e-10 7.6180195505e-13 1.2114462764e-10 1.2114462764e-10 8.7717405483e-13 1.2789638446e-11 2.6405297499e-11 2.6405297499e-11 
-1.4439724951e-11 -7.2815659472e-12 5.6654708982e-12 -1.4439724951e-11 -8.1615192388e-11 6.8367318601e-13 9.5572592022e-12 -8.1615192388e-11 -5.8281271727e-12 
8.1053162195e-13 6.5354765507e-12 6.5354765507e-12 -2.2441224477e-10 -1.2584701094e-10 -1.015637443e-10 -2.2441224477e-10 -8.6512187241e-11 -3.0552286943e-11 
-2.3422258163e-12 -8.6512187241e-11 1.7027307458e-12 6.0577444618e-12 1.4299424792e-11 1.4299424792e-11 1.3113943429e-11 1.810604299e-11 2.6719713581e-11 
2.6719713581e-11 3.4674469451e-12 7.0400287502e-12 9.0226243047e-12 9.0226243047e-12 -4.1129687191e-13 2.209968672e-12 4.8800141999e-12 4.8800141999e-12 
-5.1558196537e-12 -1.6289750808e-12 1.3671187345e-12 -5.1558196537e-12 -1.2605970961e-11 -4.8275822122e-12 -3.452546827e-12 -1.2605970961e-11 4.0826480006e-12 
5.4495831913e-12 8.7690988082e-12 8.7690988082e-12 -8.1590845332e-13 1.9708437496e-12 2.5891747037e-12 2.5891747037e-12 -1.3590033579e-12 3.4014825866e-12 
1.1193459771e-11 1.1193459771e-11 -1.7892976778e-12 -1.0152876965e-12 9.8312537435e-13 -1.7892976778e-12 -1.6990918758e-12 3.4002618535e-12 4.7173100222e-12 
4.7173100222e-12 -1.5909358711e-11 -3.6990419207e-12 3.3366906316e-12 -1.5909358711e-11 -1.034441637e-12 4.0168247352e-12 1.3410756902e-11 1.3410756902e-11 
-4.0146506037e-12 3.1327199936e-12 1.181069061e-11 1.181069061e-11 8.6568574716e-12 1.1607284251e-11 1.9721248277e-11 1.9721248277e-11 9.6605368746e-12 
2.2910601937e-11 3.0572861188e-11 3.0572861188e-11 -1.3819301273e-11 -3.1167370065e-12 3.7810482799e-12 -1.3819301273e-11 -4.9907959195e-12 4.9335204837e-12 
1.6571802436e-11 1.6571802436e-11 -2.5502632259e-11 -2.0636375508e-11 -1.0771492233e-11 -2.5502632259e-11 1.9474979607e-12 1.2365463747e-11 3.6687868292e-11 
3.6687868292e-11 8.3543188875e-12 1.4778790606e-11 3.5153590507e-11 3.5153590507e-11 -2.1865306775e-11 -1.695682211e-11 -1.0530771115e-11 -2.1865306775e-11 
-2.5396633174e-12 6.8346901935e-12 1.8675623124e-11 1.8675623124e-11 -3.7689538082e-12 3.2560785596e-12 1.8019115249e-11 1.8019115249e-11 1.5311839353e-11 
1.7247261476e-11 3.5702199171e-11 3.5702199171e-11 1.9255390749e-11 2.5629936528e-11 3.9088572722e-11 3.9088572722e-11 -2.5789776898e-11 -8.181801646e-12 
-3.4290414562e-12 -2.5789776898e-11 -1.7988204032e-11 -2.199564635e-12 1.7932601667e-11 -1.7988204032e-11 2.0837977331e-11 2.3583769606e-11 5.8046953063e-11 
5.8046953063e-11 -2.2181811091e-11 7.4041574785e-13 1.2594275343e-11 -2.2181811091e-11 -2.8982622216e-11 -1.1521640564e-11 5.5930027792e-12 -2.8982622216e-11 
-4.6390370551e-11 -1.7388559426e-11 -8.3710700231e-12 -4.6390370551e-11 -3.9615284071e-11 -2.3376980297e-11 -1.3711535632e-11 -3.9615284071e-11 1.7162078031e-11 
3.2678217159e-11 8.525130481e-11 8.525130481e-11 1.6654880715e-11 3.9426935232e-11 1.1428528405e-10 1.1428528405e-10 6.8431397045e-12 2.8474730789e-11 
8.8217529506e-11 8.8217529506e-11 -7.8433962237e-12 6.0631826427e-12 2.4609213581e-11 2.4609213581e-11 1.6715225138e-11 3.1605083576e-11 7.8574691287e-11 
7.8574691287e-11 -4.3166652614e-11 -5.4408742663e-12 2.128567688e-11 -4.3166652614e-11 -1.7694625751e-11 -1.9215706431e-12 3.8033206394e-11 3.8033206394e-11 
-1.2760714829e-11 2.6730858384e-12 3.905753899e-11 3.905753899e-11 -2.331675169e-11 -6.1100914355e-13 2.6356369833e-11 2.6356369833e-11 -1.8689135273e-11 
-1.0805978175e-11 -4.0384365522e-12 -1.8689135273e-11 -1.5356739617e-11 -2.3239128446e-12 8.4866024613e-12 -1.5356739617e-11 3.8023558695e-11 5.4415793908e-11 
1.189509474e-10 1.189509474e-10 5.1655272326e-12 2.4549889396e-11 7.0791783372e-11 7.0791783372e-11 -3.1084968878e-11 -1.4471194956e-11 4.0673238338e-12 
-3.1084968878e-11 8.3068374538e-12 2.0325450298e-11 6.2643012248e-11 6.2643012248e-11 -1.0062498791e-10 -3.6854053324e-11 -2.7666558763e-11 -1.0062498791e-10 
8.3060162377e-12 1.3583978352e-11 3.769200541e-11 3.769200541e-11 5.6229799151e-11 6.7203807707e-11 1.2691629314e-10 1.2691629314e-10 2.5047782997e-11 
3.5030017076e-11 8.7865199927e-11 8.7865199927e-11 -2.5706262174e-11 1.6584684029e-11 6.0426078145e-11 6.0426078145e-11 -1.0482746845e-10 -4.0825870235e-11 
-2.4045961317e-11 -1.0482746845e-10 -1.4315684696e-10 -5.9078389817e-11 -5.6585063226e-11 -1.4315684696e-10 2.6641477884e-11 4.4122100913e-11 6.9488721203e-11 
6.9488721203e-11 8.6614860191e-11 1.0317885342e-10 2.5448058639e-10 2.5448058639e-10 -5.6853189251e-11 -1.6970207877e-11 6.5019687128e-11 6.5019687128e-11 
-8.3197895377e-11 -2.0437731676e-11 1.3271027052e-11 -8.3197895377e-11 2.262947295e-11 3.3456580126e-11 7.5969746924e-11 7.5969746924e-11 -1.6927085348e-10 
-6.3918286407e-11 -4.1851460117e-11 -1.6927085348e-10 -2.383130336e-10 -1.0778581237e-10 -7.6480254024e-11 -2.383130336e-10 -1.7250305246e-10 -7.8519340121e-11 
-5.3364107417e-11 -1.7250305246e-10 -1.8088393512e-10 -7.5754509339e-11 -6.263725554e-11 -1.8088393512e-10 -2.1378027797e-10 -6.6603462227e-11 -4.5454759804e-11 
-2.1378027797e-10 -1.5714369496e-10 -7.7397508421e-11 -6.8381196621e-11 -1.5714369496e-10 -9.0671746389e-11 -2.7262741709e-11 2.1700788098e-11 -9.0671746389e-11 
-3.6325696525e-11 -1.2094043463e-11 4.5485170988e-11 4.5485170988e-11 3.5206488526e-12 1.1410641197e-11 4.2950609951e-11 4.2950609951e-11 -2.4982729326e-10 
-1.0667760384e-10 -9.9466102902e-11 -2.4982729326e-10 -3.2409637908e-11 -3.1151803248e-12 5.6514998233e-11 5.6514998233e-11 -5.8203252987e-11 1.3927409648e-11 
1.0244114334e-10 1.0244114334e-10 -2.7620162587e-11 -1.4700748267e-11 1.7549050855e-11 -2.7620162587e-11 -4.4515213975e-11 1.0937717258e-12 4.453456525e-11 
4.453456525e-11 -1.5309420268e-11 2.4431340383e-11 9.7979879885e-11 9.7979879885e-11 6.210521019e-11 9.4299949942e-11 1.5610523987e-10 1.5610523987e-10 
1.8238625202e-11 5.4429870765e-11 1.6806770403e-10 1.6806770403e-10 1.2598388555e-10 2.0397215644e-10 3.7262095801e-10 3.7262095801e-10 8.764292802e-11 
9.7116689864e-11 2.1847668212e-10 2.1847668212e-10 -3.2895797812e-11 3.1857963916e-11 1.385580339e-10 1.385580339e-10 5.9280094014e-11 6.6616138013e-11 
1.6310906797e-10 1.6310906797e-10 -1.1963781383e-10 -5.1449166233e-11 -4.1416419933e-11 -1.1963781383e-10 -1.5002623719e-10 -2.8771351252e-11 -1.7515811557e-11 
-1.5002623719e-10 -2.1786362139e-10 -9.1262650603e-11 -5.2028828012e-11 -2.1786362139e-10 -1.2662439562e-10 -4.3288999253e-11 -1.8304105125e-11 -1.2662439562e-10 
-1.2758604957e-10 -4.885833734e-11 -3.0230413093e-11 -1.2758604957e-10 -2.2594981711e-10 -8.6065334707e-11 -7.3526848181e-11 -2.2594981711e-10 -1.9816111317e-10 
-6.1167118062e-11 -5.6304668772e-11 -1.9816111317e-10 5.7777650853e-11 1.04768835e-10 2.3466711415e-10 2.3466711415e-10 1.0859444869e-10 1.3284511706e-10 
2.7008743425e-10 2.7008743425e-10 4.2457248597e-11 6.4958156183e-11 1.5268869522e-10 1.5268869522e-10 -3.9193700561e-10 -1.6372089739e-10 -1.5668509701e-10 
-3.9193700561e-10 -2.5441389804e-11 2.4015599394e-11 8.258189041e-11 8.258189041e-11 -3.1081863061e-10 -1.6038409136e-10 -1.3124427803e-10 -3.1081863061e-10 
-1.2267023516e-10 -2.6091046538e-11 2.8949681697e-11 -1.2267023516e-10 -1.0633511685e-10 1.136025496e-11 1.0910505189e-10 1.0910505189e-10 -9.823190011e-11 
-2.49634421e-11 2.7804742211e-11 -9.823190011e-11 -1.45603711e-10 -5.1295443026e-12 5.1270565301e-11 -1.45603711e-10 -1.2250970481e-10 8.6249648848e-12 
9.715432993e-11 -1.2250970481e-10 -1.2068635545e-10 1.4525303026e-11 1.1455075242e-10 -1.2068635545e-10 -1.7230862109e-10 -1.1282920554e-11 5.5009941643e-11 
-1.7230862109e-10 -1.4520243852e-11 2.6733851281e-11 1.4531509257e-10 1.4531509257e-10 -1.4601548868e-10 -2.7065643387e-11 1.3179469006e-10 -1.4601548868e-10 
-6.0750362962e-11 7.1248885152e-11 1.4195207781e-10 1.4195207781e-10 -2.7732389825e-10 -5.7638403855e-11 5.4802021053e-12 -2.7732389825e-10 -2.4192365118e-10 
-6.0518174252e-11 -2.6524474568e-11 -2.4192365118e-10 -2.0048720853e-10 -3.6142487085e-11 1.0076229561e-10 -2.0048720853e-10 7.2105721726e-11 9.23743621e-11 
2.3944211617e-10 2.3944211617e-10 -7.9210966929e-12 4.8286399123e-11 1.6849539757e-10 1.6849539757e-10 3.7652683195e-11 4.9671506283e-11 1.6690691052e-10 
1.6690691052e-10 -1.2927538386e-11 2.2031203514e-11 1.1354133487e-10 1.1354133487e-10 -6.8473187443e-11 -9.531590277e-13 5.7470099171e-11 -6.8473187443e-11 
1.1822812512e-10 1.2546958754e-10 3.0017628734e-10 3.0017628734e-10 -4.1236879996e-12 2.8838232645e-11 1.0026555536e-10 1.0026555536e-10 4.3538319485e-11 
7.6193502334e-11 1.5175257818e-10 1.5175257818e-10 3.0181615117e-12 2.3965330602e-11 1.0416160789e-10 1.0416160789e-10 1.2781924151e-11 3.2833246787e-11 
9.4030029062e-11 9.4030029062e-11 -2.3381911274e-11 8.6518747338e-12 7.4069136541e-11 7.4069136541e-11 -3.0609967513e-11 9.4785783162e-12 5.9642209197e-11 
5.9642209197e-11 3.2534138827e-11 5.1250848033e-11 1.3025661314e-10 1.3025661314e-10 -7.5160017182e-11 -2.0788620886e-11 -2.0632619321e-12 -7.5160017182e-11 
-1.1691478539e-10 -4.3371515914e-11 -2.6342798697e-11 -1.1691478539e-10 -5.1711382363e-11 1.9807153632e-11 9.7476828732e-11 9.7476828732e-11 -6.1499651019e-11 
-1.9984777903e-11 7.3182289219e-12 -6.1499651019e-11 -3.9246478961e-11 1.7611377511e-11 1.1837492145e-10 1.1837492145e-10 -2.8164496143e-11 8.2578838387e-12 
6.3434822304e-11 6.3434822304e-11 -1.108268905e-10 -1.0196777841e-11 4.4175468338e-11 -1.108268905e-10 -3.2254466714e-11 -1.1126739646e-11 2.4438006359e-11 
-3.2254466714e-11 -2.1332494369e-11 -2.73319056e-13 2.1258869225e-11 -2.1332494369e-11 6.4338462802e-12 1.5187040446e-11 4.6542213273e-11 4.6542213273e-11 
-1.1389014777e-10 -3.411334091e-11 -1.8182611321e-11 -1.1389014777e-10 -1.5760670795e-11 -2.0125930307e-12 2.1602998825e-11 2.1602998825e-11 -5.0267236559e-11 
-2.3565216779e-11 -2.2097646661e-11 -5.0267236559e-11 -6.8134715926e-11 -1.4103494003e-11 1.7438449929e-11 -6.8134715926e-11 -3.2797753431e-11 -1.2953767687e-11 
2.1195551117e-11 -3.2797753431e-11 3.7912701799e-11 4.1671893488e-11 1.1227620471e-10 1.1227620471e-10 5.1891947955e-11 6.2986182341e-11 1.546981697e-10 
1.546981697e-10 -7.6972900406e-11 -2.8760209947e-11 -2.1769089647e-11 -7.6972900406e-11 -6.773061618e-11 -1.5611338219e-11 1.9388454399e-11 -6.773061618e-11 
-7.8501243554e-11 -2.6450739601e-11 -2.4978816845e-11 -7.8501243554e-11 3.0665893729e-11 3.5320317207e-11 7.3658989064e-11 7.3658989064e-11 -5.4351372406e-11 
-1.8830429574e-11 -8.64379802e-12 -5.4351372406e-11 -9.7387100285e-11 -3.2494820253e-11 -1.6104679462e-11 -9.7387100285e-11 1.791318768e-11 2.9366602937e-11 
7.7513609384e-11 7.7513609384e-11 -2.6091643712e-11 8.4224386915e-13 2.3688148843e-11 -2.6091643712e-11 -3.4832627858e-11 1.6086422521e-11 7.6005505336e-11 
7.6005505336e-11 -2.6491431617e-12 2.8066605887e-11 7.6363537274e-11 7.6363537274e-11 -2.4577286602e-11 -9.5531466564e-12 -1.3052267417e-12 -2.4577286602e-11 
-1.0218141873e-10 -3.8408908633e-11 -2.3745872636e-11 -1.0218141873e-10 -2.7858858097e-11 5.3924988699e-12 3.1187285228e-11 3.1187285228e-11 -3.5228428099e-11 
-4.8329154648e-12 1.1997405564e-11 -3.5228428099e-11 2.5353093464e-11 2.6289783105e-11 6.5040923431e-11 6.5040923431e-11 -1.8343159042e-11 1.4035056986e-11 
2.3467162056e-11 2.3467162056e-11 -7.8294491316e-11 -3.1670452043e-11 -2.6317556641e-11 -7.8294491316e-11 -1.0061403517e-10 -4.1762839867e-11 -3.8419824967e-11 
-1.0061403517e-10 6.4278289942e-12 8.1429255325e-12 1.7561685473e-11 1.7561685473e-11 -5.0743373973e-11 -8.5352168068e-12 7.2368707797e-12 -5.0743373973e-11 
-3.1000258828e-12 4.0391719938e-12 1.6901823889e-11 1.6901823889e-11 2.3807300972e-11 3.0003451801e-11 6.3314647227e-11 6.3314647227e-11 3.2197526527e-11 
3.7181038017e-11 8.9033235457e-11 8.9033235457e-11 7.7091321707e-12 1.0731185176e-11 2.5409682653e-11 2.5409682653e-11 3.0326854033e-13 2.9867665765e-12 
1.0398514883e-11 1.0398514883e-11 -1.6261054616e-11 -5.0421533953e-12 -1.4573988674e-14 -1.6261054616e-11 -3.028103298e-11 -1.7044016352e-11 -1.3110150667e-11 
-3.028103298e-11 -2.2374556916e-11 -1.0424136415e-11 -7.2734166695e-12 -2.2374556916e-11 -1.4736646926e-11 -7.4577537078e-12 -3.3060393663e-12 -1.4736646926e-11 
-2.8320267297e-11 -1.3800663282e-11 -4.5431194213e-12 -2.8320267297e-11 -3.2547662459e-12 2.580153369e-12 9.0938028769e-12 9.0938028769e-12 -2.1448965207e-11 
-5.3337048748e-12 1.2384490082e-11 -2.1448965207e-11 -2.8530779162e-11 -1.209067906e-11 -9.445341778e-12 -2.8530779162e-11 -1.7046386495e-11 1.4127499933e-12 
1.9006708502e-11 1.9006708502e-11 5.6294448667e-12 1.0182644654e-11 1.6974170479e-11 1.6974170479e-11 1.1260719338e-11 1.741090953e-11 2.8400771132e-11 
2.8400771132e-11 -4.1958534514e-12 -1.1536208352e-12 2.9208652866e-12 -4.1958534514e-12 -5.8306889299e-12 5.8287862803e-14 1.2190884067e-11 1.2190884067e-11 
7.6974233427e-12 9.8932803433e-12 2.0986856314e-11 2.0986856314e-11 3.2315489286e-12 4.4412877858e-12 6.8988432857e-12 6.8988432857e-12 -2.1767292117e-12 
-6.9814784542e-13 5.8639410572e-12 5.8639410572e-12 3.3920699373e-12 6.9307721645e-12 1.3693457898e-11 1.3693457898e-11 -1.0329645013e-11 -5.3676759447e-12 
-6.2834904254e-13 -1.0329645013e-11 -1.4960135102e-11 -5.9203727915e-12 -1.6709221063e-12 -1.4960135102e-11 6.6165306182e-11 7.4300501617e-11 1.780871922e-10 
1.780871922e-10 -9.1275029401e-12 -1.647252415e-12 4.1635253551e-12 -9.1275029401e-12 -7.6027204821e-12 1.2690121457e-12 3.9050993364e-12 -7.6027204821e-12 
-1.2923230321e-11 3.2161102731e-11 1.0371062759e-10 1.0371062759e-10 -7.9736678851e-12 -1.3941291756e-12 1.1105090607e-12 -7.9736678851e-12 -3.9282565113e-10 
-1.1749605713e-10 -9.100229174e-11 -3.9282565113e-10 -1.2852309241e-10 -5.0079051258e-11 1.2950443664e-11 -1.2852309241e-10 -3.0540968285e-12 -1.58710979e-13 
2.2008878075e-12 -3.0540968285e-12 -1.0613018144e-11 -1.6612508396e-14 1.4818506524e-12 -1.0613018144e-11 -1.8252197655e-10 -6.3551484379e-11 -3.6293639073e-11 
-1.8252197655e-10 6.1902680643e-11 7.2687512099e-11 1.7834330726e-10 1.7834330726e-10 -2.1103762316e-11 -1.4357307719e-11 -9.8968299658e-12 -2.1103762316e-11 
7.5456563955e-13 5.6085011112e-12 1.6506363249e-11 1.6506363249e-11 -1.6294274891e-10 -6.5405624232e-11 -6.2883126859e-11 -1.6294274891e-10 -7.4233739152e-11 
4.0997791502e-11 6.2048107651e-11 -7.4233739152e-11 -1.1571621575e-11 -2.9766178487e-12 3.2882694241e-12 -1.1571621575e-11 2.8298027155e-11 3.3986696132e-11 
6.4812676713e-11 6.4812676713e-11 3.365025758e-11 8.8598187151e-11 2.6936485527e-10 2.6936485527e-10 -1.0814985218e-11 -6.3907273433e-12 1.1989425611e-12 
-1.0814985218e-11 -7.6516876232e-11 2.3554784548e-11 1.3641809168e-10 1.3641809168e-10 -1.015508806e-11 -5.4600241721e-12 -3.5768776813e-13 -1.015508806e-11 
5.5276371249e-11 1.1860258805e-10 1.600558407e-10 1.600558407e-10 1.0541776043e-11 1.1577879151e-11 2.8534244806e-11 2.8534244806e-11 2.8100254052e-11 
6.554038654e-11 1.8061885941e-10 1.8061885941e-10 -2.4872756079e-10 -4.143346645e-11 1.572782724e-11 -2.4872756079e-10 -3.7287477909e-11 -1.2798812487e-11 
-3.690009604e-12 -3.7287477909e-11 6.2090346107e-12 1.6012668026e-11 3.3542997364e-11 3.3542997364e-11 2.6448962294e-12 3.1641327185e-12 6.247301052e-12 
6.247301052e-12 5.9651758744e-12 5.4832155784e-11 1.6328926834e-10 1.6328926834e-10 1.1360129274e-11 2.936245093e-11 8.5059319796e-11 8.5059319796e-11 
-2.1396979646e-12 5.9256000358e-12 1.7740417929e-11 1.7740417929e-11 -1.0281355466e-10 -1.5043848368e-12 7.1531689495e-11 -1.0281355466e-10 -1.8782623012e-11 
-5.2787502504e-12 1.0907332625e-12 -1.8782623012e-11 -1.3875810872e-11 -8.5094048746e-12 2.8456745747e-11 2.8456745747e-11 -1.2316387846e-11 -4.6290502175e-12 
-2.5846919369e-12 -1.2316387846e-11 -1.6448176851e-10 -2.6675303079e-11 8.7131471588e-11 -1.6448176851e-10 -2.8900652418e-11 -9.1293711987e-12 -9.2892638304e-13 
-2.8900652418e-11 1.0422351087e-11 2.2482171637e-11 4.2902877276e-11 4.2902877276e-11 -1.4140232042e-11 -4.7626941978e-12 -2.5497837602e-12 -1.4140232042e-11 
-4.4848912585e-11 2.3233691585e-11 3.1815411e-11 -4.4848912585e-11 -1.3762560414e-10 -3.9711247028e-11 -2.1303448828e-11 -1.3762560414e-10 -1.936272406e-11 
-5.9466974011e-12 -2.2148385389e-12 -1.936272406e-11 -4.3204210567e-11 6.1473600523e-11 2.1599821004e-10 2.1599821004e-10 4.3943659664e-12 8.2446653442e-12 
1.1180048689e-11 1.1180048689e-11 1.0584178599e-11 1.3920671201e-11 2.88234502e-11 2.88234502e-11 -7.1323869224e-11 -3.5187803897e-11 1.7361373121e-11 
-7.1323869224e-11 -5.0486877612e-12 -2.7061543244e-12 -1.1868679144e-12 -5.0486877612e-12 -1.3222080201e-12 -2.3000727037e-13 3.3790829044e-13 -1.3222080201e-12 
-1.8695390287e-12 1.450520148e-12 3.5222448807e-12 3.5222448807e-12 2.7605835946e-12 4.0270136128e-12 6.0300827925e-12 6.0300827925e-12 5.1064906322e-12 
7.3617866416e-12 1.1008262726e-11 1.1008262726e-11 -1.210546663e-12 4.9633323885e-13 1.1189826242e-12 -1.210546663e-12 -2.2844974229e-12 -5.3049303484e-13 
1.3308434578e-12 -2.2844974229e-12 5.3225091963e-12 9.4352928052e-12 1.3980757999e-11 1.3980757999e-11 9.738811404e-12 1.2921897761e-11 2.0109820835e-11 
2.0109820835e-11 -6.0815469175e-12 -4.8013619973e-12 2.7875289149e-12 -6.0815469175e-12 -5.1535075916e-12 7.8302284301e-13 4.3704847486e-12 -5.1535075916e-12 
-4.8406254186e-12 4.240299498e-13 1.1702435469e-11 1.1702435469e-11 -2.7108330952e-11 -8.1078163342e-12 -5.3844171376e-13 -2.7108330952e-11 -2.6967823059e-11 
-6.4843056794e-12 5.5231287381e-12 -2.6967823059e-11 -1.9544810035e-11 -6.6827698282e-12 -2.7808001367e-12 -1.9544810035e-11 -1.3238430111e-11 1.2625831748e-12 
4.5550969359e-12 -1.3238430111e-11 -1.8047480253e-11 -4.7759319264e-12 9.6586817915e-13 -1.8047480253e-11 1.9760225273e-11 3.0843429096e-11 4.0874145631e-11 
4.0874145631e-11 -1.3872912962e-11 3.8758159205e-12 2.1870307042e-11 2.1870307042e-11 5.3842037654e-12 1.166156353e-11 2.7343942705e-11 2.7343942705e-11 
1.8471196656e-11 2.3215882089e-11 4.9385921254e-11 4.9385921254e-11 -3.0797499224e-11 -4.3341935421e-12 1.3948752767e-11 -3.0797499224e-11 1.6308941307e-11 
1.8948891713e-11 4.866416698e-11 4.866416698e-11 -9.1170391289e-12 3.5339300432e-12 2.0424588486e-11 2.0424588486e-11 1.1265609609e-11 2.6758259341e-11 
7.139863105e-11 7.139863105e-11 1.5365292138e-11 1.8081421529e-11 3.9141886334e-11 3.9141886334e-11 3.902869242e-12 2.1986485766e-11 6.4778864991e-11 
6.4778864991e-11 -3.4718958856e-11 -7.471575222e-12 9.5392140779e-12 -3.4718958856e-11 -5.5090976276e-12 1.3906884673e-11 5.1642912955e-11 5.1642912955e-11 
-1.5172473205e-11 6.680037829e-12 5.9223495376e-11 5.9223495376e-11 -6.2551722756e-11 -3.0715936977e-11 -9.6785402661e-12 -6.2551722756e-11 -9.3790707438e-12 
2.5379035765e-12 2.1277917167e-11 2.1277917167e-11 -5.5305821038e-11 -1.8801143167e-11 -7.656375795e-12 -5.5305821038e-11 -5.473834268e-11 -3.5082406568e-11 
-2.0141450752e-11 -5.473834268e-11 -1.1726139448e-12 1.6374363164e-11 2.5814910781e-11 2.5814910781e-11 -1.3397589941e-11 1.1458538531e-11 5.428918141e-11 
5.428918141e-11 -6.0176959616e-11 -1.237519639e-11 2.7892746006e-11 -6.0176959616e-11 -6.1244566986e-11 -4.039672988e-11 3.1419686626e-13 -6.1244566986e-11 
2.7309702584e-11 4.6170455647e-11 8.6538441769e-11 8.6538441769e-11 -9.8538763322e-11 -3.6686650382e-11 -2.6816986296e-11 -9.8538763322e-11 -1.051438098e-10 
-3.3234542352e-11 -1.7727047843e-11 -1.051438098e-10 -1.2034366067e-10 -4.0953779313e-11 -3.7309560014e-11 -1.2034366067e-10 1.4051491565e-11 2.5205085227e-11 
8.3523323208e-11 8.3523323208e-11 -7.9651572298e-11 -1.761915571e-11 1.0707380075e-12 -7.9651572298e-11 -5.331006854e-11 -1.4931051463e-11 1.4271960002e-11 
-5.331006854e-11 -7.0491638944e-11 -2.4820089101e-11 -8.713771955e-12 -7.0491638944e-11 -6.7303865837e-11 -3.2027891911e-11 -1.2924142253e-11 -6.7303865837e-11 
-8.4652109981e-11 -6.3453108673e-11 -4.4294881347e-11 -8.4652109981e-11 -1.8297923991e-10 -7.3934917413e-11 -6.4607142672e-11 -1.8297923991e-10 -5.3635989076e-11 
-1.3798005223e-11 1.1306054298e-11 -5.3635989076e-11 4.6631078926e-11 5.6147540424e-11 1.3428108065e-10 1.3428108065e-10 -5.1384487323e-11 -1.8607309828e-11 
-1.0692102848e-11 -5.1384487323e-11 -1.8120660303e-10 -7.2723044651e-11 -5.8551652317e-11 -1.8120660303e-10 -1.0056834061e-10 -2.2448981749e-11 3.5182522355e-11 
-1.0056834061e-10 9.8056116407e-12 1.4061264611e-11 3.2395923748e-11 3.2395923748e-11 -5.5640776306e-11 -2.399671933e-11 -1.6562604364e-11 -5.5640776306e-11 
-7.7010780924e-12 2.1608194069e-11 4.9236884023e-11 4.9236884023e-11 -1.8668889738e-10 -7.7117944703e-11 -6.216665792e-11 -1.8668889738e-10 2.9947118605e-11 
4.8079218156e-11 1.2489776324e-10 1.2489776324e-10 3.0490077346e-11 5.4503604587e-11 9.2295118067e-11 9.2295118067e-11 -6.4939692071e-11 -1.3703010331e-11 
1.9276602402e-11 -6.4939692071e-11 -7.4603299333e-11 4.2760415898e-12 1.1377235774e-10 1.1377235774e-10 -9.2277075945e-11 -2.0316206348e-11 2.3948912292e-11 
-9.2277075945e-11 -1.0712751172e-10 -3.1143710764e-11 -2.0802877521e-11 -1.0712751172e-10 -4.8942219161e-11 1.012193351e-11 5.9733345651e-11 5.9733345651e-11 
-1.3471936916e-10 -1.2168629945e-11 6.8632699106e-11 -1.3471936916e-10 -2.4630152077e-10 -1.277132166e-10 -8.5667262629e-11 -2.4630152077e-10 -3.2371019274e-11 
3.6515645431e-11 1.5074687384e-10 1.5074687384e-10 -3.1694500847e-10 -8.9303371108e-11 9.1696795764e-12 -3.1694500847e-10 -1.773286655e-10 -1.1575443404e-10 
-8.1597700458e-11 -1.773286655e-10 -7.463223282e-11 4.1660234568e-11 9.4901708252e-11 9.4901708252e-11 -2.1504571725e-10 -8.8438225756e-11 -5.4895569927e-12 
-2.1504571725e-10 -2.0339522338e-10 -7.5836735268e-11 2.9490058643e-11 -2.0339522338e-10 9.2713445477e-11 1.0498109893e-10 2.587494556e-10 2.587494556e-10 
-2.1305661173e-10 -1.8346808268e-11 1.7311662e-10 -2.1305661173e-10 -1.4080497835e-12 3.7686964934e-11 1.1294554485e-10 1.1294554485e-10 -6.7386143948e-11 
1.4235055439e-11 1.0927902851e-10 1.0927902851e-10 -1.3060274039e-10 -2.9009641242e-11 3.143595163e-11 -1.3060274039e-10 -3.8110770165e-10 -1.4377315856e-10 
-7.6335139793e-11 -3.8110770165e-10 1.8026714946e-11 9.0949766006e-11 2.6543501905e-10 2.6543501905e-10 6.3652922926e-12 9.3790753099e-11 2.6440555461e-10 
2.6440555461e-10 1.7323291515e-10 1.7798600161e-10 4.1919108324e-10 4.1919108324e-10 1.0547861476e-11 7.1513305258e-11 2.1463463327e-10 2.1463463327e-10 
-7.404474648e-11 -1.2497354298e-11 7.6287960778e-11 7.6287960778e-11 6.3735533365e-11 8.5913008789e-11 1.5554755785e-10 1.5554755785e-10 -5.138218283e-11 
-3.0350986452e-11 -1.0014430718e-11 -5.138218283e-11 -2.4890322283e-10 -9.6267290378e-11 -3.8145086788e-11 -2.4890322283e-10 -1.3884318265e-10 2.3819447505e-11 
1.5091322514e-10 1.5091322514e-10 2.4372639007e-11 5.3173235258e-11 1.7422042574e-10 1.7422042574e-10 9.2130803005e-11 1.3462005715e-10 1.8152583984e-10 
1.8152583984e-10 -2.0996393748e-10 -8.0867892751e-11 2.2937030235e-11 -2.0996393748e-10 -4.435398265e-11 2.1154308816e-11 8.7116323833e-11 8.7116323833e-11 
1.0069961763e-10 1.6439661185e-10 3.7376377052e-10 3.7376377052e-10 -1.0347000977e-10 -2.2107742331e-11 3.0861852097e-11 -1.0347000977e-10 1.4316149393e-10 
1.4820498282e-10 3.8216852325e-10 3.8216852325e-10 1.7120539742e-10 1.7983297531e-10 3.9238762727e-10 3.9238762727e-10 -2.7524219469e-10 -1.1559893373e-10 
-4.2665871579e-11 -2.7524219469e-10 -6.2312709673e-11 -6.6376176947e-13 7.0262321442e-11 7.0262321442e-11 -6.0865246236e-11 -3.7678679808e-12 2.9688074217e-11 
-6.0865246236e-11 -2.6364699428e-10 -1.3162086545e-10 -1.1339114027e-10 -2.6364699428e-10 -2.5764466745e-10 -6.8302727767e-11 2.8847195213e-11 -2.5764466745e-10 
4.0004773706e-11 7.3582852149e-11 1.6313917415e-10 1.6313917415e-10 -1.1262629455e-10 -4.5636930479e-11 -3.791477497e-11 -1.1262629455e-10 -3.2898395434e-10 
-9.8611979385e-11 -7.8095066271e-11 -3.2898395434e-10 -3.4960485472e-11 -2.5850449964e-11 -1.0698164565e-11 -3.4960485472e-11 -2.1979039514e-10 -7.0591376442e-11 
-2.9385628422e-11 -2.1979039514e-10 -4.7749588932e-10 -1.7504992247e-10 -1.6036518821e-10 -4.7749588932e-10 6.6532342149e-12 4.9971321658e-11 1.6802204413e-10 
1.6802204413e-10 -6.6870859534e-11 -7.7642267308e-12 4.4817146265e-11 -6.6870859534e-11 2.4996571583e-11 7.4454045741e-11 1.4867248268e-10 1.4867248268e-10 
-3.2307059606e-11 -1.3811000127e-11 3.3165399733e-11 3.3165399733e-11 -3.655331811e-10 -1.5370885862e-10 -1.3553896028e-10 -3.655331811e-10 -2.874579218e-10 
-1.205587051e-10 -8.2293373104e-11 -2.874579218e-10 -5.4262630513e-11 -3.2096088268e-12 4.991654934e-11 -5.4262630513e-11 -2.7462693046e-11 4.9301043419e-12 
7.6910787042e-12 -2.7462693046e-11 -2.2838253858e-10 -6.271280288e-11 -1.5314658542e-11 -2.2838253858e-10 -1.709864821e-10 -5.6484098773e-11 -3.5764019124e-11 
-1.709864821e-10 -1.1001127311e-10 -3.6764308837e-11 -1.6211318057e-11 -1.1001127311e-10 -3.5413888568e-10 -1.5715078348e-10 -1.4605533084e-10 -3.5413888568e-10 
-1.1833779294e-10 -3.3905785075e-11 -3.3140121981e-11 -1.1833779294e-10 -8.5264274207e-11 -3.0363956568e-11 -2.2397869226e-11 -8.5264274207e-11 -2.316728087e-10 
-9.232827066e-11 -7.4696220639e-11 -2.316728087e-10 1.0503090093e-11 4.8080293277e-11 1.5027731663e-10 1.5027731663e-10 1.864935658e-11 3.0744783549e-11 
1.1143405987e-10 1.1143405987e-10 2.1187122932e-11 2.4840491615e-11 6.0156685453e-11 6.0156685453e-11 -5.1534872895e-11 2.3076459702e-12 4.9227226925e-11 
-5.1534872895e-11 -4.4617184945e-12 1.0214629613e-11 7.8034228882e-11 7.8034228882e-11 -1.1982717466e-10 -4.9108397847e-11 -3.5067427497e-11 -1.1982717466e-10 
-1.3345770119e-10 -3.2427361117e-11 6.4862309237e-14 -1.3345770119e-10 8.1957057073e-12 3.0049716358e-11 5.3502177935e-11 5.3502177935e-11 -7.2743804723e-11 
-2.2788239376e-11 -1.8823559008e-12 -7.2743804723e-11 1.3845134828e-11 3.3397054994e-11 9.7395210178e-11 9.7395210178e-11 -1.6235251012e-10 -6.8357848999e-11 
-4.574714088e-11 -1.6235251012e-10 -4.3325051322e-11 -4.2845823861e-12 1.8061503708e-11 -4.3325051322e-11 -9.2322292266e-11 -3.9884075197e-11 -2.4304132537e-11 
-9.2322292266e-11 -3.3793361319e-11 -7.6497596517e-12 1.1625160971e-11 -3.3793361319e-11 -7.1668187089e-11 -1.7288835968e-11 8.9477230578e-12 -7.1668187089e-11 
-1.5795093337e-10 -7.4001020645e-11 -6.6497245982e-11 -1.5795093337e-10 2.2574121799e-11 2.7727275877e-11 7.5446802324e-11 7.5446802324e-11 -5.9030497827e-11 
-2.1177730198e-11 -1.0729771975e-11 -5.9030497827e-11 -1.2969577639e-10 -4.8588770037e-11 -4.1235253572e-11 -1.2969577639e-10 2.8237243823e-11 3.869458248e-11 
7.8245273697e-11 7.8245273697e-11 -1.174919893e-10 -6.1566870627e-11 -5.2064440078e-11 -1.174919893e-10 -8.0922326485e-11 -2.609210719e-11 5.1476336746e-12 
-8.0922326485e-11 2.1199293404e-11 2.7907454808e-11 7.4482651788e-11 7.4482651788e-11 -1.0616288337e-10 -3.3255324747e-11 6.5191081145e-12 -1.0616288337e-10 
-7.8862269527e-11 -3.4525661206e-11 -3.1114469268e-11 -7.8862269527e-11 -5.2827607439e-11 -1.7423244024e-11 -6.2504485371e-12 -5.2827607439e-11 -5.3912934552e-11 
-1.3640970548e-11 1.02117051e-11 -5.3912934552e-11 -5.3000592645e-11 -1.5247519403e-11 7.128012048e-12 -5.3000592645e-11 -5.1586511429e-11 -1.15996858e-11 
-3.4657627709e-12 -5.1586511429e-11 -8.6322378134e-11 -4.1991146774e-11 -3.0220975092e-11 -8.6322378134e-11 -5.5875350215e-11 -1.8323930024e-11 -5.6750197609e-12 
-5.5875350215e-11 -3.0104450094e-12 1.0838180104e-11 4.0474664905e-11 4.0474664905e-11 -3.3846205461e-11 -1.2252139592e-11 -8.545454947e-12 -3.3846205461e-11 
3.7473822246e-12 5.5448484631e-12 1.2970009312e-11 1.2970009312e-11 3.7407162099e-12 1.6883620952e-11 4.6567262838e-11 4.6567262838e-11 7.7146966763e-13 
1.5219031917e-11 5.2685298415e-11 5.2685298415e-11 3.9332620785e-11 4.1655882818e-11 9.4681196396e-11 9.4681196396e-11 5.9683959283e-12 1.5112927573e-11 
5.0427776498e-11 5.0427776498e-11 1.0708924269e-11 2.1458901151e-11 6.0254374581e-11 6.0254374581e-11 1.531195474e-11 1.7369344502e-11 4.4224800758e-11 
4.4224800758e-11 1.2204911087e-11 1.4557508522e-11 4.4072080391e-11 4.4072080391e-11 -1.1806558134e-11 3.4669708497e-12 2.0482657284e-11 2.0482657284e-11 
-5.5981167878e-12 7.6264330709e-12 2.8059473717e-11 2.8059473717e-11 2.585097223e-12 4.7982621402e-12 1.5553520637e-11 1.5553520637e-11 1.0136316094e-11 
1.2391337893e-11 2.1996946013e-11 2.1996946013e-11 -1.4987884137e-11 -8.5347228613e-12 -5.6207730022e-12 -1.4987884137e-11 -1.4757916363e-11 -5.4203934296e-12 
-8.6968020707e-13 -1.4757916363e-11 -1.9042176808e-11 -4.7683047263e-12 1.2783515343e-12 -1.9042176808e-11 9.3925585657e-12 1.0642227221e-11 2.5973974213e-11 
2.5973974213e-11 -5.6405814388e-12 1.3323654837e-12 1.1594055955e-11 1.1594055955e-11 -2.5125038616e-12 6.1155116362e-13 2.5755666979e-12 2.5755666979e-12 
-4.8248777497e-12 -3.4180870512e-12 -2.1460951991e-12 -4.8248777497e-12 4.7596544474e-12 6.9134598762e-12 1.3692375676e-11 1.3692375676e-11 3.7471524011e-12 
5.9822371458e-12 9.2947404531e-12 9.2947404531e-12 3.4013287989e-12 4.637595421e-12 8.5566057801e-12 8.5566057801e-12 5.335967209e-12 6.6981046797e-12 
1.1172708111e-11 1.1172708111e-11 -4.6802049079e-12 -9.5475519083e-13 7.777330987e-13 -4.6802049079e-12 1.9968486429e-12 5.3198095384e-12 6.9851718187e-12 
6.9851718187e-12 -3.4440394465e-12 1.7602776195e-12 8.699751827e-12 8.699751827e-12 6.857824525e-12 9.3434010389e-12 1.6695444436e-11 1.6695444436e-11 
-6.4213761657e-12 -2.4514558847e-12 -7.0669794961e-13 -6.4213761657e-12 -2.6204518596e-11 3.815393488e-11 7.3557983716e-11 7.3557983716e-11 -6.8777980817e-12 
6.3864999854e-13 5.5768030832e-12 -6.8777980817e-12 -4.2893956431e-11 5.5357409462e-11 2.2664464697e-10 2.2664464697e-10 -2.7101480066e-13 5.4534204074e-12 
1.7142154393e-11 1.7142154393e-11 -1.8723255718e-11 1.9978608187e-11 1.1494434753e-10 1.1494434753e-10 -3.1993593085e-12 9.3631696868e-13 9.6837993398e-12 
9.6837993398e-12 -1.4074532942e-10 -5.6332412312e-11 -3.849785827e-11 -1.4074532942e-10 1.503220719e-12 5.4574682858e-12 1.3130560995e-11 1.3130560995e-11 
9.3621708174e-11 1.0039480408e-10 2.4097548774e-10 2.4097548774e-10 -3.5666151727e-11 -2.6992438189e-11 -1.5057110084e-11 -3.5666151727e-11 -1.9375125336e-10 
-2.8915543717e-11 8.4357297072e-11 -1.9375125336e-10 -9.8859415153e-12 -4.5513485107e-12 -3.590489974e-12 -9.8859415153e-12 8.070768087e-12 2.0798802727e-11 
5.7439629186e-11 5.7439629186e-11 4.3561698817e-12 1.0217389663e-11 2.0884100456e-11 2.0884100456e-11 -7.3475756883e-12 8.6840900355e-12 3.7764135653e-11 
3.7764135653e-11 -8.0138914106e-13 2.0728279429e-12 9.8780981981e-12 9.8780981981e-12 7.3850827127e-11 1.1652368497e-10 2.966974879e-10 2.966974879e-10 
6.3366388541e-12 1.1084671813e-11 1.7513339333e-11 1.7513339333e-11 3.8114847235e-12 5.2476828275e-12 1.2611522449e-11 1.2611522449e-11 -2.0369461182e-12 
1.5190145213e-12 4.4410715969e-12 4.4410715969e-12 -8.2212130546e-12 -3.4002203941e-12 -3.1931065513e-12 -8.2212130546e-12 -2.2095053727e-12 2.0737511853e-12 
6.6743241874e-12 6.6743241874e-12 1.7856870461e-12 4.2540241425e-12 5.1692688114e-12 5.1692688114e-12 2.7497011312e-12 4.6410805293e-12 1.041903834e-11 
1.041903834e-11 -8.5096993623e-12 -3.0514629063e-12 -2.144773145e-14 -8.5096993623e-12 -1.5686147199e-12 2.3007104522e-12 7.3010032677e-12 7.3010032677e-12 
-2.3172897071e-14 4.2644263196e-12 1.3325716577e-11 1.3325716577e-11 4.6801652862e-13 5.0602020996e-12 8.1093813718e-12 8.1093813718e-12 -1.2067024661e-11 
-2.118624417e-12 2.1360090776e-12 -1.2067024661e-11 -1.6371418194e-11 -3.0199819231e-12 1.0972210117e-11 -1.6371418194e-11 -3.0627471178e-12 1.1511753459e-11 
1.5463483659e-11 1.5463483659e-11 -3.983973923e-12 2.0146159261e-12 6.4218179969e-12 6.4218179969e-12 -8.0743538622e-12 -1.5509123929e-12 6.1691642551e-12 
-8.0743538622e-12 -1.4214796887e-11 -6.9763860974e-12 1.6520772985e-11 1.6520772985e-11 1.3756276362e-11 2.919359815e-11 5.1604125488e-11 5.1604125488e-11 
-2.2028675953e-11 -6.6750059606e-12 1.3350819135e-12 -2.2028675953e-11 -1.0294658189e-11 4.1156725672e-12 8.5141886222e-12 -1.0294658189e-11 -2.3918257827e-11 
-5.5347160621e-12 1.2776475889e-11 -2.3918257827e-11 4.9067541645e-12 8.3771868515e-12 2.4826598984e-11 2.4826598984e-11 -1.6237754474e-11 -4.8281768459e-12 
-2.3117868006e-13 -1.6237754474e-11 -5.28504244e-11 -3.0297973149e-11 -2.3430302451e-11 -5.28504244e-11 -1.9828155689e-11 -7.5135935836e-12 7.9938192722e-12 
-1.9828155689e-11 4.6423525825e-12 2.2823793963e-11 3.5397553455e-11 3.5397553455e-11 -3.6279105398e-11 -7.88554028e-12 2.6913656782e-12 -3.6279105398e-11 
7.3756907371e-14 1.774045682e-11 3.1486586273e-11 3.1486586273e-11 1.1609336256e-12 9.4488147387e-12 2.7967881636e-11 2.7967881636e-11 1.4091072963e-11 
2.1410258757e-11 4.334756828e-11 4.334756828e-11 -2.8147258533e-12 7.6987349829e-12 3.817719087e-11 3.817719087e-11 1.7817137854e-11 2.6193804395e-11 
6.4386057751e-11 6.4386057751e-11 5.6870900421e-12 1.4643031081e-11 4.3560978877e-11 4.3560978877e-11 3.6774619871e-11 4.3874359331e-11 8.4901420798e-11 
8.4901420798e-11 -4.3256749213e-11 -2.0526515065e-11 -1.2251035722e-11 -4.3256749213e-11 -7.5960341549e-11 -3.1088681162e-11 -2.3255377289e-11 -7.5960341549e-11 
-4.1350642454e-11 -1.6449758289e-11 -1.0767399257e-11 -4.1350642454e-11 -4.4849939604e-11 -1.5224241522e-11 -5.6851488738e-12 -4.4849939604e-11 4.3562555812e-12 
1.0402321772e-11 2.6808102647e-11 2.6808102647e-11 -1.3896112911e-10 -6.7430341856e-11 -5.8408329032e-11 -1.3896112911e-10 -1.5161992383e-10 -5.4070244054e-11 
-2.7788232115e-11 -1.5161992383e-10 -1.5542624627e-11 7.092919387e-13 2.6409762688e-11 2.6409762688e-11 -4.7748801414e-11 -1.4658737179e-11 1.7945338593e-11 
-4.7748801414e-11 -3.4402689092e-11 -6.6856535143e-12 8.0218826059e-12 -3.4402689092e-11 3.9793379244e-11 5.7747129601e-11 9.7215591155e-11 9.7215591155e-11 
2.9951184934e-11 3.149016776e-11 7.5027947306e-11 7.5027947306e-11 1.4132302186e-11 2.5795483061e-11 3.7868814753e-11 3.7868814753e-11 -1.4951856471e-11 
-5.0023408046e-12 3.1407072756e-12 -1.4951856471e-11 -1.4230956851e-11 1.6284319874e-11 5.1749736977e-11 5.1749736977e-11 -1.0911751434e-11 6.974521262e-12 
4.0366470172e-11 4.0366470172e-11 -1.2900995297e-11 1.8695213409e-12 1.9450683956e-11 1.9450683956e-11 -3.2295808636e-11 -1.1826894504e-11 8.5342631409e-12 
-3.2295808636e-11 -5.5181085422e-11 7.3000540119e-12 5.5073461411e-11 -5.5181085422e-11 -8.1898966005e-11 -2.4968754723e-11 1.3609020727e-11 -8.1898966005e-11 
1.2491913688e-11 2.4153332335e-11 4.7702353977e-11 4.7702353977e-11 1.0654676934e-10 1.2283034316e-10 3.033298875e-10 3.033298875e-10 5.3178337218e-11 
6.3345686902e-11 1.6771737588e-10 1.6771737588e-10 -1.0950886493e-12 1.5791570376e-11 7.1924048273e-11 7.1924048273e-11 -2.0509167046e-10 -8.9546152722e-11 
-6.0593876821e-11 -2.0509167046e-10 -9.200083165e-11 -9.0019829994e-12 2.0298014649e-11 -9.200083165e-11 -9.5194530949e-12 1.4290082649e-11 5.6106630446e-11 
5.6106630446e-11 -1.1575043219e-10 -3.3679880256e-11 -2.3221987556e-11 -1.1575043219e-10 9.6085457705e-11 1.2500868726e-10 2.4965185504e-10 2.4965185504e-10 
-1.1831841601e-11 4.0668743157e-11 1.3864389844e-10 1.3864389844e-10 -1.6566632173e-10 -7.2825052686e-11 -4.8165825584e-11 -1.6566632173e-10 -1.6056642188e-10 
-6.5248874797e-11 -2.6106303325e-11 -1.6056642188e-10 -3.8116795955e-11 2.925294416e-11 1.3158978179e-10 1.3158978179e-10 3.7515457667e-12 1.625751349e-11 
9.2547880743e-11 9.2547880743e-11 -7.0314036666e-12 3.4322441732e-11 7.7028861935e-11 7.7028861935e-11 1.3105432449e-11 2.9961082362e-11 6.2792485189e-11 
6.2792485189e-11 -2.2379426899e-10 -8.4011907627e-11 -6.4518923384e-11 -2.2379426899e-10 -2.2812161954e-10 -8.199080501e-11 -6.7618275447e-11 -2.2812161954e-10 
-9.3069050874e-11 -2.6547388241e-11 1.0048539115e-11 -9.3069050874e-11 -4.4363233979e-11 1.7474820145e-11 9.2087313834e-11 9.2087313834e-11 -2.8945181894e-11 
5.703289115e-11 2.2165439074e-10 2.2165439074e-10 -1.0171957688e-10 -2.9875706253e-11 2.2248831292e-12 -1.0171957688e-10 -8.5539253348e-11 -2.1571298842e-11 
6.769231219e-11 -8.5539253348e-11 -1.174628076e-10 -4.5111093957e-11 -2.8725598447e-11 -1.174628076e-10 3.7336373815e-12 1.0570337527e-11 1.0226942509e-10 
1.0226942509e-10 3.7156794442e-11 4.4524241541e-11 1.1008596402e-10 1.1008596402e-10 1.2400451032e-10 1.4108998033e-10 3.5747050936e-10 3.5747050936e-10 
-1.3729170955e-10 -5.9568118589e-11 -3.6610771862e-11 -1.3729170955e-10 -8.6677918388e-11 -1.5142319582e-11 1.2148347969e-11 -8.6677918388e-11 -2.4595961329e-10 
-7.0494333046e-11 -4.3790153661e-11 -2.4595961329e-10 -6.9880485167e-11 -2.6293169816e-11 1.4721754983e-11 -6.9880485167e-11 -1.2577411685e-10 -7.7015003974e-11 
-3.4654479179e-11 -1.2577411685e-10 -3.9771293255e-11 -2.2922716466e-12 3.5431604901e-11 -3.9771293255e-11 -1.271332433e-10 -5.2865044227e-11 -3.9417512473e-11 
-1.271332433e-10 -6.0278463534e-11 -1.5421226232e-11 7.0446597654e-12 -6.0278463534e-11 7.0502225808e-11 9.5382640312e-11 2.4651273388e-10 2.4651273388e-10 
7.1123993662e-11 8.735980493e-11 1.9506580141e-10 1.9506580141e-10 -3.5932951933e-11 3.2733889123e-12 4.8224743021e-11 4.8224743021e-11 -1.0067255288e-11 
2.6570805919e-11 1.0466684937e-10 1.0466684937e-10 1.1668472365e-10 1.9428719316e-10 4.9841808319e-10 4.9841808319e-10 -2.5672174256e-11 5.1360860018e-11 
2.3061661424e-10 2.3061661424e-10 -5.2076889021e-11 4.5102551966e-11 1.7510063706e-10 1.7510063706e-10 2.1464109914e-11 5.2929925709e-11 1.5268146438e-10 
1.5268146438e-10 -1.2730605133e-10 -5.562454293e-11 -3.7300805742e-11 -1.2730605133e-10 3.6652512981e-11 4.5660730392e-11 1.1527185663e-10 1.1527185663e-10 
-2.9590829804e-11 5.817275323e-11 1.7509037657e-10 1.7509037657e-10 3.868724884e-12 2.7771285076e-11 1.0349499004e-10 1.0349499004e-10 -2.2547251385e-10 
-8.2383897267e-11 -6.9462088884e-11 -2.2547251385e-10 1.3237416407e-10 1.4244577653e-10 3.0423005939e-10 3.0423005939e-10 -3.1127745118e-10 -1.4091777019e-10 
-1.3243777863e-10 -3.1127745118e-10 -2.4342113845e-10 -1.0996062641e-10 -1.0128923513e-10 -2.4342113845e-10 7.3276311314e-11 9.0669858771e-11 2.2948882992e-10 
2.2948882992e-10 1.848135257e-10 2.048016551e-10 4.6326281919e-10 4.6326281919e-10 3.7703362503e-11 5.6705681172e-11 1.5122765632e-10 1.5122765632e-10 
3.6785546815e-11 3.8996650716e-11 9.9077802469e-11 9.9077802469e-11 -3.8355871659e-11 1.7714116208e-11 9.265945545e-11 9.265945545e-11 -1.0637436985e-10 
-5.0843838856e-11 -4.4660691292e-11 -1.0637436985e-10 -2.3134072751e-10 -8.6656521498e-11 -6.2340650988e-11 -2.3134072751e-10 -8.7770540805e-11 -3.0756182e-11 
-1.0656777195e-11 -8.7770540805e-11 -5.4235682036e-11 3.3872435306e-12 7.2705908506e-11 7.2705908506e-11 -4.8974245895e-12 2.6704951586e-11 8.2015673003e-11 
8.2015673003e-11 -5.6373224707e-11 -4.0256027582e-11 -1.9757247711e-11 -5.6373224707e-11 5.582945318e-11 6.4443739102e-11 1.3802750772e-10 1.3802750772e-10 
3.3803445582e-11 4.5559686532e-11 8.6915867886e-11 8.6915867886e-11 4.5128069009e-11 5.5273930844e-11 1.4653610015e-10 1.4653610015e-10 8.3017593145e-11 
1.033470352e-10 2.1895437166e-10 2.1895437166e-10 -7.5022216605e-11 -2.9586078881e-11 -1.9718004514e-11 -7.5022216605e-11 -2.3648780667e-11 1.7451512273e-13 
2.2446782544e-11 -2.3648780667e-11 9.0654215158e-12 2.3476069062e-11 6.3692309422e-11 6.3692309422e-11 3.779269679e-11 4.4257599618e-11 1.2055210359e-10 
1.2055210359e-10 -1.1479645116e-10 -2.8267683317e-11 1.3664634479e-11 -1.1479645116e-10 -3.8275747845e-11 3.4415615416e-12 4.3334336303e-11 4.3334336303e-11 
3.7456784609e-12 3.3298239124e-11 6.0274082415e-11 6.0274082415e-11 5.147059047e-12 1.4308676368e-11 4.4598924585e-11 4.4598924585e-11 -1.7530352403e-11 
7.3770634284e-13 2.716095606e-11 2.716095606e-11 -5.1430205198e-11 -2.0107052301e-11 -1.5451242501e-11 -5.1430205198e-11 -5.9954418336e-11 -2.1777553313e-11 
-1.3591028351e-11 -5.9954418336e-11 3.3119768651e-11 3.6067478988e-11 8.9666152361e-11 8.9666152361e-11 -3.3088746619e-11 -4.1889131398e-12 1.8629359759e-11 
-3.3088746619e-11 -2.6759669541e-11 1.3176673456e-11 5.5863006085e-11 5.5863006085e-11 1.9963877888e-11 4.6644389537e-11 1.1553773257e-10 1.1553773257e-10 
3.4881456009e-11 4.6590121616e-11 8.7648122374e-11 8.7648122374e-11 -6.8899080117e-11 -2.2218729045e-11 -7.501190837e-12 -6.8899080117e-11 -9.3568520696e-11 
-2.9608098944e-11 2.4083196399e-12 -9.3568520696e-11 -2.7726964254e-11 -1.0034667812e-11 -5.6931279347e-12 -2.7726964254e-11 8.5248284087e-12 2.2930115577e-11 
5.1584856014e-11 5.1584856014e-11 -3.3143209277e-11 -6.3950302096e-12 5.6244174868e-12 -3.3143209277e-11 -2.2991994964e-13 1.053458407e-11 3.5383545879e-11 
3.5383545879e-11 -1.0250595415e-10 -4.3572831751e-11 -4.1018014102e-11 -1.0250595415e-10 -9.5207345288e-11 -3.8042009823e-11 -2.615594489e-11 -9.5207345288e-11 
-1.0449002412e-10 -4.6528350822e-11 -4.4572025059e-11 -1.0449002412e-10 1.7895641464e-11 2.358588619e-11 5.3234372346e-11 5.3234372346e-11 -4.3047827564e-11 
-1.4424300045e-11 -4.8911723909e-12 -4.3047827564e-11 -1.4462471442e-11 2.3628781513e-12 3.362597329e-11 3.362597329e-11 -1.9419896511e-11 2.0732631252e-12 
3.3306043385e-11 3.3306043385e-11 3.4139189968e-11 3.9638371917e-11 8.9049938115e-11 8.9049938115e-11 -3.8302836538e-11 -8.4917599445e-12 -3.0310351771e-13 
-3.8302836538e-11 -8.1871036937e-13 7.9408589111e-12 2.7225331458e-11 2.7225331458e-11 1.8263812189e-11 2.3351977379e-11 5.5061710432e-11 5.5061710432e-11 
-6.5160503653e-12 -2.1393741836e-13 5.1109147837e-12 -6.5160503653e-12 -6.4828066407e-11 -2.7495919839e-11 -2.2948313754e-11 -6.4828066407e-11 -4.117976295e-12 
2.3584340745e-12 1.290908222e-11 1.290908222e-11 -1.3391780707e-11 -2.7334775513e-12 2.7678442584e-12 -1.3391780707e-11 9.702637737e-12 1.5645105402e-11 
3.0841556861e-11 3.0841556861e-11 -5.0443532963e-11 -1.5173081609e-11 -8.8030854277e-12 -5.0443532963e-11 -3.8962068595e-11 -1.6430258949e-11 -9.0763724564e-12 
-3.8962068595e-11 5.9189192436e-12 9.9604536158e-12 1.5866097141e-11 1.5866097141e-11 6.9901834741e-12 1.1961712795e-11 2.8666273731e-11 2.8666273731e-11 
-2.3412276661e-11 -6.764448557e-12 2.0857482178e-12 -2.3412276661e-11 5.9905487184e-12 8.042901233e-12 2.1648440049e-11 2.1648440049e-11 -8.2067472468e-13 
1.1881132056e-12 5.4438805191e-12 5.4438805191e-12 4.1633260892e-12 7.4012415369e-12 1.2559612374e-11 1.2559612374e-11 -2.3923028101e-11 -1.1234110934e-11 
-9.1650609659e-12 -2.3923028101e-11 4.6750839091e-12 8.0453281588e-12 1.7747607932e-11 1.7747607932e-11 1.6210822394e-12 5.0016881153e-12 1.3933679645e-11 
1.3933679645e-11 -4.0707138402e-12 -2.9983155275e-12 2.5022936767e-13 -4.0707138402e-12 -8.0921683182e-12 -4.8518529235e-13 2.8527636106e-12 -8.0921683182e-12 
-1.1157383793e-11 -8.2945164597e-12 -4.3484697477e-12 -1.1157383793e-11 3.0631777203e-12 4.7565688912e-12 7.0121433885e-12 7.0121433885e-12 -8.5849485022e-13 
2.4917504551e-12 3.7759243951e-12 3.7759243951e-12 -7.1441969833e-13 8.7481028077e-13 3.3090554176e-12 3.3090554176e-12 4.3936745833e-12 6.9986218728e-12 
9.3443235439e-12 9.3443235439e-12 -4.8620948348e-12 -1.9008132265e-12 -1.4770219387e-12 -4.8620948348e-12 -8.8187258065e-13 2.072842368e-13 2.9412983439e-12 
2.9412983439e-12 -7.9707029182e-13 4.7251792571e-11 1.0978607772e-10 1.0978607772e-10 -3.3859597849e-12 -2.2104806613e-12 2.3872064462e-12 -3.3859597849e-12 
-4.5656108749e-12 3.7585662668e-14 5.1351772123e-12 5.1351772123e-12 -1.1438489546e-10 -1.8012633535e-11 2.1389628995e-11 -1.1438489546e-10 -1.1160165487e-11 
-4.2041628688e-12 -1.3557416439e-12 -1.1160165487e-11 -1.1460040865e-10 -4.1989357089e-11 -1.3973634265e-11 -1.1460040865e-10 -1.4712221888e-10 -7.2754741506e-11 
-3.8990739613e-11 -1.4712221888e-10 -2.2271607643e-11 -1.8241563627e-11 -1.048762873e-11 -2.2271607643e-11 4.8966263776e-11 9.7054941704e-11 2.1887809452e-10 
2.1887809452e-10 -6.3936317046e-12 1.5860971406e-12 1.1081453564e-11 1.1081453564e-11 3.4754884674e-12 9.3179404602e-12 1.4123721072e-11 1.4123721072e-11 
-2.3928394755e-12 8.832424648e-11 2.22259393e-10 2.22259393e-10 -2.8218211521e-12 4.5487185841e-12 1.1478635568e-11 1.1478635568e-11 -1.1887792153e-11 
-5.0590515187e-12 5.6711346713e-12 -1.1887792153e-11 1.4216474126e-11 1.8950665983e-11 3.7262559891e-11 3.7262559891e-11 -9.5067574644e-12 -2.2563228063e-12 
1.5970937064e-13 -9.5067574644e-12 6.9896248581e-12 7.9048229712e-12 2.1881662171e-11 2.1881662171e-11 4.0074146204e-12 7.6189453101e-12 1.4683650069e-11 
1.4683650069e-11 -2.0192112189e-11 -6.7196804522e-12 -4.5252673591e-12 -2.0192112189e-11 -4.1548370359e-12 -2.3915078574e-13 3.3531558216e-12 -4.1548370359e-12 
-1.4618218689e-11 -2.6293232367e-12 3.620361926e-12 -1.4618218689e-11 -8.4334652217e-12 -4.2953362658e-12 7.3318814875e-12 -8.4334652217e-12 1.6464979615e-11 
2.753013338e-11 3.4067487005e-11 3.4067487005e-11 -2.8598312415e-11 -9.6704512772e-12 -4.9065463079e-12 -2.8598312415e-11 -3.3155734932e-12 5.2433096538e-12 
1.3993143839e-11 1.3993143839e-11 1.9887123461e-11 2.837794459e-11 5.8420331949e-11 5.8420331949e-11 -2.03597442e-11 -3.9707196624e-12 1.2727093862e-11 
-2.03597442e-11 -1.5331059485e-11 -9.9594574651e-14 7.9240240594e-12 -1.5331059485e-11 -4.2571760469e-11 -3.1087090087e-11 -2.1057049444e-11 -4.2571760469e-11 
1.9039301701e-11 2.5733704981e-11 5.1561893318e-11 5.1561893318e-11 -2.036749708e-11 -1.2735606691e-12 3.2916787749e-11 3.2916787749e-11 -1.3111431271e-11 
1.3867909971e-12 2.4407370274e-11 2.4407370274e-11 1.7772083648e-11 2.144638334e-11 5.3878333012e-11 5.3878333012e-11 1.489158619e-11 3.7551468297e-11 
5.8752745513e-11 5.8752745513e-11 -6.5951188449e-11 -4.9197567532e-11 -2.3455644019e-11 -6.5951188449e-11 1.6334627917e-11 2.8206237302e-11 3.7627234781e-11 
3.7627234781e-11 -3.0249674343e-11 -1.186293875e-11 -6.5945869066e-12 -3.0249674343e-11 -3.9534351395e-11 -1.8385740388e-11 5.0109917833e-12 -3.9534351395e-11 
-4.930406419e-12 1.6625431388e-11 5.8195075031e-11 5.8195075031e-11 -1.8582486383e-12 1.3245338274e-11 3.4756510364e-11 3.4756510364e-11 -1.2024069861e-10 
-7.0735579656e-11 -4.1129921737e-11 -1.2024069861e-10 2.4707442666e-11 3.739334249e-11 7.9973114845e-11 7.9973114845e-11 -1.0961046241e-10 -8.1600035081e-11 
-5.6913202511e-11 -1.0961046241e-10 -7.3201155265e-11 -2.8356816796e-11 -2.1221927939e-11 -7.3201155265e-11 -1.8344260881e-11 2.469463107e-11 9.5381529811e-11 
9.5381529811e-11 -4.2398411464e-11 1.2631099977e-11 6.0259861487e-11 6.0259861487e-11 5.6106453835e-12 2.3637514354e-11 7.5991740263e-11 7.5991740263e-11 
-3.729574208e-11 2.1680266126e-11 6.3513075954e-11 6.3513075954e-11 -1.4814697319e-11 -1.4163067731e-12 5.7922164092e-11 5.7922164092e-11 -4.0278541176e-11 
-1.030463421e-11 7.9665338532e-13 -4.0278541176e-11 -3.0185003066e-11 3.6154104813e-12 5.6657452584e-11 5.6657452584e-11 -1.2472804896e-10 -4.6472207529e-11 
-2.9430543508e-11 -1.2472804896e-10 -1.9276299355e-10 -9.081885338e-11 -8.2271853075e-11 -1.9276299355e-10 -9.0475972119e-11 -2.2287189721e-11 -8.1471181602e-12 
-9.0475972119e-11 -3.0831527903e-11 8.6796445707e-12 6.4112903333e-11 6.4112903333e-11 -8.6636002967e-11 -4.3928228967e-11 2.5960431933e-11 -8.6636002967e-11 
-6.3676264312e-11 6.6924248757e-12 9.2545719437e-11 9.2545719437e-11 -1.0527075048e-11 1.2777210609e-11 7.8568704439e-11 7.8568704439e-11 1.6031160184e-11 
4.1142630103e-11 1.1971020971e-10 1.1971020971e-10 4.2391550705e-12 2.0912090999e-11 1.0460609393e-10 1.0460609393e-10 1.7897443059e-11 5.7179438816e-11 
1.0464041813e-10 1.0464041813e-10 -4.4646810411e-11 2.41742467e-11 1.0817246371e-10 1.0817246371e-10 -2.5761969402e-11 -6.1128001875e-12 1.312046959e-11 
-2.5761969402e-11 -5.2206229508e-11 1.1330028237e-11 3.6712831272e-11 -5.2206229508e-11 -1.2822977683e-10 -5.5879966317e-11 -3.2981356857e-11 -1.2822977683e-10 
-1.3816952606e-10 -4.7286451035e-11 -4.6476822905e-11 -1.3816952606e-10 2.2283753117e-11 7.1336875636e-11 9.0260071247e-11 9.0260071247e-11 -4.2371873556e-11 
1.7662077517e-11 8.421078604e-11 8.421078604e-11 3.6187390436e-11 8.6240937193e-11 9.601187237e-11 9.601187237e-11 -4.4881070232e-13 2.2311624027e-11 
8.2162786675e-11 8.2162786675e-11 1.0000204432e-10 1.3741993219e-10 3.6192502349e-10 3.6192502349e-10 -2.0189610669e-10 -8.8891537884e-11 1.9052944578e-11 
-2.0189610669e-10 8.3949213012e-11 9.5021878936e-11 2.0906720805e-10 2.0906720805e-10 -2.227128466e-10 -7.7284189619e-11 -4.2090263777e-11 -2.227128466e-10 
-6.4266054124e-11 9.2441996136e-12 9.561436451e-11 9.561436451e-11 -2.059330031e-10 -6.2279564544e-11 1.9326676431e-12 -2.059330031e-10 8.8955468592e-11 
1.031628389e-10 2.2533369251e-10 2.2533369251e-10 -2.6498426572e-11 2.9759306014e-11 1.0437082056e-10 1.0437082056e-10 -9.3172682066e-11 -3.3004377449e-11 
-1.9269940485e-11 -9.3172682066e-11 5.0548877046e-11 7.8448637692e-11 2.1001438526e-10 2.1001438526e-10 -5.781538493e-11 -1.0472761262e-11 7.8425961917e-12 
-5.781538493e-11 -6.6571642652e-11 -2.3756513617e-11 4.9716396268e-11 -6.6571642652e-11 -9.1138075341e-11 -3.1882362508e-11 8.9583784808e-13 -9.1138075341e-11 
-2.0540154953e-10 -6.6244275023e-11 -1.7628975447e-11 -2.0540154953e-10 6.7274203412e-11 1.0871018465e-10 1.9046711194e-10 1.9046711194e-10 -1.5529700796e-10 
-1.1407802304e-10 -7.0630869006e-11 -1.5529700796e-10 -7.8214408875e-11 -5.048661735e-11 -9.5949737753e-12 -7.8214408875e-11 4.1229278975e-11 1.4386554495e-10 
3.0045417608e-10 3.0045417608e-10 -2.0995758558e-10 -1.4834983389e-10 -8.8210580525e-11 -2.0995758558e-10 4.4490132479e-11 5.2836590252e-11 1.1274827727e-10 
1.1274827727e-10 -1.1185932505e-10 -6.4576524641e-12 1.1804720542e-10 1.1804720542e-10 -3.4383530947e-11 4.4268699301e-11 3.6030483165e-10 3.6030483165e-10 
-1.4132193604e-10 -3.2152238862e-11 3.7471964903e-11 -1.4132193604e-10 -1.3191349342e-10 -3.7467730827e-11 -2.4097875754e-11 -1.3191349342e-10 3.5201663102e-11 
8.2188317164e-11 2.6012371973e-10 2.6012371973e-10 -1.8123360473e-10 -5.3300571277e-11 1.1641476009e-11 -1.8123360473e-10 -2.8424818218e-10 -1.034661458e-10 
-6.157867202e-11 -2.8424818218e-10 -9.4668312869e-11 -7.4364899438e-12 6.7564572813e-11 -9.4668312869e-11 -2.3937713555e-10 -7.0900006662e-11 1.9382842216e-11 
-2.3937713555e-10 -1.2128166367e-10 -1.1848530593e-11 6.8043294259e-11 -1.2128166367e-10 -7.9915941268e-11 5.326897337e-12 8.4438473931e-11 8.4438473931e-11 
2.1342345599e-11 4.8046885121e-11 1.4995826928e-10 1.4995826928e-10 -6.697957069e-11 1.4422016739e-13 9.1576801523e-11 9.1576801523e-11 3.7877243935e-11 
7.736689769e-11 2.1626105838e-10 2.1626105838e-10 3.766981434e-11 6.6191663272e-11 1.6008452239e-10 1.6008452239e-10 -3.1279963288e-11 -1.0454508124e-12 
6.7540294101e-11 6.7540294101e-11 7.6645230648e-11 1.2246910399e-10 3.6343966536e-10 3.6343966536e-10 -2.8756007843e-10 -8.2959495326e-11 -6.3932126246e-11 
-2.8756007843e-10 7.7123885314e-11 1.033216296e-10 2.5157818509e-10 2.5157818509e-10 -3.0667279277e-10 -1.1710119049e-10 -6.1429016742e-11 -3.0667279277e-10 
-1.0115428429e-10 -5.7832601759e-11 -4.1925613954e-11 -1.0115428429e-10 -8.1434718275e-11 4.4271234414e-11 2.6181008386e-10 2.6181008386e-10 1.3597976728e-10 
1.5133170422e-10 3.701805285e-10 3.701805285e-10 1.200223099e-11 5.5007178579e-11 1.8732069043e-10 1.8732069043e-10 -2.2232519068e-10 -6.5499925446e-11 
-2.1271183875e-11 -2.2232519068e-10 -2.2708075142e-10 -8.0478857652e-11 -7.3959093128e-13 -2.2708075142e-10 -1.7446677417e-10 -5.0207973602e-11 2.7957047777e-11 
-1.7446677417e-10 -3.6330025884e-11 -6.118942117e-13 1.328720701e-10 1.328720701e-10 7.4126724542e-11 1.3220126274e-10 3.4159401272e-10 3.4159401272e-10 
6.7231974902e-11 9.642551951e-11 2.9831870559e-10 2.9831870559e-10 6.2753747039e-11 8.2428479135e-11 2.1776097383e-10 2.1776097383e-10 7.4468904942e-11 
9.8450793138e-11 2.1954380192e-10 2.1954380192e-10 -2.2305432188e-11 2.8558090878e-11 1.0875954131e-10 1.0875954131e-10 -1.1726599651e-10 -4.3780302653e-11 
2.0051899164e-11 -1.1726599651e-10 5.2879375076e-11 9.1507552801e-11 2.3392517212e-10 2.3392517212e-10 -1.3726655047e-10 -1.4451824403e-11 8.9249074876e-11 
-1.3726655047e-10 -6.6463302889e-11 -1.7986354083e-11 3.6308669724e-12 -6.6463302889e-11 -1.571554242e-10 -3.6540290003e-11 -8.823285796e-12 -1.571554242e-10 
4.1221522391e-11 5.0201693572e-11 1.5427178404e-10 1.5427178404e-10 8.8358616763e-11 1.0715253917e-10 2.0305074407e-10 2.0305074407e-10 -1.2658262782e-10 
-4.2752521101e-11 -1.8821510757e-12 -1.2658262782e-10 1.2212633144e-10 1.2520091022e-10 2.9803175834e-10 2.9803175834e-10 -1.8888371795e-10 -6.5969247848e-11 
-3.6580634206e-11 -1.8888371795e-10 9.2298504017e-11 1.3048415663e-10 3.4527033935e-10 3.4527033935e-10 1.3536840655e-11 4.1791318022e-11 1.2595014132e-10 
1.2595014132e-10 6.8862998176e-11 7.8695954263e-11 1.6573204756e-10 1.6573204756e-10 -8.6777447566e-11 -2.394673042e-11 3.2738777986e-11 -8.6777447566e-11 
-2.502331553e-10 -9.2295955532e-11 -8.2343089173e-11 -2.502331553e-10 3.1527366066e-11 6.1479259528e-11 1.6833967441e-10 1.6833967441e-10 8.5509368656e-11 
9.6864700727e-11 1.9770413062e-10 1.9770413062e-10 -5.2121988708e-11 1.7764095822e-12 7.6331739126e-11 7.6331739126e-11 1.4966075668e-12 2.3426494785e-11 
9.7721797648e-11 9.7721797648e-11 6.9876787242e-12 3.5331344288e-11 1.0650097699e-10 1.0650097699e-10 -1.665219448e-11 6.8932912649e-12 1.1917670215e-11 
-1.665219448e-11 6.6375789456e-12 4.9311232621e-11 1.8380898843e-10 1.8380898843e-10 -1.9058993466e-11 4.881809417e-12 1.6258849049e-11 -1.9058993466e-11 
2.5277544858e-12 3.4488316201e-11 7.7263629314e-11 7.7263629314e-11 1.9025528144e-12 2.0532442964e-11 6.4860104221e-11 6.4860104221e-11 -9.2409015825e-11 
-2.7798607177e-11 -1.2961276998e-11 -9.2409015825e-11 -9.328546821e-11 -1.9355813144e-11 -2.9876186454e-12 -9.328546821e-11 -1.6778868196e-10 -5.9562285864e-11 
-2.8327532176e-11 -1.6778868196e-10 -7.3237051782e-11 -1.5833100351e-11 1.0383052133e-11 -7.3237051782e-11 -1.3653953432e-10 -5.1900985468e-11 -3.9039280216e-11 
-1.3653953432e-10 -4.0091037486e-11 -7.7286219803e-12 1.3144459466e-11 -4.0091037486e-11 -1.4744130725e-10 -6.4508303612e-11 -4.4026289136e-11 -1.4744130725e-10 
-1.735762484e-10 -7.3988561287e-11 -6.6073490311e-11 -1.735762484e-10 -5.6565064894e-11 -1.0698704899e-11 1.8691469793e-11 -5.6565064894e-11 -2.0266870651e-12 
2.1658953343e-11 6.4829533722e-11 6.4829533722e-11 1.4326430429e-12 1.5936129975e-11 4.0108426982e-11 4.0108426982e-11 -6.9446788723e-11 -2.6986575789e-11 
-1.2333835488e-11 -6.9446788723e-11 -9.2679539749e-12 2.808182176e-11 8.7235532215e-11 8.7235532215e-11 3.5613991956e-11 5.0151988302e-11 1.3790931974e-10 
1.3790931974e-10 -6.5046179184e-11 -1.8342285395e-11 -2.1526354207e-12 -6.5046179184e-11 -1.1067132707e-10 -4.1835487049e-11 -3.5710585883e-11 -1.1067132707e-10 
-2.4982328883e-11 -4.9853940498e-12 2.0773682932e-11 -2.4982328883e-11 1.2576747819e-12 1.5269928266e-11 5.4171996952e-11 5.4171996952e-11 -3.7310007017e-11 
-1.3108156585e-11 -4.4685763977e-12 -3.7310007017e-11 -1.4898577718e-11 -1.5001496679e-12 5.7398173856e-12 -1.4898577718e-11 -3.0799806073e-11 -1.8940578712e-11 
-1.3133715216e-11 -3.0799806073e-11 -4.9467319635e-11 -1.4665268336e-11 1.1107887971e-11 -4.9467319635e-11 -2.8362956215e-11 -4.8051200879e-12 1.1089748303e-11 
-2.8362956215e-11 -9.2849920973e-11 -3.5954264873e-11 -2.4025014154e-11 -9.2849920973e-11 2.7891025048e-11 3.7289409054e-11 7.8107765898e-11 7.8107765898e-11 
8.7802372654e-12 1.3822490965e-11 3.8841231769e-11 3.8841231769e-11 -4.6609139205e-11 -2.0499943742e-11 -1.2225617053e-11 -4.6609139205e-11 -2.2319049027e-11 
-4.519792456e-12 1.8878381483e-11 -2.2319049027e-11 -2.3687575079e-13 5.5089769982e-12 1.8840578753e-11 1.8840578753e-11 9.2100197228e-12 1.6412980435e-11 
3.9409899842e-11 3.9409899842e-11 -3.1656751091e-11 -1.1613303866e-11 -7.0369450423e-12 -3.1656751091e-11 -2.5703237738e-11 -1.1122016003e-11 4.905374129e-14 
-2.5703237738e-11 -4.8355029759e-12 -1.3067210369e-12 3.9834570128e-12 -4.8355029759e-12 -2.6535291905e-11 -3.8935306492e-12 7.3569925545e-12 -2.6535291905e-11 
-1.5648619742e-11 -6.9589391947e-12 -3.1626910633e-12 -1.5648619742e-11 5.5211542996e-12 1.2151062052e-11 1.9566523649e-11 1.9566523649e-11 3.4220507305e-13 
1.0379450969e-12 5.9056908301e-12 5.9056908301e-12 4.3618760776e-13 4.648685841e-12 1.1221536551e-11 1.1221536551e-11 -1.4452952971e-11 -5.5464461988e-12 
-2.8025608299e-12 -1.4452952971e-11 -1.0625565766e-11 1.0427193936e-13 1.0764158727e-11 1.0764158727e-11 9.6215936127e-12 1.8671974884e-11 2.2707331504e-11 
2.2707331504e-11 -6.518072594e-12 -8.1346993317e-13 6.8899725271e-12 6.8899725271e-12 -8.3939680862e-12 2.325664182e-11 8.7989026266e-11 8.7989026266e-11 
-1.7232185071e-11 -1.1337769111e-11 -5.6329858181e-12 -1.7232185071e-11 -2.1532454997e-11 -1.2016978466e-11 -7.6357465369e-12 -2.1532454997e-11 2.0421733562e-10 
2.2175312073e-10 5.2685554365e-10 5.2685554365e-10 -2.970508894e-11 -1.214829045e-11 -9.0125606102e-12 -2.970508894e-11 1.3717573551e-11 4.4966368935e-11 
1.2035915751e-10 1.2035915751e-10 9.8736541421e-11 1.1425503331e-10 2.4211242527e-10 2.4211242527e-10 -7.6423537379e-12 2.8941863418e-12 4.8493593962e-12 
-7.6423537379e-12 -4.7616836461e-11 -2.5296855554e-11 -9.3121079849e-12 -4.7616836461e-11 -1.3977180695e-11 -8.3785658307e-12 1.4523065258e-12 -1.3977180695e-11 
-7.4834693573e-12 3.4538090632e-12 1.4857230294e-11 1.4857230294e-11 -7.0061203221e-11 -1.4984019469e-11 1.755002269e-11 -7.0061203221e-11 3.1232126533e-12 
6.440598574e-12 1.8625488773e-11 1.8625488773e-11 -1.8412019507e-10 -7.284492826e-11 -5.7800876666e-11 -1.8412019507e-10 -3.2039825023e-12 1.9937866658e-12 
7.9756158365e-12 7.9756158365e-12 -4.857719284e-10 -2.0135403528e-10 -1.8266403633e-10 -4.857719284e-10 -3.6968900297e-11 -1.062999403e-11 4.3695543276e-12 
-3.6968900297e-11 -2.5924591564e-12 1.0441411222e-12 1.0412758034e-11 1.0412758034e-11 -7.8489848684e-11 -4.6022757873e-12 9.6449494471e-11 9.6449494471e-11 
3.8449104462e-12 5.3461665381e-12 1.3341103016e-11 1.3341103016e-11 -2.478417827e-12 1.2939528297e-12 4.3069619973e-12 4.3069619973e-12 7.3496372396e-11 
9.112655461e-11 2.2542937299e-10 2.2542937299e-10 1.239452713e-11 1.8206467648e-11 2.3932405222e-11 2.3932405222e-11 -9.7203666073e-13 3.2439826097e-13 
8.5958329998e-12 8.5958329998e-12 -4.5731815377e-12 -1.3155421689e-12 1.8042385066e-12 -4.5731815377e-12 -5.7622478378e-12 -2.4966144713e-13 3.0313352849e-12 
-5.7622478378e-12 4.8007974723e-13 2.7651166778e-12 8.677083575e-12 8.677083575e-12 3.4691453238e-12 4.4328066627e-12 9.9814680136e-12 9.9814680136e-12 
6.0610024532e-12 8.288074224e-12 1.4242263323e-11 1.4242263323e-11 -2.3021470815e-12 5.0603296222e-12 8.5017574593e-12 8.5017574593e-12 -7.8345072983e-12 
-3.4587812518e-12 1.68923855e-12 -7.8345072983e-12 -3.9378621308e-12 2.5584376295e-12 5.7950845012e-12 5.7950845012e-12 8.0483818762e-12 1.4598120885e-11 
1.6873637239e-11 1.6873637239e-11 -7.2388679793e-12 4.8383024317e-12 1.1011105548e-11 1.1011105548e-11 -9.8442637795e-12 -4.5729510853e-12 1.0332731865e-11 
1.0332731865e-11 -1.0468540266e-11 6.7487222003e-12 2.4804628066e-11 2.4804628066e-11 -1.8515158887e-11 -1.0928763683e-11 -4.2254374301e-12 -1.8515158887e-11 
-3.6675452202e-12 8.6999122469e-12 3.2059165973e-11 3.2059165973e-11 -1.9738095256e-11 -9.1604275832e-12 -4.5501871611e-12 -1.9738095256e-11 -3.3907505562e-11 
-1.6455146078e-11 -1.145664836e-11 -3.3907505562e-11 1.3045730992e-11 2.1754535738e-11 2.735013327e-11 2.735013327e-11 -5.6452870671e-11 -3.0216412858e-11 
-2.5267616471e-11 -5.6452870671e-11 -1.6906159967e-11 8.1236740238e-12 3.2406235943e-11 3.2406235943e-11 -4.4206818478e-11 -1.2159967774e-11 -4.2381537476e-12 
-4.4206818478e-11 -9.5949130453e-12 1.3930077058e-11 5.5828225988e-11 5.5828225988e-11 8.8323620389e-12 1.8713712732e-11 3.6591425229e-11 3.6591425229e-11 
-1.0495743605e-11 8.784357178e-13 1.3039441888e-11 1.3039441888e-11 -3.9505480265e-12 5.2444504275e-12 2.2219467599e-11 2.2219467599e-11 -2.7225931999e-11 
-2.7091347798e-12 2.4746666779e-11 -2.7225931999e-11 -2.9221757507e-11 -1.0277638754e-11 8.9636260548e-14 -2.9221757507e-11 -3.5772989193e-11 -2.159214933e-11 
4.7083985232e-12 -3.5772989193e-11 -5.3600654471e-13 1.9426638614e-11 4.6571567931e-11 4.6571567931e-11 -6.5261397485e-11 -4.5245741035e-11 -2.7482261479e-11 
-6.5261397485e-11 -2.8923176702e-11 -7.6000871448e-12 2.3019238467e-12 -2.8923176702e-11 -4.6353956138e-11 -1.2050435009e-11 4.9748911472e-12 -4.6353956138e-11 
1.9802555753e-11 3.3404205836e-11 5.6963938411e-11 5.6963938411e-11 5.2555128584e-12 1.1276458657e-11 8.0281328485e-11 8.0281328485e-11 -2.4435226083e-11 
-3.4079064023e-12 8.8558041854e-12 -2.4435226083e-11 -1.1937893229e-10 -4.7481795186e-11 -4.0785972526e-11 -1.1937893229e-10 3.420264489e-12 1.5508525436e-11 
4.7637310075e-11 4.7637310075e-11 4.0336167329e-11 5.9580061889e-11 8.3112970782e-11 8.3112970782e-11 8.9289286913e-12 1.4732598153e-11 3.4735673156e-11 
3.4735673156e-11 2.1052354049e-11 5.1004717335e-11 9.0991128616e-11 9.0991128616e-11 -5.4017455067e-11 -2.6215642082e-11 -1.867770285e-11 -5.4017455067e-11 
-1.7842820263e-11 2.0538765878e-12 3.8666136751e-12 -1.7842820263e-11 -4.7628194832e-11 -1.7230942957e-11 1.739083779e-11 -4.7628194832e-11 -4.3622969143e-12 
5.273551455e-12 6.6317225459e-11 6.6317225459e-11 -3.0207025608e-11 2.9000651187e-11 4.9999374421e-11 4.9999374421e-11 -7.0729049618e-11 -2.2065550531e-11 
-9.9798998516e-12 -7.0729049618e-11 -1.1885873966e-10 -4.7108911539e-11 -2.7879348805e-11 -1.1885873966e-10 -5.0471573151e-11 -6.5744531507e-12 4.0487259302e-11 
-5.0471573151e-11 -1.0079465598e-10 -3.4281354591e-11 -1.8478589426e-11 -1.0079465598e-10 -1.0214276494e-10 -6.0205535701e-11 -3.3486199362e-11 -1.0214276494e-10 
-3.6032268607e-12 4.3632878203e-11 7.5550248658e-11 7.5550248658e-11 -4.5758923113e-12 2.034501638e-11 4.7374875931e-11 4.7374875931e-11 -1.3720638081e-10 
-3.5647824536e-11 1.2565805341e-11 -1.3720638081e-10 -1.7260256382e-10 -4.744460995e-11 -3.7055026228e-11 -1.7260256382e-10 -7.0868274736e-12 3.5124862009e-11 
7.3411765464e-11 7.3411765464e-11 1.5139609702e-11 3.9063227698e-11 5.82860626e-11 5.82860626e-11 -2.4495165861e-10 -1.0597699116e-10 -9.3507350226e-11 
-2.4495165861e-10 -1.6490815384e-13 3.3361065845e-11 1.1969604231e-10 1.1969604231e-10 9.8658250988e-11 1.157463392e-10 2.3157740982e-10 2.3157740982e-10 
-1.318871458e-10 -6.7426613724e-11 -4.0567340477e-11 -1.318871458e-10 -7.1049293769e-11 -3.910607889e-11 -2.2645627341e-11 -7.1049293769e-11 7.4999633925e-11 
1.0471399754e-10 2.7609236854e-10 2.7609236854e-10 1.0959602876e-11 3.8012867073e-11 1.3791993005e-10 1.3791993005e-10 4.1899197035e-11 9.1526676951e-11 
1.4200052601e-10 1.4200052601e-10 -1.328327307e-10 -4.2617546652e-11 -2.8663622643e-11 -1.328327307e-10 -6.3664164644e-11 -3.7322372113e-11 -2.6846763243e-11 
-6.3664164644e-11 -1.986800754e-10 -5.2197300591e-11 -4.3480240076e-12 -1.986800754e-10 -1.380604754e-10 -5.9542659732e-11 -3.6095864863e-11 -1.380604754e-10 
1.0683582811e-10 1.4546673084e-10 2.4125844105e-10 2.4125844105e-10 -1.1621669e-10 -3.4991764057e-11 5.4726254056e-11 -1.1621669e-10 -1.3492395524e-10 
-2.6508079205e-11 1.1860017444e-10 -1.3492395524e-10 -9.412310204e-11 -5.2317427753e-12 4.2503244816e-11 -9.412310204e-11 -1.0755643628e-10 -4.6603468402e-11 
-1.8492295319e-11 -1.0755643628e-10 -3.5306782988e-11 -3.9989770889e-12 5.8182710077e-11 5.8182710077e-11 1.0870269796e-10 1.2919429033e-10 3.3624901171e-10 
3.3624901171e-10 -1.1434887849e-12 7.1996313892e-11 1.6527457489e-10 1.6527457489e-10 -2.3534102411e-11 6.6808536043e-11 2.4904186637e-10 2.4904186637e-10 
-1.7317041123e-11 8.062390396e-11 2.6168553716e-10 2.6168553716e-10 -2.1967825644e-10 -5.4054153391e-11 -4.5650901674e-12 -2.1967825644e-10 -7.9271855794e-11 
-7.4169256605e-12 3.8999602454e-11 -7.9271855794e-11 8.6796454982e-11 1.0254215587e-10 2.6381838915e-10 2.6381838915e-10 -1.5558839304e-10 -6.2219783768e-11 
-3.6975823191e-11 -1.5558839304e-10 -5.3863695974e-11 -6.0134749779e-12 2.8084460952e-11 -5.3863695974e-11 2.2164841969e-11 3.6826403778e-11 8.9706054253e-11 
8.9706054253e-11 -5.8795796892e-11 4.4111192256e-11 2.2614700464e-10 2.2614700464e-10 -1.3080257592e-10 -2.2740136174e-11 -5.2614879107e-12 -1.3080257592e-10 
6.0017900659e-12 2.9293135301e-11 8.5326174633e-11 8.5326174633e-11 -7.0719043303e-11 -6.1358757996e-12 2.5732619103e-11 -7.0719043303e-11 -4.1009657985e-10 
-1.9422646744e-10 -1.4656095271e-10 -4.1009657985e-10 -7.794144849e-11 -9.7315578268e-13 8.5758914273e-11 8.5758914273e-11 -2.3343612092e-10 -1.1183330046e-10 
-8.9783578612e-11 -2.3343612092e-10 -1.2484800002e-11 8.9331242098e-11 2.024444579e-10 2.024444579e-10 6.6220190969e-11 7.3058927365e-11 1.6915478167e-10 
1.6915478167e-10 -3.2338701351e-10 -1.5391222891e-10 -1.3780175758e-10 -3.2338701351e-10 -2.938402553e-10 -1.4302507311e-10 -9.9305671587e-11 -2.938402553e-10 
-5.140930956e-11 -1.2351765227e-11 -5.1232352127e-12 -5.140930956e-11 9.8263255271e-11 1.0561969643e-10 2.567810483e-10 2.567810483e-10 -1.2777935226e-11 
5.1891755117e-11 1.3696068011e-10 1.3696068011e-10 -1.4984214846e-10 -1.7550617103e-11 9.630056556e-11 -1.4984214846e-10 1.3279318949e-11 5.0684934416e-11 
1.4577974664e-10 1.4577974664e-10 -9.1298935826e-11 -3.838610072e-11 -1.9122663454e-11 -9.1298935826e-11 5.5858688247e-12 4.3004752746e-11 1.2615917843e-10 
1.2615917843e-10 2.641022108e-11 3.5742339113e-11 9.9239839807e-11 9.9239839807e-11 4.3203068392e-11 8.0315660392e-11 2.2012987122e-10 2.2012987122e-10 
4.0999273194e-11 9.7779658126e-11 2.4549356868e-10 2.4549356868e-10 -2.0129119051e-10 -4.7453444735e-11 -2.2486764759e-11 -2.0129119051e-10 -8.6955535859e-11 
-3.4027024048e-11 1.2909259907e-11 -8.6955535859e-11 -5.173821682e-11 3.6614199115e-11 1.364442177e-10 1.364442177e-10 5.8745822465e-14 2.067580752e-11 
3.7662546657e-11 3.7662546657e-11 2.4878813622e-12 2.9894521298e-11 7.911299734e-11 7.911299734e-11 -2.2905195139e-11 -6.6854130731e-12 2.6720459212e-11 
2.6720459212e-11 2.329479798e-11 3.6936167883e-11 1.0392123414e-10 1.0392123414e-10 8.9023892397e-11 1.2186157156e-10 2.3266753605e-10 2.3266753605e-10 
-3.9592234451e-11 -1.1753868661e-11 1.4806493112e-11 -3.9592234451e-11 -5.3909357796e-11 -1.4209215891e-11 1.5020273688e-11 -5.3909357796e-11 6.0640733127e-11 
9.5745489559e-11 2.5404957731e-10 2.5404957731e-10 -1.0026643837e-10 -1.4358977204e-11 6.218944557e-11 -1.0026643837e-10 5.0637483369e-11 7.2018445807e-11 
1.6645917082e-10 1.6645917082e-10 -1.2476212652e-10 -4.3815769207e-11 -2.9133304269e-11 -1.2476212652e-10 -6.367240683e-11 -4.489752932e-11 -2.2685563851e-11 
-6.367240683e-11 -3.4575821466e-11 2.8871906464e-11 1.31771015e-10 1.31771015e-10 -3.1045229661e-11 6.8671506084e-12 5.1224049053e-11 5.1224049053e-11 
-1.04059298e-10 -2.9530292772e-11 9.1783907705e-12 -1.04059298e-10 -1.1207300216e-10 -4.3310893276e-11 -3.4600204565e-11 -1.1207300216e-10 4.9562468462e-11 
6.4098010756e-11 1.4730542078e-10 1.4730542078e-10 3.78856167e-11 4.5909400539e-11 1.1038348276e-10 1.1038348276e-10 -1.288991463e-11 1.5226099255e-11 
6.3346715375e-11 6.3346715375e-11 -8.8384300788e-11 -2.4252286927e-11 1.4498587714e-11 -8.8384300788e-11 2.8316905029e-11 3.7127811993e-11 8.0713582978e-11 
8.0713582978e-11 3.48684151e-11 3.890083257e-11 1.0042855233e-10 1.0042855233e-10 -7.4870750458e-11 -3.6059276434e-11 9.0386268927e-12 -7.4870750458e-11 
-4.8365369765e-11 -1.007131528e-11 1.9358105045e-11 -4.8365369765e-11 -2.9399283583e-11 -5.2670779915e-12 1.4464711574e-11 -2.9399283583e-11 2.8902634282e-11 
4.2902595545e-11 1.0835367017e-10 1.0835367017e-10 -5.4246885546e-11 -2.7144123117e-11 -1.9286091337e-11 -5.4246885546e-11 -4.6936025985e-11 -3.6264928677e-11 
-2.3878745338e-11 -4.6936025985e-11 -5.174718008e-11 -1.0689975808e-11 -1.9210441127e-12 -5.174718008e-11 -3.2771479654e-11 2.9756745239e-12 4.436747513e-11 
4.436747513e-11 -2.1254961408e-11 1.5703136976e-11 5.8981324433e-11 5.8981324433e-11 -4.1680397998e-11 -3.4544028149e-12 2.9790380813e-11 -4.1680397998e-11 
-7.0068337233e-11 -1.6664132206e-11 1.4757219438e-11 -7.0068337233e-11 5.1079448423e-11 5.6587493861e-11 1.4954535772e-10 1.4954535772e-10 -3.6033269867e-11 
-6.1510865233e-12 1.359298639e-11 -3.6033269867e-11 -4.8435147574e-11 -1.9014004654e-11 -1.5896447772e-11 -4.8435147574e-11 2.688056493e-11 2.8481710121e-11 
7.3795824948e-11 7.3795824948e-11 1.7228635308e-11 3.1705479034e-11 7.7243385658e-11 7.7243385658e-11 -3.5656558167e-11 -1.9116347867e-12 2.3658872954e-11 
-3.5656558167e-11 -3.9933471292e-11 -1.3611441583e-11 1.1816872875e-11 -3.9933471292e-11 -3.9312125686e-11 -6.3860231237e-12 1.048322881e-11 -3.9312125686e-11 
-4.0408890998e-11 -6.8855905023e-12 1.2962681501e-11 -4.0408890998e-11 -1.1626106413e-11 1.214831272e-11 3.7342103693e-11 3.7342103693e-11 -5.7973966094e-12 
-4.9179545437e-12 2.0209031153e-11 2.0209031153e-11 9.9806543371e-12 1.1967368081e-11 3.0046377581e-11 3.0046377581e-11 -3.4115569742e-11 -1.9113250753e-12 
2.578264817e-12 -3.4115569742e-11 -1.3642065662e-11 2.786375492e-12 2.200522949e-11 2.200522949e-11 -2.0905777661e-11 -3.5899465316e-12 8.1577541929e-12 
-2.0905777661e-11 -5.61931187e-11 -2.191717448e-11 -1.936540682e-11 -5.61931187e-11 1.1989688172e-12 1.049553751e-11 1.7559263673e-11 1.7559263673e-11 
-1.1367968802e-11 1.4086388386e-12 3.0602559063e-11 3.0602559063e-11 1.1653783588e-11 1.6832781155e-11 4.4261435258e-11 4.4261435258e-11 8.7073360518e-12 
2.0170024277e-11 2.8195139671e-11 2.8195139671e-11 -2.2683250428e-11 -9.5873851189e-12 -3.0546544533e-12 -2.2683250428e-11 -1.3317515446e-11 -5.5714668222e-12 
-3.2996877319e-12 -1.3317515446e-11 -2.3915499088e-11 -7.2429700441e-12 -1.1862408675e-12 -2.3915499088e-11 -3.5076817094e-11 -2.2246269352e-11 -1.5866513554e-11 
-3.5076817094e-11 -9.3305409846e-13 4.4783217479e-12 8.0458423506e-12 8.0458423506e-12 -1.7125522013e-11 -2.959580546e-12 3.1952325586e-12 -1.7125522013e-11 
-4.3011167008e-12 -9.907628786e-13 2.8632645794e-12 -4.3011167008e-12 -1.8972783985e-11 -1.2009463076e-11 -7.4340429393e-12 -1.8972783985e-11 6.8809920133e-12 
1.4166246407e-11 2.123277158e-11 2.123277158e-11 -1.5015061324e-11 -7.4081807391e-12 -3.0771879365e-12 -1.5015061324e-11 4.156264816e-12 9.3921158875e-12 
1.4049449296e-11 1.4049449296e-11 -1.7029255464e-11 -6.2420959667e-12 -5.4304585698e-12 -1.7029255464e-11 -1.6400596685e-12 1.4316686371e-12 6.1695390315e-12 
6.1695390315e-12 6.9660591546e-13 4.3470448191e-12 1.3943685265e-11 1.3943685265e-11 -4.9112843619e-12 5.1121576846e-12 1.1267586677e-11 1.1267586677e-11 
8.728682397e-13 3.5496268959e-12 1.1242064864e-11 1.1242064864e-11 -2.4452861263e-11 -9.0914125577e-12 -5.9207061792e-12 -2.4452861263e-11 -3.8386714544e-11 
1.1750127839e-11 8.5682186706e-11 8.5682186706e-11 -2.4378765004e-12 2.2048445764e-12 5.629941924e-12 5.629941924e-12 -6.4336326808e-11 2.2616978223e-11 
1.5685774858e-10 1.5685774858e-10 -4.8081230717e-12 1.4537235831e-12 7.5370074886e-12 7.5370074886e-12 -4.470342844e-12 3.4499411306e-11 5.5107331538e-11 
5.5107331538e-11 -1.5381419465e-11 -6.4578859321e-12 2.2461539708e-13 -1.5381419465e-11 4.5656194025e-11 5.6655904658e-11 1.3739170132e-10 1.3739170132e-10 
-1.3358303682e-11 -2.3216961294e-12 4.3776138114e-12 -1.3358303682e-11 -7.0050046332e-11 -2.4497434732e-11 -4.8388189355e-12 -7.0050046332e-11 4.2129130646e-11 
8.6289758041e-11 2.4978241131e-10 2.4978241131e-10 4.1330821822e-12 6.5018982769e-12 7.7664295409e-12 7.7664295409e-12 8.2534827472e-12 1.3520519654e-11 
1.8298107599e-11 1.8298107599e-11 -8.1124874803e-12 3.2896450703e-11 1.1405173678e-10 1.1405173678e-10 -1.0046390989e-11 -2.2907822678e-12 2.7745132568e-12 
-1.0046390989e-11 1.9526973494e-12 3.0035443637e-12 4.1510582869e-12 4.1510582869e-12 3.6335744767e-12 5.0892972715e-12 9.8964982518e-12 9.8964982518e-12 
-3.3491538562e-12 1.8129861447e-12 3.1552407115e-12 -3.3491538562e-12 -4.8937800824e-15 1.9654045368e-12 4.0098292433e-12 4.0098292433e-12 -2.8600781883e-12 
6.4160347632e-13 5.153046712e-12 5.153046712e-12 -1.0871557716e-11 -4.7655757023e-12 -3.9941365818e-12 -1.0871557716e-11 -1.7966466965e-12 2.4314790367e-12 
1.049630766e-11 1.049630766e-11 -5.7347470149e-12 -3.8554959245e-12 -8.3255706058e-13 -5.7347470149e-12 7.7881711738e-12 1.0288807811e-11 1.7643891015e-11 
1.7643891015e-11 5.6954360146e-12 9.2730459828e-12 1.5996328003e-11 1.5996328003e-11 -1.5393293135e-11 -1.0203759472e-11 -5.6713573932e-12 -1.5393293135e-11 
-8.6042754894e-12 4.1870399954e-12 5.732738794e-12 -8.6042754894e-12 -1.1141594801e-11 6.7282375574e-12 1.0889657244e-11 -1.1141594801e-11 -3.1939763232e-12 
7.7612988868e-12 1.8504497436e-11 1.8504497436e-11 -9.8195672553e-12 1.9166866047e-12 1.2456530651e-11 1.2456530651e-11 -9.0732529903e-12 1.1606365849e-12 
1.0644801405e-11 1.0644801405e-11 -8.3224959276e-12 -1.2909774559e-12 1.3661115384e-11 1.3661115384e-11 -1.919322077e-11 -1.0412517402e-11 -5.5079218279e-12 
-1.919322077e-11 -5.3031811787e-12 1.3730424472e-11 2.9823456707e-11 2.9823456707e-11 -3.1849086634e-12 6.6778169864e-12 2.0590811677e-11 2.0590811677e-11 
-6.8461865772e-12 2.1639260275e-12 1.793843055e-11 1.793843055e-11 -5.3291148661e-11 -1.8878381023e-11 -9.087770316e-12 -5.3291148661e-11 -2.59061267e-11 
-2.9864078658e-12 -2.0722754347e-12 -2.59061267e-11 -4.3552614364e-12 4.385752922e-12 4.0041658514e-11 4.0041658514e-11 1.0913967969e-11 1.4736599316e-11 
4.4981532715e-11 4.4981532715e-11 -2.4288701242e-11 -7.1432384352e-12 -5.1996203231e-12 -2.4288701242e-11 3.038399309e-11 3.8619221494e-11 6.8516885416e-11 
6.8516885416e-11 2.1325539253e-11 2.9590504247e-11 5.46274565e-11 5.46274565e-11 2.4584015995e-11 3.2285033991e-11 8.7835750014e-11 8.7835750014e-11 
-3.0101468375e-11 -1.0850792919e-11 -3.5722587059e-12 -3.0101468375e-11 -1.0969356188e-10 -5.8949628666e-11 -5.0336409451e-11 -1.0969356188e-10 -3.903205319e-12 
7.548607155e-12 2.5093138164e-11 2.5093138164e-11 1.1934775954e-11 2.2733335712e-11 4.0821288334e-11 4.0821288334e-11 -4.2894100756e-11 -2.1249060377e-11 
-1.8429738867e-11 -4.2894100756e-11 3.2751979553e-11 3.9136482083e-11 8.3441638364e-11 8.3441638364e-11 -1.8583372219e-11 5.5792113458e-12 2.6462720873e-11 
2.6462720873e-11 3.1271266654e-11 3.3410175579e-11 8.3868657768e-11 8.3868657768e-11 -2.9845692959e-11 -1.9169065403e-11 -8.3611416386e-12 -2.9845692959e-11 
-2.4524742304e-11 -1.4951192585e-12 1.7216133562e-11 -2.4524742304e-11 5.3609297059e-12 1.1028124014e-11 2.803429628e-11 2.803429628e-11 -5.2222060252e-11 
-1.8774115948e-11 -3.3801237996e-12 -5.2222060252e-11 -1.5972813678e-11 1.2881221807e-12 1.5190651498e-11 -1.5972813678e-11 2.729086075e-11 3.2112206133e-11 
7.1134833117e-11 7.1134833117e-11 -2.9225595413e-12 2.1031559452e-11 6.5374500089e-11 6.5374500089e-11 -1.1634556612e-11 5.8138717987e-12 3.7190304813e-11 
3.7190304813e-11 -4.8753088776e-11 -1.3142134298e-11 8.870479074e-12 -4.8753088776e-11 -8.5842051457e-11 -3.1847700692e-11 -1.3252847852e-11 -8.5842051457e-11 
7.2774952334e-13 9.0143531386e-12 3.0431207338e-11 3.0431207338e-11 -7.0784060323e-12 1.3132354132e-11 5.09172829e-11 5.09172829e-11 -7.3086611195e-11 
-3.7516996445e-11 -2.7726092361e-11 -7.3086611195e-11 -2.3857566488e-12 2.234750743e-11 5.0467949219e-11 5.0467949219e-11 6.149786764e-11 6.8395047819e-11 
1.4798038454e-10 1.4798038454e-10 6.6527386929e-11 8.0198871376e-11 2.0471424169e-10 2.0471424169e-10 9.7166060962e-11 1.0364238075e-10 2.3998555829e-10 
2.3998555829e-10 6.3734911265e-11 6.6289662239e-11 1.486582265e-10 1.486582265e-10 8.0574934248e-11 9.8158378456e-11 2.435414873e-10 2.435414873e-10 
9.041238287e-11 9.9843869955e-11 2.3353614718e-10 2.3353614718e-10 4.8355937758e-11 6.1834220986e-11 1.5098664126e-10 1.5098664126e-10 5.1246093929e-11 
6.2715154708e-11 1.8688285136e-10 1.8688285136e-10 9.5046657471e-11 1.0703858729e-10 2.5287575524e-10 2.5287575524e-10 5.4135676508e-11 7.8611616382e-11 
2.1221650711e-10 2.1221650711e-10 6.7085308235e-11 7.8793524862e-11 1.796569669e-10 1.796569669e-10 2.4643065076e-11 6.6788882062e-11 1.4211985286e-10 
1.4211985286e-10 2.7136563516e-11 4.6112974638e-11 1.2265896185e-10 1.2265896185e-10 -1.0230604644e-10 -3.2350706978e-11 2.354775342e-11 -1.0230604644e-10 
2.8031353927e-11 6.6056000083e-11 2.4429944599e-10 2.4429944599e-10 4.2320668991e-11 4.4074726569e-11 9.878630444e-11 9.878630444e-11 2.7082395336e-11 
5.9463588595e-11 1.1340981607e-10 1.1340981607e-10 5.0850702058e-11 6.9631630585e-11 1.8481466736e-10 1.8481466736e-10 9.2904759707e-11 9.6316264263e-11 
2.1746987603e-10 2.1746987603e-10 1.7265418341e-10 1.8402914289e-10 4.271516737e-10 4.271516737e-10 1.7267883328e-10 1.9884238341e-10 3.9885478331e-10 
3.9885478331e-10 1.0316292074e-10 1.1602705123e-10 2.9658602803e-10 2.9658602803e-10 -3.666482957e-11 -1.074182056e-11 2.777536013e-11 -3.666482957e-11 
1.4748400395e-10 1.6694571106e-10 3.4797528499e-10 3.4797528499e-10 2.0964358718e-10 2.3133943162e-10 5.386589812e-10 5.386589812e-10 1.4006068137e-10 
1.6273766729e-10 3.3501665134e-10 3.3501665134e-10 -1.3265631292e-12 2.5753991184e-11 8.3241071945e-11 8.3241071945e-11 -8.4178674949e-11 -6.2573703673e-12 
8.3251395316e-11 -8.4178674949e-11 2.059584089e-11 4.9994047597e-11 1.5506841151e-10 1.5506841151e-10 -4.2010647508e-11 1.4051902295e-11 9.1709795214e-11 
9.1709795214e-11 -3.8295604531e-11 2.9519735928e-11 8.4164068603e-11 8.4164068603e-11 -2.6347382521e-11 -3.3776507046e-12 5.7451685225e-11 5.7451685225e-11 
8.745461072e-11 1.0270517963e-10 2.6388920965e-10 2.6388920965e-10 3.608134864e-12 5.2879462096e-11 1.7220710304e-10 1.7220710304e-10 -1.4644879685e-10 
-3.3086781044e-11 -3.3391221057e-12 -1.4644879685e-10 3.6486828835e-11 8.3004076452e-11 1.5494279471e-10 1.5494279471e-10 1.3066596175e-11 4.9438640187e-11 
1.2789796364e-10 1.2789796364e-10 1.1620667265e-10 2.0093234809e-10 4.1220397925e-10 4.1220397925e-10 -2.512954987e-10 -6.2845301959e-11 1.9428700656e-11 
-2.512954987e-10 7.2887192864e-11 8.4918576202e-11 1.7754543093e-10 1.7754543093e-10 1.7227545588e-10 1.857069246e-10 4.4619161952e-10 4.4619161952e-10 
1.5683012363e-10 1.7528546311e-10 3.6337841326e-10 3.6337841326e-10 8.6755431874e-11 1.0741953219e-10 2.2496323594e-10 2.2496323594e-10 -2.1547595644e-10 
-8.7602957438e-11 -6.556418612e-11 -2.1547595644e-10 -1.1363297874e-10 -3.9814506608e-11 -2.2120914651e-11 -1.1363297874e-10 -1.78953102e-10 -5.0225514242e-11 
-1.1051683754e-11 -1.78953102e-10 -2.6400384472e-10 -1.408702019e-10 -1.1292595337e-10 -2.6400384472e-10 -4.0112037552e-11 1.0056652473e-11 7.2454915079e-11 
7.2454915079e-11 3.1939583686e-11 6.5273766551e-11 1.1589744976e-10 1.1589744976e-10 5.9933833516e-11 8.3772455078e-11 1.4003661141e-10 1.4003661141e-10 
-1.7412955779e-10 -7.4936653122e-11 -4.4694689088e-11 -1.7412955779e-10 6.406543732e-11 8.0329799464e-11 1.9864596322e-10 1.9864596322e-10 -1.6756916898e-10 
-5.8580946594e-11 -5.5265584429e-11 -1.6756916898e-10 -1.3303730728e-10 -4.2206693684e-11 -1.7223799034e-11 -1.3303730728e-10 5.5383892918e-12 2.1864251248e-11 
3.584245946e-11 3.584245946e-11 7.9887759153e-11 9.8050433087e-11 2.3300350776e-10 2.3300350776e-10 -2.4537057137e-11 2.1060660553e-11 4.8000896584e-11 
4.8000896584e-11 -3.0919401055e-11 3.7432870381e-11 1.3758423067e-10 1.3758423067e-10 4.1364658283e-11 4.4123266235e-11 1.0141377548e-10 1.0141377548e-10 
-6.6773598768e-11 -2.6726020294e-11 -1.1740180938e-11 -6.6773598768e-11 -4.3368334386e-11 -1.7308536577e-13 3.1803119752e-11 -4.3368334386e-11 -2.5666320618e-11 
5.9098673245e-12 7.1263353294e-11 7.1263353294e-11 -6.9862007084e-11 1.2890037449e-11 1.0129418964e-10 1.0129418964e-10 -5.3314807903e-11 -2.199083832e-11 
-1.5969753777e-11 -5.3314807903e-11 6.5565161379e-11 9.8233341407e-11 2.5837519721e-10 2.5837519721e-10 6.591216267e-11 8.7723596898e-11 1.9689374043e-10 
1.9689374043e-10 8.7190728513e-11 1.0782921773e-10 2.6955305375e-10 2.6955305375e-10 6.1586952922e-11 7.4379683581e-11 1.658898635e-10 1.658898635e-10 
1.4032913884e-11 2.3884581197e-11 4.7590004919e-11 4.7590004919e-11 -7.6950512922e-12 1.5139585921e-11 6.9866365372e-11 6.9866365372e-11 7.7109662792e-11 
9.1664155453e-11 2.2860748175e-10 2.2860748175e-10 5.2901763535e-11 5.7256440205e-11 1.3452419626e-10 1.3452419626e-10 6.9115161616e-12 2.5644262413e-11 
6.4892321425e-11 6.4892321425e-11 -2.8925315884e-11 -5.4060287237e-12 2.2795437608e-11 -2.8925315884e-11 -5.3354474468e-11 -4.1123252198e-12 6.2526409688e-11 
6.2526409688e-11 -3.8984668897e-11 -8.5586425451e-12 2.2245311442e-11 -3.8984668897e-11 8.1390033689e-12 2.0331742822e-11 5.1774753809e-11 5.1774753809e-11 
-1.0283337552e-10 -4.4660281716e-11 -4.0926542762e-11 -1.0283337552e-10 -7.302049019e-11 -3.4024732074e-11 -1.1045977736e-11 -7.302049019e-11 4.0571143912e-11 
4.8427332869e-11 1.0468332322e-10 1.0468332322e-10 1.9888352947e-11 3.6175410319e-11 7.2956336733e-11 7.2956336733e-11 2.0886360935e-13 1.7688712338e-11 
4.3323724053e-11 4.3323724053e-11 -1.2253726367e-10 -4.7506715583e-11 -3.5072820743e-11 -1.2253726367e-10 -7.6438738244e-12 1.0796766916e-11 4.3800226908e-11 
4.3800226908e-11 -1.9859560894e-11 -8.4282455994e-12 -3.6889535064e-12 -1.9859560894e-11 2.7451320831e-11 3.0751802969e-11 6.58585762e-11 6.58585762e-11 
2.8675465634e-12 1.2672604675e-11 3.7889348761e-11 3.7889348761e-11 -1.6185387268e-10 -6.6248842562e-11 -5.5842284763e-11 -1.6185387268e-10 -1.324600607e-11 
8.2260726903e-12 3.962771338e-11 3.962771338e-11 -6.7305157328e-11 -2.1759488144e-11 -5.4488545286e-12 -6.7305157328e-11 6.6947776085e-12 2.2110463284e-11 
6.3684459107e-11 6.3684459107e-11 -5.2835586652e-11 -1.9526904891e-11 -1.8609308458e-11 -5.2835586652e-11 -1.7083624391e-10 -7.0331688445e-11 -6.3420167644e-11 
-1.7083624391e-10 -2.2552892448e-11 -5.6445794217e-12 3.8101648695e-12 -2.2552892448e-11 -2.3214963412e-11 -1.1945309498e-11 -1.57251709e-12 -2.3214963412e-11 
-1.1066161216e-10 -4.7438360353e-11 -3.9022227484e-11 -1.1066161216e-10 -1.9888391037e-11 1.9844568634e-12 3.8749514174e-11 3.8749514174e-11 9.1543831356e-12 
2.6198056229e-11 5.4405060636e-11 5.4405060636e-11 -2.3432312219e-11 -8.7325109321e-12 -5.4786868486e-12 -2.3432312219e-11 -1.0048142817e-11 1.5233949866e-11 
4.7838892952e-11 4.7838892952e-11 2.7060490698e-12 9.0686593494e-12 2.7285481581e-11 2.7285481581e-11 -1.2107307446e-11 1.6455517332e-12 3.3783047129e-12 
-1.2107307446e-11 -3.7467427316e-11 -1.0373444129e-11 -8.4219285544e-12 -3.7467427316e-11 -4.2928531328e-13 1.0930198969e-12 1.3705555416e-11 1.3705555416e-11 
-1.8037107114e-11 -6.0265179669e-12 1.8013650809e-12 -1.8037107114e-11 -3.2506831274e-11 -1.3567028061e-11 -7.3556406652e-12 -3.2506831274e-11 -5.4849939175e-11 
-2.3266052688e-11 -1.9736808137e-11 -5.4849939175e-11 -3.6638489487e-11 -1.6704784336e-11 -1.1723326177e-11 -3.6638489487e-11 -7.5248869696e-11 -3.0684685043e-11 
-2.0759145261e-11 -7.5248869696e-11 -8.5232179145e-11 -3.3917557527e-11 -3.0412363328e-11 -8.5232179145e-11 -3.0339869932e-11 -1.1103668985e-11 -5.8131610831e-12 
-3.0339869932e-11 -1.9963819394e-11 -4.8869117896e-12 -9.5331881608e-13 -1.9963819394e-11 3.0377107277e-12 6.1015183359e-12 1.3426600936e-11 1.3426600936e-11 
-1.1574184946e-11 -7.6099436671e-12 -4.7984213865e-12 -1.1574184946e-11 -2.1758858642e-12 5.4919243378e-12 1.5606901526e-11 1.5606901526e-11 -6.0925025064e-12 
3.7911159501e-12 7.0574265562e-12 7.0574265562e-12 -1.8603945416e-11 -5.3929467343e-12 8.2390115072e-13 -1.8603945416e-11 6.76033911e-13 2.6309519141e-12 
3.6752741749e-12 3.6752741749e-12 -1.0408082963e-12 1.654364665e-12 6.5710936314e-12 6.5710936314e-12 5.9133389809e-12 9.7966852262e-12 1.3433305793e-11 
1.3433305793e-11 9.4157657399e-12 1.3751241086e-11 1.8321733174e-11 1.8321733174e-11 3.6528876782e-12 5.5056437794e-12 7.4369985424e-12 7.4369985424e-12 
-1.2072568791e-12 2.2865011953e-12 4.0815556837e-12 4.0815556837e-12 -2.7582085333e-12 -1.9546509519e-12 6.6516748519e-13 -2.7582085333e-12 -1.72274136e-12 
-1.8674224484e-13 2.5166406049e-12 2.5166406049e-12 2.722128751e-12 5.4339264715e-12 1.5158634778e-11 1.5158634778e-11 -7.5248757056e-11 2.68143971e-11 
9.4679249955e-11 9.4679249955e-11 -5.7168768729e-12 -3.2916008334e-12 -1.5155022937e-12 -5.7168768729e-12 -8.5519876616e-11 9.2291864461e-12 7.584909017e-11 
-8.5519876616e-11 7.6871878542e-12 1.1333001287e-11 2.2453060859e-11 2.2453060859e-11 -1.5790546142e-11 -7.6299709255e-12 -5.2812729327e-12 -1.5790546142e-11 
-2.3349205835e-10 -1.1052349147e-10 -6.984205018e-11 -2.3349205835e-10 -1.3231171331e-11 -1.5301978404e-12 1.5051891719e-12 -1.3231171331e-11 2.0965406866e-11 
5.5513898253e-11 1.2458919488e-10 1.2458919488e-10 -5.5726264904e-12 3.7217357798e-12 9.9462617106e-12 9.9462617106e-12 2.2273576325e-11 6.3547348852e-11 
1.1150387482e-10 1.1150387482e-10 -2.0304478435e-11 -7.5415972881e-12 -4.1307042771e-12 -2.0304478435e-11 8.3227398649e-12 4.083013595e-11 1.3946932419e-10 
1.3946932419e-10 -9.6499170082e-13 2.649162489e-12 6.5731092118e-12 6.5731092118e-12 -8.6829902004e-12 -3.0546852287e-12 -1.1526545709e-12 -8.6829902004e-12 
-1.594502153e-12 1.0731373898e-12 2.1093077632e-12 2.1093077632e-12 3.7630386966e-12 5.1851151431e-12 7.3982761602e-12 7.3982761602e-12 5.8905624942e-13 
2.0365172425e-12 2.6986965081e-12 2.6986965081e-12 1.6887477715e-13 1.2175670855e-12 2.9103301373e-12 2.9103301373e-12 1.2392995671e-12 3.3242335872e-12 
5.3377368456e-12 5.3377368456e-12 2.9866503069e-12 8.2398427354e-12 9.6035269578e-12 9.6035269578e-12 1.6501710879e-12 3.8903566544e-12 4.8277922577e-12 
4.8277922577e-12 -3.7194093641e-12 -1.7907153974e-12 6.5289276145e-13 -3.7194093641e-12 -4.4628742597e-12 -2.1752115951e-12 4.6765118548e-12 4.6765118548e-12 
-2.7204510851e-12 1.7411905319e-12 9.2925905532e-12 9.2925905532e-12 -1.8999334058e-11 -5.7937606537e-12 3.9874711536e-14 -1.8999334058e-11 -2.4870087262e-12 
-3.7378451705e-13 3.5146532433e-12 3.5146532433e-12 -2.5465740393e-11 -1.0580458194e-11 -8.9766014126e-12 -2.5465740393e-11 -1.9594603725e-11 -1.2705729397e-11 
-7.9585868775e-12 -1.9594603725e-11 -3.0319940857e-12 2.3382640356e-12 1.078181805e-11 1.078181805e-11 -2.9843846987e-12 3.2788870039e-12 2.1749817695e-11 
2.1749817695e-11 -2.5123784856e-11 -1.6426301383e-11 -4.1266137612e-12 -2.5123784856e-11 -1.1587182737e-11 -7.9518387103e-12 -4.0932385529e-12 -1.1587182737e-11 
-3.6033518103e-11 -1.4382945253e-11 -1.1139536645e-11 -3.6033518103e-11 -2.0652590376e-11 -1.7135657017e-12 8.261516078e-12 -2.0652590376e-11 -3.5375325298e-11 
-1.2944063868e-11 -7.071710834e-12 -3.5375325298e-11 -4.923405754e-11 -1.5183654312e-11 -5.1713881477e-12 -4.923405754e-11 -3.0637292763e-11 -2.3280238613e-12 
1.4563876624e-11 -3.0637292763e-11 -2.2974168004e-11 -1.3047841124e-11 -8.0666908722e-12 -2.2974168004e-11 -1.0674800633e-11 1.327903449e-13 1.1009051288e-11 
1.1009051288e-11 -2.0214138124e-11 -6.8398820712e-12 -1.7156798045e-12 -2.0214138124e-11 -8.0837435442e-12 -2.3659684592e-12 6.3397500034e-12 -8.0837435442e-12 
3.0758056114e-12 1.0848156867e-11 4.3148457521e-11 4.3148457521e-11 -1.7301282649e-11 -6.2718761973e-12 -4.8229311541e-12 -1.7301282649e-11 -1.7792331455e-11 
-4.2311545369e-12 1.5017870992e-11 -1.7792331455e-11 -4.7862552273e-11 -1.6867358294e-11 -1.1024189433e-11 -4.7862552273e-11 -5.3665418151e-11 -2.092661391e-11 
-2.3762679392e-12 -5.3665418151e-11 -4.6079588958e-11 -1.483186239e-11 -8.9578486515e-12 -4.6079588958e-11 -5.3449677973e-11 -2.8013898574e-11 -1.9417223453e-11 
-5.3449677973e-11 -6.3798121535e-11 -2.5837968963e-11 -3.398409502e-12 -6.3798121535e-11 -1.5400925045e-11 9.9184708026e-12 2.7807034243e-11 2.7807034243e-11 
-2.3645191755e-11 7.06843471e-12 2.7692327045e-11 2.7692327045e-11 -1.1135632162e-10 -5.2745595087e-11 -3.9808283291e-11 -1.1135632162e-10 -8.7680220565e-11 
-3.2452759838e-11 -1.0264819596e-11 -8.7680220565e-11 -1.2970164873e-11 5.187719312e-12 2.1420035561e-11 2.1420035561e-11 9.3058343838e-13 8.7697472465e-12 
4.6811569315e-11 4.6811569315e-11 -6.6699798979e-11 -3.289841036e-11 -1.3986190661e-11 -6.6699798979e-11 -2.774688146e-11 1.0060521261e-11 1.8246794199e-11 
-2.774688146e-11 -1.0454390486e-10 -4.1974450293e-11 -3.6281444843e-11 -1.0454390486e-10 -2.9849515866e-11 -5.6532991735e-12 1.1310135039e-11 -2.9849515866e-11 
-1.0216980107e-10 -4.1362736483e-11 -3.5998062445e-11 -1.0216980107e-10 -3.3573210117e-11 -8.6041785672e-12 2.1986386846e-12 -3.3573210117e-11 6.745407009e-11 
7.1848274352e-11 1.6642275556e-10 1.6642275556e-10 5.4832869882e-12 1.7302446058e-11 5.0913366954e-11 5.0913366954e-11 -6.2233516646e-11 -1.105174795e-11 
1.5091964596e-11 -6.2233516646e-11 2.0757285457e-11 3.8623793406e-11 8.0077321137e-11 8.0077321137e-11 5.4013154827e-11 6.3204864282e-11 1.3526478089e-10 
1.3526478089e-10 2.7588819325e-11 3.6478482801e-11 9.0523197874e-11 9.0523197874e-11 -1.6142070242e-11 4.6800829238e-12 3.7522917318e-11 3.7522917318e-11 
2.6560052939e-11 4.0010806941e-11 1.1314644012e-10 1.1314644012e-10 -4.9699047281e-11 -1.127064163e-11 9.1281889109e-12 -4.9699047281e-11 -3.3560488823e-12 
1.3303400134e-11 4.4602968749e-11 4.4602968749e-11 1.1618738653e-12 3.9396684401e-12 1.5448207695e-11 1.5448207695e-11 -1.0660858658e-11 8.0427742445e-12 
4.2410004413e-11 4.2410004413e-11 6.5186035152e-11 6.7987578214e-11 1.6582558663e-10 1.6582558663e-10 -2.4620474287e-11 -6.7924088734e-13 2.4739261174e-11 
2.4739261174e-11 -6.4514997571e-11 -2.2076854705e-11 3.7272352276e-11 -6.4514997571e-11 -4.3013774977e-11 -4.8647776516e-12 3.2653022629e-11 -4.3013774977e-11 
-1.723797456e-10 -6.1030655586e-11 -1.7204098812e-11 -1.723797456e-10 -7.8645289282e-11 -1.0402765004e-11 3.5431754285e-11 -7.8645289282e-11 3.3483924127e-11 
4.8389991856e-11 1.0587648402e-10 1.0587648402e-10 -2.1854069274e-11 -6.9666561974e-12 2.3776685471e-11 2.3776685471e-11 2.1699163091e-11 4.4840454226e-11 
6.4512082683e-11 6.4512082683e-11 -1.9096274417e-11 1.5734222004e-11 8.5374352414e-11 8.5374352414e-11 -1.2173150846e-10 -7.4361192405e-11 -3.6587399135e-11 
-1.2173150846e-10 -3.7837586712e-11 1.6966128322e-11 1.0335085839e-10 1.0335085839e-10 -2.7622941942e-11 -2.8597521066e-12 1.2127551405e-10 1.2127551405e-10 
1.5905079637e-11 2.5347398406e-11 7.6255021958e-11 7.6255021958e-11 -4.0109955895e-11 7.031381658e-12 1.5704604237e-11 -4.0109955895e-11 3.0632075011e-11 
4.5927557031e-11 5.7481167958e-11 5.7481167958e-11 -1.5725694e-10 -4.6184444638e-11 -1.1677915358e-11 -1.5725694e-10 -6.0764065756e-11 9.5180096485e-12 
9.9351306108e-11 9.9351306108e-11 -5.0343638939e-11 2.329250022e-11 7.2354138719e-11 7.2354138719e-11 -5.0284758987e-11 8.2488297905e-12 3.6618249197e-11 
-5.0284758987e-11 7.4629858161e-13 6.1146759559e-11 1.8040734186e-10 1.8040734186e-10 -4.1864681652e-12 2.6402441097e-11 9.1274927068e-11 9.1274927068e-11 
7.5659630619e-12 3.1234510363e-11 8.6179726575e-11 8.6179726575e-11 -1.5699162027e-10 -7.1911548271e-11 -6.2997331457e-11 -1.5699162027e-10 -1.2442766551e-10 
-3.6289347935e-11 -2.6539865568e-12 -1.2442766551e-10 -4.87527537e-12 4.8252346789e-11 9.5614228581e-11 9.5614228581e-11 1.9298772817e-11 4.3386494557e-11 
6.3976232625e-11 6.3976232625e-11 7.33815353e-11 8.4111845459e-11 1.8447441924e-10 1.8447441924e-10 -1.0917749081e-10 -4.8337253359e-11 -2.2949955829e-11 
-1.0917749081e-10 -1.0379068779e-10 -4.582976339e-11 -2.532644882e-11 -1.0379068779e-10 -8.2992205011e-13 5.129888824e-11 9.294063381e-11 9.294063381e-11 
-3.3900534405e-11 7.6937936337e-12 3.1717820772e-11 -3.3900534405e-11 -7.8756303622e-12 1.5709773453e-13 6.8433786628e-11 6.8433786628e-11 -5.7571257957e-11 
-2.9523950024e-11 -5.6590920187e-12 -5.7571257957e-11 -7.7466317623e-11 -5.2952558206e-11 -2.4076241709e-12 -7.7466317623e-11 -1.1561215716e-11 2.1610267824e-11 
6.4397287892e-11 6.4397287892e-11 9.0850070828e-12 3.9231799776e-11 9.9268193141e-11 9.9268193141e-11 -9.5090630826e-11 -4.0120091021e-11 -1.0718781527e-12 
-9.5090630826e-11 -1.6176112168e-10 -6.746235797e-11 -4.9880220353e-11 -1.6176112168e-10 -1.0588031076e-10 -3.0026306117e-11 1.260781688e-11 -1.0588031076e-10 
-1.3183316584e-11 1.5705027645e-11 6.7627888939e-11 6.7627888939e-11 -9.2299562307e-11 6.66511284e-12 7.1249559467e-11 -9.2299562307e-11 -2.8158430585e-11 
-2.1600689409e-11 2.9582919994e-11 2.9582919994e-11 -5.2352363043e-11 -2.1189772286e-11 2.5717165329e-11 -5.2352363043e-11 -8.3955361101e-11 -3.6025681802e-12 
3.6370309281e-11 -8.3955361101e-11 -2.6821764287e-11 6.5186064431e-12 3.3193477844e-11 3.3193477844e-11 2.1737963455e-11 2.51049109e-11 5.8147925645e-11 
5.8147925645e-11 1.6070702194e-11 3.4519865741e-11 8.5224832066e-11 8.5224832066e-11 5.967915555e-11 8.4722488539e-11 2.3025835591e-10 2.3025835591e-10 
-3.1098284554e-11 -9.5535426849e-12 2.4398797239e-11 -3.1098284554e-11 -1.1900965349e-10 -4.2495736345e-11 -1.5036010168e-11 -1.1900965349e-10 -3.1285998449e-12 
2.1132696674e-11 3.0754903171e-11 3.0754903171e-11 7.8878299453e-12 2.7808552403e-11 6.0233817651e-11 6.0233817651e-11 -9.2584491417e-12 9.4497346396e-12 
4.6512804502e-11 4.6512804502e-11 -3.6589975848e-11 7.430497872e-12 8.0814177976e-11 8.0814177976e-11 -1.96457478e-11 1.9106294609e-11 5.0886353191e-11 
5.0886353191e-11 -7.6366595947e-11 -4.0074059691e-11 4.4442556383e-12 -7.6366595947e-11 -1.9412071881e-11 6.4736635257e-12 1.4713167355e-11 -1.9412071881e-11 
-2.404404438e-13 3.4890695927e-11 7.7252844517e-11 7.7252844517e-11 1.1583773798e-11 1.3913440395e-11 3.6712585807e-11 3.6712585807e-11 -1.1146793902e-11 
1.2688807201e-11 5.1420386701e-11 5.1420386701e-11 6.6457564617e-11 7.8966257158e-11 1.9093897822e-10 1.9093897822e-10 7.5641127224e-11 8.6469296444e-11 
1.9106557633e-10 1.9106557633e-10 -3.7278482036e-11 1.0610280523e-12 3.4255883983e-11 -3.7278482036e-11 1.9159120902e-11 2.7764110357e-11 7.3106268741e-11 
7.3106268741e-11 2.5317712046e-11 3.3199000382e-11 7.6084387572e-11 7.6084387572e-11 7.8462577889e-12 1.6837521849e-11 4.7427320362e-11 4.7427320362e-11 
2.7379061592e-12 1.8529596297e-11 5.2151297544e-11 5.2151297544e-11 -6.1846567253e-12 1.6680613805e-11 5.759864292e-11 5.759864292e-11 3.1971477201e-11 
3.9656273015e-11 8.6325449784e-11 8.6325449784e-11 -2.0083042648e-11 8.8854291777e-12 5.192351347e-11 5.192351347e-11 -4.1362667275e-11 -1.2848896137e-11 
-1.5193658753e-13 -4.1362667275e-11 -1.6844179351e-12 3.9383955618e-12 2.7262972373e-11 2.7262972373e-11 -1.1852021276e-11 7.4514792185e-12 3.6532902058e-11 
3.6532902058e-11 5.9796673501e-12 1.7935900894e-11 4.0349231756e-11 4.0349231756e-11 -5.3553470376e-11 -1.957822946e-11 -9.1609001637e-12 -5.3553470376e-11 
-5.1195421264e-11 -2.0627126754e-11 -1.5420651983e-11 -5.1195421264e-11 -2.3681251569e-11 -4.9760053478e-12 9.0415469168e-12 -2.3681251569e-11 -8.674497082e-11 
-2.0560201305e-11 -3.8505278753e-12 -8.674497082e-11 -4.5623050743e-11 -2.1045449782e-11 -1.3569199474e-11 -4.5623050743e-11 -6.9875434994e-11 -2.5129674574e-11 
-7.183490432e-12 -6.9875434994e-11 -5.4273318807e-11 -2.72203652e-11 -2.3403715993e-11 -5.4273318807e-11 2.1613154889e-11 3.7363293014e-11 9.6641652097e-11 
9.6641652097e-11 -3.6287897708e-11 -6.9334899415e-13 2.8761326702e-11 -3.6287897708e-11 -1.060015827e-11 1.282828437e-11 4.8772673899e-11 4.8772673899e-11 
-1.5412583587e-11 -2.2631980247e-12 1.3379007611e-11 -1.5412583587e-11 -6.4878311859e-11 -2.3012580095e-11 -7.5350804565e-13 -6.4878311859e-11 -3.7183547892e-12 
1.4424862833e-11 4.0761391956e-11 4.0761391956e-11 -2.2549631718e-12 1.3695057561e-11 3.3022205611e-11 3.3022205611e-11 -2.1197179342e-11 -1.5867917634e-12 
1.8860820105e-11 -2.1197179342e-11 -5.1186979965e-11 -1.8772408445e-11 -1.065191159e-11 -5.1186979965e-11 -1.6852756153e-11 7.3406117462e-13 1.2849408978e-11 
-1.6852756153e-11 -1.181562632e-11 1.322392587e-12 5.3557737332e-12 -1.181562632e-11 -6.5406102596e-11 -2.8861717276e-11 -1.6514280128e-11 -6.5406102596e-11 
-4.4656924292e-11 -1.5652481292e-11 -1.1054494416e-11 -4.4656924292e-11 -1.4778734341e-11 -2.1865951787e-12 2.6738795196e-12 -1.4778734341e-11 -2.1409904348e-11 
1.7328935412e-12 2.1078130806e-11 -2.1409904348e-11 -1.1380436412e-11 -6.1517619678e-12 -2.5506116197e-12 -1.1380436412e-11 -9.8402000905e-13 3.3481704619e-12 
9.6854995472e-12 9.6854995472e-12 -2.195978111e-11 -3.80802863e-12 1.184998974e-11 -2.195978111e-11 -6.6726384942e-12 3.4056410276e-12 1.5877097467e-11 
1.5877097467e-11 -1.7996368477e-11 -1.6910294977e-12 1.3148825975e-11 -1.7996368477e-11 -2.0203078582e-11 -4.3145755896e-12 3.3139841713e-12 -2.0203078582e-11 
-1.3063218651e-11 -5.1798295672e-12 -3.8013117823e-12 -1.3063218651e-11 9.8033281029e-13 6.361739166e-12 1.2180238024e-11 1.2180238024e-11 1.1240535804e-11 
1.2750940951e-11 2.6448923245e-11 2.6448923245e-11 1.2623113639e-12 4.736708065e-12 1.0627640571e-11 1.0627640571e-11 -6.3629425108e-12 1.8065786695e-13 
2.0723246438e-12 -6.3629425108e-12 -1.1867625409e-12 3.7387759528e-12 7.9097065881e-12 7.9097065881e-12 1.2504244685e-13 3.8905702839e-12 5.9790572692e-12 
5.9790572692e-12 4.2563812943e-12 7.9457437902e-12 1.2364254916e-11 1.2364254916e-11 -3.0081395911e-12 2.2792272119e-13 1.6593148699e-12 -3.0081395911e-12 
-4.823186707e-13 2.2678965263e-12 3.4452721444e-12 3.4452721444e-12 1.9145895659e-12 3.5666848245e-12 4.0463656096e-12 4.0463656096e-12 -9.2291545463e-13 
1.9154866027e-12 3.2107968519e-12 3.2107968519e-12 2.8355043933e-12 3.55272728e-12 6.1284683266e-12 6.1284683266e-12 1.9504967737e-12 2.4923197753e-12 
6.299123451e-12 6.299123451e-12 1.0508535862e-12 2.7516310667e-12 8.3405853471e-12 8.3405853471e-12 3.6693827616e-12 6.2361384068e-12 7.0947688315e-12 
7.0947688315e-12 2.7235173052e-12 5.1777763884e-12 7.6044663064e-12 7.6044663064e-12 1.5597975819e-12 2.9548593944e-12 8.7415230237e-12 8.7415230237e-12 
1.2668288089e-10 1.6978523045e-10 4.2129688866e-10 4.2129688866e-10 -2.0617328289e-11 -5.1729024052e-12 3.7119406937e-12 -2.0617328289e-11 -1.1850461316e-10 
-3.3069246697e-11 1.2232159858e-11 -1.1850461316e-10 2.8433378051e-13 2.9202526775e-12 1.2176633542e-11 1.2176633542e-11 -1.4384201546e-11 -4.4052962608e-12 
-9.1967219371e-13 -1.4384201546e-11 -1.2245304215e-10 -2.1815931554e-11 -1.5048126292e-11 -1.2245304215e-10 -1.0975803682e-11 -2.2424462809e-12 3.3169799633e-12 
-1.0975803682e-11 1.1476154305e-11 5.5828576971e-11 1.3567116872e-10 1.3567116872e-10 -7.4285398532e-12 9.3036749465e-13 2.5083043585e-12 -7.4285398532e-12 
-7.2955996715e-11 -1.0954971115e-11 5.669029783e-11 -7.2955996715e-11 -1.3995558661e-11 -2.1589735192e-12 2.7971821806e-12 -1.3995558661e-11 -3.8588575782e-11 
6.1908299859e-12 5.5209365796e-11 5.5209365796e-11 -2.5483562453e-11 -6.147981076e-12 3.8239335291e-12 -2.5483562453e-11 -2.1764636275e-11 4.6553537348e-11 
2.0823679893e-10 2.0823679893e-10 -1.8472905033e-10 -7.5299515694e-11 -4.3952333975e-11 -1.8472905033e-10 -1.4947627039e-11 -6.3511852481e-12 4.1881322867e-12 
-1.4947627039e-11 -6.7329107983e-12 2.6777573086e-12 3.4480014897e-12 -6.7329107983e-12 -5.3621455134e-11 3.6877188531e-11 1.183816666e-10 1.183816666e-10 
1.0131671664e-10 1.5295192066e-10 4.474793627e-10 4.474793627e-10 3.2820490462e-12 3.9418464792e-12 8.0763644746e-12 8.0763644746e-12 -2.0880695898e-12 
6.9832024457e-13 7.2404993453e-12 7.2404993453e-12 -7.0092952783e-11 7.4090442223e-12 1.0463265856e-10 1.0463265856e-10 -1.2731020928e-11 -2.4425149166e-12 
2.3018658445e-12 -1.2731020928e-11 -5.2234400861e-12 5.9019442785e-12 2.2879045808e-11 2.2879045808e-11 -1.114814308e-11 -2.6402520367e-12 6.0168451166e-12 
-1.114814308e-11 1.1086705457e-12 3.7158821113e-12 1.2175737343e-11 1.2175737343e-11 -2.7071758303e-12 4.48359e-13 4.2017057303e-12 4.2017057303e-12 
6.2791766374e-12 7.2863471572e-12 1.5092056205e-11 1.5092056205e-11 4.7864992106e-13 2.1725760417e-12 9.0061240372e-12 9.0061240372e-12 -5.7774747852e-12 
-7.9476232151e-13 1.4721501067e-12 -5.7774747852e-12 9.9880942389e-13 6.0453767794e-12 2.1856273797e-11 2.1856273797e-11 -7.3363503683e-12 1.4652782603e-12 
8.785411108e-12 8.785411108e-12 -6.8839223508e-12 -5.3327535069e-12 1.2879158577e-12 -6.8839223508e-12 7.6319715803e-12 1.7203233522e-11 3.2237294897e-11 
3.2237294897e-11 -8.1615780342e-12 4.0345040503e-12 1.3112943984e-11 1.3112943984e-11 -2.4710287093e-12 6.9743738123e-13 1.3916661328e-11 1.3916661328e-11 
-1.7058345932e-11 -1.0822128702e-11 -1.0200353655e-12 -1.7058345932e-11 -2.9656992233e-11 -4.7794819918e-12 1.3793254225e-11 -2.9656992233e-11 -3.2775019841e-11 
-1.0990643235e-11 1.7506230758e-12 -3.2775019841e-11 -6.8675836328e-11 -2.0822526156e-11 3.5254624839e-12 -6.8675836328e-11 -3.3787523802e-11 -4.5261766694e-12 
2.7142120471e-11 -3.3787523802e-11 8.2952329185e-12 2.041687059e-11 4.9489296491e-11 4.9489296491e-11 -2.1143771614e-11 -2.656844352e-12 1.0200335966e-11 
-2.1143771614e-11 -7.9872428508e-11 -4.4196054994e-11 -2.6991216498e-11 -7.9872428508e-11 -7.7382508045e-11 -2.603799295e-11 3.8474009951e-12 -7.7382508045e-11 
-1.9940533589e-11 1.0402270281e-11 5.3981863308e-11 5.3981863308e-11 1.9663279883e-11 2.6756858249e-11 4.7567161867e-11 4.7567161867e-11 3.279390826e-11 
4.0761368585e-11 7.5561623155e-11 7.5561623155e-11 -1.8510801786e-11 5.6027320914e-12 2.9908329695e-11 2.9908329695e-11 -2.3183050833e-11 1.5210911479e-11 
7.4273269354e-11 7.4273269354e-11 -8.0178782691e-11 -5.550006234e-11 -3.990985497e-11 -8.0178782691e-11 -7.1456312073e-12 -3.9587216618e-12 1.7418742869e-11 
1.7418742869e-11 -1.7030608606e-10 -6.4626401768e-11 -4.5815612175e-11 -1.7030608606e-10 -7.0067526532e-11 -1.0788922222e-11 5.4627498754e-11 -7.0067526532e-11 
-1.5014947815e-10 -4.8875520985e-11 -2.222200086e-11 -1.5014947815e-10 -1.3355546798e-10 -4.7033359218e-11 -4.4543072803e-11 -1.3355546798e-10 6.3573096338e-11 
9.0851885489e-11 2.0452371817e-10 2.0452371817e-10 -1.5408978964e-11 6.9271052928e-12 7.7211563671e-11 7.7211563671e-11 -9.7572396168e-11 -5.2684057786e-11 
-4.1118246046e-11 -9.7572396168e-11 -4.047153845e-11 -5.015301854e-12 3.9658167304e-11 -4.047153845e-11 5.9908460361e-11 8.5364647535e-11 1.430029921e-10 
1.430029921e-10 -6.5539518236e-11 -1.2540694469e-11 3.2789527053e-12 -6.5539518236e-11 3.5812820908e-11 6.1060048234e-11 1.8873223086e-10 1.8873223086e-10 
-1.8462471579e-11 1.9440692714e-11 6.4594378865e-11 6.4594378865e-11 -2.0489050161e-10 -1.1655525243e-10 -8.8989145967e-11 -2.0489050161e-10 -3.5093406789e-11 
-6.4640728102e-12 5.3457684599e-11 5.3457684599e-11 -1.7346580626e-11 1.8270713664e-11 6.4162666963e-11 6.4162666963e-11 2.2283620895e-11 4.1736770511e-11 
8.3396408593e-11 8.3396408593e-11 -7.0978516011e-11 -2.614979722e-11 2.5727113231e-11 -7.0978516011e-11 -1.5975802043e-10 -5.8659919437e-11 -4.2657460131e-11 
-1.5975802043e-10 -1.1557820993e-10 -6.2530049019e-11 2.5591358947e-11 -1.1557820993e-10 -1.2316123669e-10 -5.1703011644e-11 -3.7396551667e-11 -1.2316123669e-10 
-1.2775675903e-10 -3.7711950197e-11 2.5083092274e-12 -1.2775675903e-10 -1.1431768238e-10 -3.1151497926e-11 3.0838580308e-11 -1.1431768238e-10 1.2865620627e-11 
6.371463227e-11 1.458806471e-10 1.458806471e-10 5.2220965767e-12 1.032160509e-10 1.5069485253e-10 1.5069485253e-10 -2.6765413838e-10 -9.9580176084e-11 
-6.4573285532e-11 -2.6765413838e-10 -7.609646243e-11 8.3307947596e-12 2.9150737671e-11 -7.609646243e-11 -1.0825738592e-10 -5.1304776077e-11 -2.6955338006e-11 
-1.0825738592e-10 -1.3398943839e-10 -2.6029824407e-11 5.0488462793e-11 -1.3398943839e-10 -1.2968229293e-10 -5.1986390622e-11 9.7988355013e-13 -1.2968229293e-10 
1.1303681904e-10 1.2922453271e-10 3.2506264825e-10 3.2506264825e-10 -9.3609559145e-11 -2.2102524606e-11 -1.7861616249e-11 -9.3609559145e-11 -2.740023465e-10 
-1.142412989e-10 -9.5535354598e-11 -2.740023465e-10 -2.0910379642e-10 -8.4940681433e-11 -5.8832822143e-11 -2.0910379642e-10 -2.6750673663e-11 1.2843141278e-10 
1.8732446088e-10 1.8732446088e-10 -6.0027399253e-11 1.4230455489e-11 1.2448400376e-10 1.2448400376e-10 -1.2450782162e-10 -8.4372695171e-12 3.1428791139e-11 
-1.2450782162e-10 -3.7641594288e-10 -1.4961790712e-10 -1.4377815e-10 -3.7641594288e-10 -5.8865341225e-11 1.0746789483e-11 8.3819171741e-11 8.3819171741e-11 
-6.6405354905e-11 2.6304787607e-11 8.1144057299e-11 8.1144057299e-11 -2.5021883417e-11 8.6519650569e-11 2.1706473285e-10 2.1706473285e-10 -1.7765247061e-11 
4.5952077852e-11 1.7120226921e-10 1.7120226921e-10 6.7668037592e-11 1.0711395043e-10 3.9594231198e-10 3.9594231198e-10 -4.8158362404e-10 -1.76996688e-10 
-1.4407568796e-10 -4.8158362404e-10 -3.2609396434e-10 -1.2242177709e-10 -1.0472225858e-10 -3.2609396434e-10 -1.7900574939e-10 -3.8176159842e-11 3.8921349228e-11 
-1.7900574939e-10 3.0174886369e-11 7.5988258576e-11 2.3360025505e-10 2.3360025505e-10 -5.5265557003e-11 -1.3609567727e-11 1.253136473e-11 -5.5265557003e-11 
1.8430553942e-10 2.1959257854e-10 4.9007388204e-10 4.9007388204e-10 -5.7912382492e-11 1.0460050625e-10 3.2343227625e-10 3.2343227625e-10 -1.1654052006e-10 
6.749387463e-11 3.2688024543e-10 3.2688024543e-10 -1.9271011617e-10 -3.1055422913e-11 8.2662639087e-11 -1.9271011617e-10 1.5742948054e-10 1.767850975e-10 
3.7421142196e-10 3.7421142196e-10 -2.9301253624e-10 -7.1185844597e-11 8.8307880836e-11 -2.9301253624e-10 -6.580037054e-10 -2.819227002e-10 -2.459645944e-10 
-6.580037054e-10 2.4040798716e-10 2.808478734e-10 6.2917813944e-10 6.2917813944e-10 -8.889282394e-11 -2.55527657e-11 1.068990964e-11 -8.889282394e-11 
-5.1582958571e-11 -5.476693178e-12 1.4154171749e-11 -5.1582958571e-11 -3.1813092611e-10 -1.6147920211e-10 -1.4292387178e-10 -3.1813092611e-10 -1.7018761159e-11 
4.5315034186e-11 1.3428592697e-10 1.3428592697e-10 -6.1451065234e-11 -2.1593740888e-12 4.0690399323e-11 -6.1451065234e-11 -1.6448376692e-10 -7.2384937514e-11 
-6.4279395564e-11 -1.6448376692e-10 -4.306266887e-10 -1.8077436256e-10 -1.0941094874e-10 -4.306266887e-10 -1.4029830366e-10 -1.590924902e-11 8.7720652681e-11 
-1.4029830366e-10 7.8683727266e-11 1.4785965563e-10 3.4490961711e-10 3.4490961711e-10 -4.016857982e-10 -1.6115722007e-10 -1.3295498173e-10 -4.016857982e-10 
-3.6250394371e-10 -1.4399983306e-10 -1.2469322323e-10 -3.6250394371e-10 -7.1878225926e-11 -3.3474997794e-12 7.4982820805e-11 7.4982820805e-11 1.3037912694e-10 
1.4803003437e-10 3.4938783869e-10 3.4938783869e-10 1.7631393354e-11 8.3288325141e-11 2.4952908151e-10 2.4952908151e-10 -2.6761200075e-10 -9.2267209156e-11 
-6.7555790092e-11 -2.6761200075e-10 1.3282030978e-10 1.5973850661e-10 3.1507918361e-10 3.1507918361e-10 -3.4856527476e-10 -1.5832837515e-10 -1.4033235009e-10 
-3.4856527476e-10 1.1107285159e-10 1.711316971e-10 3.8930745131e-10 3.8930745131e-10 4.075916576e-11 6.3573773665e-11 1.3949936058e-10 1.3949936058e-10 
-1.2271329735e-10 -1.9552643047e-11 5.7750240397e-11 -1.2271329735e-10 2.0266481829e-10 2.2181914426e-10 5.1174603746e-10 5.1174603746e-10 -6.5706385431e-11 
6.4329031276e-11 3.1393995416e-10 3.1393995416e-10 -4.3066198146e-10 -1.6671894889e-10 -1.3508806964e-10 -4.3066198146e-10 4.8329415592e-11 1.1893961429e-10 
3.7455497012e-10 3.7455497012e-10 -1.8087013634e-10 -4.5006481691e-11 -1.6499281966e-11 -1.8087013634e-10 -5.1855207274e-11 3.8393911232e-12 8.2987886151e-11 
8.2987886151e-11 -1.4303345573e-10 -2.9665175861e-11 3.8639131591e-11 -1.4303345573e-10 6.5894038299e-11 7.2585214696e-11 2.09784347e-10 2.09784347e-10 
2.0749113951e-11 3.7408416508e-11 1.0844476954e-10 1.0844476954e-10 8.5960473898e-11 1.1814954854e-10 2.0608187756e-10 2.0608187756e-10 -2.7748139685e-11 
2.0133384904e-11 9.4801954781e-11 9.4801954781e-11 -1.0137852645e-10 -4.4219987397e-11 -2.3190086153e-11 -1.0137852645e-10 6.0472229735e-11 7.044049225e-11 
1.4084907801e-10 1.4084907801e-10 6.7911067328e-11 8.1937073496e-11 2.2780155918e-10 2.2780155918e-10 -4.8161290055e-10 -2.0540526325e-10 -1.9918283619e-10 
-4.8161290055e-10 2.3121855889e-12 1.328355906e-11 4.8519655351e-11 4.8519655351e-11 -4.1262433783e-12 3.2520427259e-11 1.1197961612e-10 1.1197961612e-10 
-7.9348806883e-11 -3.8004014391e-11 -2.4478078726e-11 -7.9348806883e-11 -2.0718042219e-11 9.2848065828e-12 9.8863295636e-11 9.8863295636e-11 -2.3739290437e-10 
-8.0401077574e-11 -4.1883118054e-11 -2.3739290437e-10 -7.9387920219e-11 -6.8533006017e-12 6.316943082e-11 -7.9387920219e-11 3.7923828962e-11 1.0670368539e-10 
3.2725148565e-10 3.2725148565e-10 -2.5311193147e-11 2.1596889292e-11 1.2975930386e-10 1.2975930386e-10 -2.6285684802e-12 2.5738930674e-11 1.0949193781e-10 
1.0949193781e-10 -1.568714599e-11 1.2288785567e-11 2.9870240424e-11 2.9870240424e-11 -4.3893431076e-12 7.0289637194e-12 1.5332109388e-11 1.5332109388e-11 
1.5575396349e-12 3.0766426727e-11 1.1169273364e-10 1.1169273364e-10 -7.332979096e-12 1.1116777177e-11 6.2760191919e-11 6.2760191919e-11 3.3535563525e-11 
3.7242563285e-11 7.566727319e-11 7.566727319e-11 -2.5258829774e-11 9.7701880447e-12 4.2931967729e-11 4.2931967729e-11 -3.8776778054e-11 -2.9315443754e-11 
-1.1231781926e-12 -3.8776778054e-11 -1.0866992243e-10 -3.0265973772e-11 -8.9667037962e-12 -1.0866992243e-10 -1.8066923568e-10 -7.7481123928e-11 -5.9997740389e-11 
-1.8066923568e-10 -1.0817687838e-11 -2.6431573515e-12 9.5750661892e-12 -1.0817687838e-11 -5.233578597e-11 -1.2192591613e-11 7.7642907583e-11 7.7642907583e-11 
-1.3733902507e-10 -4.8329105958e-11 -2.5378268974e-11 -1.3733902507e-10 -8.1839408596e-11 -3.2612174192e-11 -1.9607817212e-11 -8.1839408596e-11 1.3672221918e-10 
1.5035382228e-10 3.3464895854e-10 3.3464895854e-10 -4.109012264e-11 -2.6255640724e-12 1.9672436712e-11 -4.109012264e-11 -1.8391624629e-10 -7.5322350094e-11 
-6.8380903619e-11 -1.8391624629e-10 1.1196961253e-10 1.2472512049e-10 2.9735726697e-10 2.9735726697e-10 4.1997387482e-11 4.9687742988e-11 9.798956953e-11 
9.798956953e-11 -8.5344197481e-11 -8.9892285463e-12 5.7661356027e-11 -8.5344197481e-11 -1.3454151362e-10 -5.3408511151e-11 -2.5282575227e-11 -1.3454151362e-10 
-2.8329649505e-11 1.2868260614e-11 6.6462188891e-11 6.6462188891e-11 -7.512813011e-12 1.5445729749e-11 6.3225483262e-11 6.3225483262e-11 -6.25924939e-11 
-1.0455551384e-11 1.8964528422e-13 -6.25924939e-11 -4.940522845e-11 -2.0982929175e-11 4.4405762498e-13 -4.940522845e-11 2.2970848608e-11 2.9325445294e-11 
8.0548806099e-11 8.0548806099e-11 -3.4299289205e-11 -7.9639725423e-12 9.2340717475e-12 -3.4299289205e-11 -9.3127660034e-11 -3.6792696819e-11 -2.9153843147e-11 
-9.3127660034e-11 -6.3166061282e-12 1.2520843356e-11 4.5039522773e-11 4.5039522773e-11 -6.9061370157e-11 -2.4095260447e-11 -1.3702369396e-11 -6.9061370157e-11 
-1.4528989976e-11 -7.047627395e-12 -3.7992628666e-14 -1.4528989976e-11 1.5070792804e-11 2.1170753117e-11 4.5116954079e-11 4.5116954079e-11 2.7678655243e-11 
3.1696727049e-11 7.7598417708e-11 7.7598417708e-11 3.304833643e-11 3.7862620712e-11 7.6020142858e-11 7.6020142858e-11 -2.6986274618e-11 -7.0587969758e-12 
1.7445615936e-12 -2.6986274618e-11 -3.1719170363e-11 -9.0954368084e-12 2.1996671716e-12 -3.1719170363e-11 -3.9206215825e-11 -1.7880211601e-11 -1.6986272574e-11 
-3.9206215825e-11 -8.0723023831e-11 -3.6107654949e-11 -3.3014721219e-11 -8.0723023831e-11 -5.2628354417e-12 1.9455161756e-12 1.7160409266e-11 1.7160409266e-11 
-4.7489710123e-11 -3.1527108307e-11 -2.007048157e-11 -4.7489710123e-11 -1.1057929578e-11 -3.0704974216e-12 5.2818699932e-13 -1.1057929578e-11 -1.0844379508e-11 
-1.1418751599e-12 -6.4253533216e-13 -1.0844379508e-11 -9.5178109706e-12 6.5190978971e-12 1.7084713073e-11 1.7084713073e-11 -1.0256040928e-11 -1.8371722904e-12 
2.8644822189e-12 -1.0256040928e-11 9.4542230762e-12 1.1556984576e-11 2.4403792348e-11 2.4403792348e-11 -1.0691959899e-13 5.6224895199e-12 1.2699030079e-11 
1.2699030079e-11 3.6811107616e-13 2.4782094525e-12 9.2967494714e-12 9.2967494714e-12 -9.7401478808e-12 -8.042429403e-12 -2.1667427162e-12 -9.7401478808e-12 
3.476472862e-12 6.1779764181e-12 2.070325072e-11 2.070325072e-11 -5.768045539e-12 9.7932198349e-13 9.0939965555e-12 9.0939965555e-12 -3.8945397281e-11 
3.5040614293e-11 1.5238138299e-10 1.5238138299e-10 8.8471595557e-12 9.687127097e-12 2.0998153347e-11 2.0998153347e-11 -3.0803167221e-13 2.2492559983e-12 
7.4089356739e-12 7.4089356739e-12 -1.1516427314e-10 -1.5103078551e-11 -4.3992483096e-12 -1.1516427314e-10 -8.7355864631e-11 -3.1771968936e-11 -2.3674566433e-11 
-8.7355864631e-11 -9.6422985235e-14 5.6107986579e-13 1.9639601194e-12 1.9639601194e-12 -3.8806621209e-12 7.1006543794e-13 6.570656683e-12 6.570656683e-12 
3.1257284675e-13 1.89514896e-12 5.2804981933e-12 5.2804981933e-12 3.4716825967e-12 6.3674719671e-12 7.1611254361e-12 7.1611254361e-12 -6.9717519734e-14 
1.9279468207e-12 3.970440699e-12 3.970440699e-12 1.8010092795e-12 2.4178502874e-12 3.7753204331e-12 3.7753204331e-12 2.8216462977e-12 4.5503869642e-12 
6.592486738e-12 6.592486738e-12 -1.1004081406e-12 -3.7312365376e-13 -4.4351205624e-14 -1.1004081406e-12 6.6098971802e-13 1.5186353158e-12 2.3133049662e-12 
2.3133049662e-12 2.9202819658e-13 1.2018698297e-12 3.1609319737e-12 3.1609319737e-12 2.763472092e-12 2.9922187661e-12 6.5087991419e-12 6.5087991419e-12 
6.4388238811e-13 1.8618586197e-12 3.2622189922e-12 3.2622189922e-12 2.5676666378e-12 3.0112285535e-12 6.3617848087e-12 6.3617848087e-12 2.25549882e-12 
3.2346440842e-12 5.8433870958e-12 5.8433870958e-12 1.4664058806e-12 5.6221624129e-12 6.3902317065e-12 6.3902317065e-12 1.4176526802e-12 3.9396551441e-12 
8.2602721757e-12 8.2602721757e-12 -7.7793497279e-13 2.4027215756e-12 8.4539533972e-12 8.4539533972e-12 -1.1717912172e-12 1.2021466804e-12 4.9136045368e-12 
4.9136045368e-12 -5.2130062145e-12 -2.3042419174e-13 4.2291254062e-12 -5.2130062145e-12 6.832405946e-12 7.7091504848e-12 1.8143573569e-11 1.8143573569e-11 
-8.8663706831e-12 -2.741435134e-12 -8.9954418292e-13 -8.8663706831e-12 -3.6955354418e-12 -3.361663571e-12 -1.7031609872e-12 -3.6955354418e-12 6.3846347792e-12 
6.9682891716e-12 1.6498746049e-11 1.6498746049e-11 -1.3271845942e-11 -2.7716606196e-12 -1.3037434387e-12 -1.3271845942e-11 -3.3523509232e-13 3.5046477886e-12 
1.1604617304e-11 1.1604617304e-11 6.7560071573e-12 8.5766868744e-12 2.1906015968e-11 2.1906015968e-11 7.2799898116e-12 9.7167504297e-12 2.3075369759e-11 
2.3075369759e-11 -7.4557241478e-12 -2.8429437823e-12 -1.0967206988e-13 -7.4557241478e-12 -8.0085566623e-12 -3.0660321831e-12 -9.7031154567e-14 -8.0085566623e-12 
5.5525432663e-12 8.5117669962e-12 1.0343249737e-11 1.0343249737e-11 -6.0893015663e-12 1.0236807552e-12 2.3334358111e-12 -6.0893015663e-12 4.9660261168e-12 
6.34194452e-12 1.3281749363e-11 1.3281749363e-11 -1.0493559648e-11 6.3109321876e-13 1.2898230429e-11 1.2898230429e-11 -1.3627380788e-11 -5.1712055692e-12 
-2.2494136428e-12 -1.3627380788e-11 2.7719648532e-12 1.0129574247e-11 2.35276009e-11 2.35276009e-11 -1.4240287667e-11 -2.6813680155e-12 3.5642856824e-12 
-1.4240287667e-11 4.8275944909e-12 6.5344227699e-12 2.4055292739e-11 2.4055292739e-11 -7.1553088426e-11 -2.4836761077e-11 -1.4719150497e-11 -7.1553088426e-11 
-1.3695530883e-11 -8.2155096997e-12 1.0132290582e-11 -1.3695530883e-11 -3.7577670068e-11 -1.3919956026e-11 -9.1164739063e-12 -3.7577670068e-11 -2.3350478761e-11 
-7.126920592e-12 -3.4220306469e-12 -2.3350478761e-11 -6.4659389034e-12 7.1618851043e-12 1.9137723799e-11 1.9137723799e-11 -6.6956198603e-12 5.2394674832e-12 
1.1413459377e-11 1.1413459377e-11 1.4660284524e-11 2.2389838259e-11 5.4369877217e-11 5.4369877217e-11 -1.320383846e-12 1.8164390237e-12 8.8541048223e-12 
8.8541048223e-12 -1.9173165006e-11 -6.7591689313e-12 2.2533339376e-12 -1.9173165006e-11 -5.606302645e-14 1.7172411583e-11 3.3277351444e-11 3.3277351444e-11 
1.4208012292e-11 2.1141171213e-11 5.4336016495e-11 5.4336016495e-11 -2.4314724865e-11 -6.701508442e-12 2.0087483307e-11 -2.4314724865e-11 -2.1024098132e-11 
-6.5713110412e-12 -3.7741608266e-12 -2.1024098132e-11 -2.6505353333e-12 6.866413894e-12 2.1648871439e-11 2.1648871439e-11 -7.2586721555e-12 1.8394690487e-12 
1.1924413107e-11 1.1924413107e-11 -2.9812885536e-11 -1.477090884e-11 -7.6314056233e-12 -2.9812885536e-11 -4.9359542365e-12 5.7441868004e-13 5.9401275564e-12 
5.9401275564e-12 -3.6786846955e-11 -1.4107826778e-11 -5.3681262667e-12 -3.6786846955e-11 -2.2795025377e-11 -1.03031199e-11 -3.0274547223e-12 -2.2795025377e-11 
-5.4182791056e-11 -2.1710984353e-11 -6.6791245912e-12 -5.4182791056e-11 -4.8622706409e-11 -7.8653572571e-12 -5.6843963336e-12 -4.8622706409e-11 -7.9703447042e-11 
-2.2266527491e-11 9.396745331e-13 -7.9703447042e-11 2.3970566393e-11 3.3013944477e-11 5.129118913e-11 5.129118913e-11 -4.0188812112e-11 -1.6017824522e-11 
2.0688366343e-12 -4.0188812112e-11 4.2030774863e-12 1.1189333041e-11 4.1477589472e-11 4.1477589472e-11 -2.4901278764e-11 1.2057460771e-11 3.9437137993e-11 
3.9437137993e-11 -4.6823039788e-12 6.2523277472e-12 2.8614126232e-11 2.8614126232e-11 -1.0246231017e-10 -2.1402908293e-11 1.1420418466e-11 -1.0246231017e-10 
-5.3215940959e-11 -2.3737391337e-11 -1.7054267704e-11 -5.3215940959e-11 -5.9922371318e-11 -6.8856641562e-12 2.8800255474e-11 -5.9922371318e-11 -6.7429575593e-11 
-1.8578465176e-11 -7.4068592307e-12 -6.7429575593e-11 -1.3029440854e-10 -6.5928857289e-11 -3.9715934173e-11 -1.3029440854e-10 -4.731802713e-11 -6.2206846739e-12 
1.6415591804e-11 -4.731802713e-11 -2.0244447744e-11 5.8158525772e-12 1.7585789167e-11 -2.0244447744e-11 -2.3604026779e-11 -3.2505222609e-12 1.844113604e-11 
-2.3604026779e-11 3.2310395978e-11 4.4258983605e-11 1.1820582042e-10 1.1820582042e-10 -1.324074324e-11 1.2919794383e-11 4.8025748857e-11 4.8025748857e-11 
-8.3166271023e-12 1.9632754221e-11 2.9606042881e-11 2.9606042881e-11 2.2579568597e-11 3.0387380219e-11 5.8648051184e-11 5.8648051184e-11 -7.6696637179e-11 
-3.6468240522e-11 -2.4901722298e-11 -7.6696637179e-11 1.8547118288e-11 2.6991788798e-11 5.1504392913e-11 5.1504392913e-11 -1.1176195975e-11 -3.3858143752e-12 
1.648465735e-11 1.648465735e-11 -4.6030745198e-11 -9.635293449e-12 7.8021586465e-12 -4.6030745198e-11 5.4176974848e-11 6.4991611384e-11 1.2466381377e-10 
1.2466381377e-10 1.5316835639e-12 5.3401430128e-12 2.2271493423e-11 2.2271493423e-11 -3.9077882131e-11 9.9567003714e-12 5.1828741759e-11 5.1828741759e-11 
1.1581525738e-11 2.4035991672e-11 6.436038259e-11 6.436038259e-11 -8.4638575311e-11 -4.1988832586e-11 -4.1533921036e-12 -8.4638575311e-11 -7.951806203e-11 
-3.1891136918e-11 -2.4694301052e-11 -7.951806203e-11 4.160539245e-12 7.1305528714e-12 2.1738077884e-11 2.1738077884e-11 -4.1446472645e-11 -4.2953572293e-12 
1.8521079874e-11 -4.1446472645e-11 -1.0414793519e-10 -2.8590587252e-11 -9.8210775617e-12 -1.0414793519e-10 -2.0289669287e-11 2.0273004783e-11 5.7190264504e-11 
5.7190264504e-11 -6.5112489152e-11 -2.1875081789e-11 -3.4782290594e-12 -6.5112489152e-11 2.3426493474e-11 4.3191117565e-11 1.1570178896e-10 1.1570178896e-10 
-8.2302953954e-11 -3.4769138911e-11 -2.8644707135e-11 -8.2302953954e-11 -4.5140138419e-11 -1.7289236591e-11 -1.190352499e-11 -4.5140138419e-11 -4.2263591563e-11 
-6.1489402302e-13 3.7049815586e-11 -4.2263591563e-11 -1.7426662079e-10 -6.8066287145e-11 -5.768779206e-11 -1.7426662079e-10 4.9842837262e-11 5.3931265556e-11 
1.2718709718e-10 1.2718709718e-10 -6.2197609407e-11 -2.3497782554e-11 -1.0264080393e-12 -6.2197609407e-11 -4.3009198607e-11 -9.5454508604e-12 3.6465049468e-11 
-4.3009198607e-11 4.0376024598e-11 5.7231472087e-11 1.3276400332e-10 1.3276400332e-10 5.2536552194e-11 5.7383928574e-11 1.4305951923e-10 1.4305951923e-10 
4.902818852e-12 2.5907524453e-11 7.7783356695e-11 7.7783356695e-11 2.9824045762e-11 5.3156437711e-11 7.3786516528e-11 7.3786516528e-11 4.2628684869e-11 
5.601442189e-11 1.5349879324e-10 1.5349879324e-10 2.6361848977e-11 4.7277525869e-11 7.2563025154e-11 7.2563025154e-11 7.3368282983e-11 8.6582884408e-11 
1.7388203261e-10 1.7388203261e-10 2.4030156586e-11 3.8492745164e-11 8.967019825e-11 8.967019825e-11 7.1102488113e-11 8.2447503936e-11 2.0537890795e-10 
2.0537890795e-10 -7.2382757521e-11 -2.0316696301e-11 2.2336538218e-12 -7.2382757521e-11 5.9410083844e-11 6.1528268215e-11 1.5916144794e-10 1.5916144794e-10 
-1.2615287312e-10 -3.7389561218e-11 1.7968343333e-12 -1.2615287312e-10 -1.7862615298e-12 1.0048351315e-11 2.1994370214e-11 2.1994370214e-11 -5.0046229448e-11 
-1.455451385e-11 3.4364473298e-11 -5.0046229448e-11 3.0130339845e-12 1.1200708674e-11 3.5471717341e-11 3.5471717341e-11 -2.5849009164e-11 2.846649881e-11 
1.1871191035e-10 1.1871191035e-10 9.5823082228e-12 2.9748770976e-11 8.5034220801e-11 8.5034220801e-11 4.3202181026e-11 7.1225877238e-11 1.7931264174e-10 
1.7931264174e-10 -1.7246416762e-11 2.1066286632e-11 1.0303923013e-10 1.0303923013e-10 4.45287807e-12 5.3818755129e-11 1.403888668e-10 1.403888668e-10 
7.7526277517e-11 1.01132837e-10 2.1746518548e-10 2.1746518548e-10 2.6520200263e-11 4.6315109174e-11 1.2782839056e-10 1.2782839056e-10 3.1000818826e-11 
5.6955607683e-11 1.8020327349e-10 1.8020327349e-10 -1.5054676769e-10 -6.0880374823e-11 -1.0426857491e-11 -1.5054676769e-10 -6.2226448403e-11 -1.983463677e-11 
-1.8552814826e-11 -6.2226448403e-11 -7.8212123526e-11 -2.379128097e-11 -1.3598595504e-11 -7.8212123526e-11 -1.2085062139e-10 -4.1919911913e-11 5.9226333072e-12 
-1.2085062139e-10 -5.8927858854e-11 -4.1943668026e-11 1.186282688e-11 -5.8927858854e-11 4.8115556362e-12 4.0356376217e-11 9.1007868147e-11 9.1007868147e-11 
-1.1782524542e-10 -3.5257304728e-11 1.6958490145e-11 -1.1782524542e-10 -1.0522598641e-10 -8.1339347573e-12 4.2424151164e-11 -1.0522598641e-10 -6.6724663265e-11 
-3.3921696941e-11 1.2001960207e-11 -6.6724663265e-11 -1.2791217074e-11 1.4072947587e-11 5.5588269488e-11 5.5588269488e-11 -3.8568181941e-11 -6.4482589174e-12 
2.2673163859e-11 -3.8568181941e-11 -1.8158019088e-10 -7.7966564893e-11 -7.0050344231e-11 -1.8158019088e-10 3.3399694897e-11 5.1392595997e-11 1.4604750911e-10 
1.4604750911e-10 6.2306752964e-11 7.3664913117e-11 1.7610523392e-10 1.7610523392e-10 -1.8313980532e-11 -5.4322795373e-13 6.1357948486e-11 6.1357948486e-11 
3.9914342868e-11 4.8664762434e-11 9.2352594698e-11 9.2352594698e-11 7.5268890047e-11 1.0819659742e-10 1.6674031254e-10 1.6674031254e-10 -4.0647411928e-11 
-5.7557596121e-12 2.252184154e-11 -4.0647411928e-11 9.6111409724e-11 1.0547434821e-10 2.2572824207e-10 2.2572824207e-10 6.1450337141e-12 1.717785961e-11 
5.2484506676e-11 5.2484506676e-11 -6.0125865361e-11 -8.8275875359e-12 7.5267822897e-11 7.5267822897e-11 -2.8022873181e-11 2.3913723436e-11 1.1842734975e-10 
1.1842734975e-10 -1.6066632696e-10 -5.3576046766e-11 -1.880342627e-11 -1.6066632696e-10 4.2310776902e-11 4.6809184131e-11 1.2000103897e-10 1.2000103897e-10 
-1.8369116963e-10 -8.1145168329e-11 -3.3882962037e-11 -1.8369116963e-10 -9.4470229384e-12 1.8170787966e-12 2.0481384142e-11 2.0481384142e-11 -1.8412111684e-10 
-2.4899997216e-11 3.8038140538e-12 -1.8412111684e-10 -7.1415804801e-11 -8.8309898807e-12 3.6358274681e-11 -7.1415804801e-11 -8.1314407258e-11 4.4145450589e-11 
1.3382775667e-10 1.3382775667e-10 3.8690247331e-11 7.8068689985e-11 1.3998006268e-10 1.3998006268e-10 -2.0935721904e-10 -8.7996904224e-11 -1.6543676734e-11 
-2.0935721904e-10 2.3277305605e-11 3.2212244325e-11 9.057415007e-11 9.057415007e-11 -9.904062654e-11 1.3200504189e-12 1.2904970612e-10 1.2904970612e-10 
-8.4025289994e-12 3.9749210042e-11 9.5750718958e-11 9.5750718958e-11 4.2679478705e-11 5.9467338066e-11 1.6844158323e-10 1.6844158323e-10 1.6993780924e-11 
3.2298138547e-11 6.7483880529e-11 6.7483880529e-11 -4.0504134431e-11 2.6045136073e-11 1.1233209836e-10 1.1233209836e-10 4.0317214587e-11 7.5469050013e-11 
2.282090354e-10 2.282090354e-10 -1.1497870727e-10 -1.7220471973e-11 4.901917924e-11 -1.1497870727e-10 1.9308411129e-12 3.15181588e-11 8.0898200087e-11 
8.0898200087e-11 -1.1378045102e-13 3.5726353501e-11 7.0396326951e-11 7.0396326951e-11 5.5029124081e-11 6.8881273102e-11 1.4556490282e-10 1.4556490282e-10 
-6.5870341833e-11 2.3536645968e-12 7.4647827236e-11 7.4647827236e-11 7.3682241993e-11 8.4484013296e-11 2.1057804471e-10 2.1057804471e-10 -6.413588721e-11 
1.527038433e-11 9.1244822881e-11 9.1244822881e-11 -5.3692272867e-12 2.9165494353e-11 7.3261432933e-11 7.3261432933e-11 -2.6848684222e-10 -1.0012765842e-10 
-6.5378399356e-11 -2.6848684222e-10 -2.9424681721e-10 -1.1206712949e-10 -8.0522053298e-11 -2.9424681721e-10 1.7427938777e-10 1.9551428088e-10 4.3577733135e-10 
4.3577733135e-10 -3.0946851519e-11 1.6140095206e-11 7.1011856313e-11 7.1011856313e-11 -3.1617804399e-11 1.2092298422e-11 4.2840175977e-11 4.2840175977e-11 
2.2620006349e-11 3.541764134e-11 7.2500252311e-11 7.2500252311e-11 -6.4145540876e-11 -1.8669420871e-11 8.9850617464e-12 -6.4145540876e-11 -5.6884306641e-11 
1.64704025e-11 1.1119070414e-10 1.1119070414e-10 3.9533696434e-11 5.5598983145e-11 1.5531822042e-10 1.5531822042e-10 3.6436852384e-12 5.7245496965e-12 
1.2759135065e-11 1.2759135065e-11 -2.3703416692e-11 1.9141957729e-11 1.3327785896e-10 1.3327785896e-10 -1.7137601446e-11 -6.1194778375e-12 -4.6719907165e-12 
-1.7137601446e-11 5.1357229046e-11 8.1195491711e-11 3.1228867924e-10 3.1228867924e-10 -1.0559846973e-11 -2.2443563677e-12 1.8754533409e-12 -1.0559846973e-11 
-3.4026142654e-12 1.5156385475e-11 8.7708928791e-11 8.7708928791e-11 -1.968676166e-10 -7.5995078904e-11 -4.5791804501e-11 -1.968676166e-10 -1.2951645229e-12 
7.6525716489e-12 1.4488182874e-11 1.4488182874e-11 2.7397040382e-12 3.1732404753e-12 6.3650354865e-12 6.3650354865e-12 -1.3677419803e-10 -2.092596803e-11 
1.2756166064e-11 -1.3677419803e-10 -7.3861895886e-12 -3.0423783691e-12 -3.898020423e-13 -7.3861895886e-12 -4.5441773483e-12 -6.8793947437e-13 1.2856258227e-12 
-4.5441773483e-12 1.9534119717e-12 3.5936720723e-12 6.595985956e-12 6.595985956e-12 9.8864326254e-14 1.531821026e-12 4.4408446477e-12 4.4408446477e-12 
-3.1236677551e-13 2.2928079157e-13 1.1239199839e-12 1.1239199839e-12 -5.6668552662e-13 -9.9942150875e-14 3.0952424775e-12 3.0952424775e-12 -1.8791509639e-12 
1.3308184548e-12 3.8269585091e-12 3.8269585091e-12 -8.787284903e-12 -3.2716190591e-12 -1.6454060379e-12 -8.787284903e-12 -1.9257592779e-11 -7.8058403032e-12 
-7.0586169178e-12 -1.9257592779e-11 -1.9771015979e-12 1.2882496141e-12 5.6675119837e-12 5.6675119837e-12 -1.5575893672e-11 -6.8086654357e-12 -4.0699908923e-12 
-1.5575893672e-11 -1.3099186498e-11 -4.396339478e-12 -1.119240236e-13 -1.3099186498e-11 1.0050158948e-12 2.0585985529e-12 7.7437155523e-12 7.7437155523e-12 
8.2827727039e-12 1.0107255667e-11 2.0641281629e-11 2.0641281629e-11 6.9418215843e-12 1.0081800628e-11 1.8676977788e-11 1.8676977788e-11 -1.5015485998e-11 
2.7262564403e-12 1.5446424558e-11 1.5446424558e-11 -1.2317471552e-11 -1.4274259366e-12 7.7601024889e-12 -1.2317471552e-11 1.5998317345e-11 1.7396338561e-11 
3.7763744095e-11 3.7763744095e-11 -3.0093672718e-12 1.9505177412e-12 1.3910264531e-11 1.3910264531e-11 -1.2887188754e-11 1.7535718772e-12 1.4169377877e-11 
1.4169377877e-11 -6.1182582381e-11 -3.2591774734e-11 -2.7170642885e-11 -6.1182582381e-11 -9.3754696688e-12 -6.5756299947e-12 -2.7839103364e-12 -9.3754696688e-12 
-1.5577210234e-11 -6.5016072303e-12 -1.1953425359e-12 -1.5577210234e-11 -8.9550114689e-11 -4.3724903638e-11 -2.2034781674e-11 -8.9550114689e-11 -6.6458635479e-11 
-2.5818666942e-11 -1.8953197579e-11 -6.6458635479e-11 -7.3211744579e-11 -3.4049147884e-11 -2.3710707537e-11 -7.3211744579e-11 -8.9969213638e-11 -3.8643810349e-11 
-3.7625576013e-11 -8.9969213638e-11 -3.1018748194e-11 -8.1421810398e-12 -7.8976076627e-13 -3.1018748194e-11 2.4957084334e-12 1.2914247446e-11 4.183598412e-11 
4.183598412e-11 3.3625967412e-11 3.7876223181e-11 8.8300609407e-11 8.8300609407e-11 -9.5816055239e-12 1.2519751448e-11 4.0169764076e-11 4.0169764076e-11 
1.9164188378e-11 2.5625538162e-11 6.6232573461e-11 6.6232573461e-11 4.8754721551e-11 6.0290415299e-11 1.3624456315e-10 1.3624456315e-10 -3.2752110596e-11 
-1.9122621447e-11 -8.4358679573e-12 -3.2752110596e-11 -1.6063440264e-11 -1.5213922926e-12 1.6168133557e-11 1.6168133557e-11 1.4376055334e-11 2.0406560097e-11 
4.566518457e-11 4.566518457e-11 5.2191920187e-11 6.6821125843e-11 1.2445495397e-10 1.2445495397e-10 3.1947637612e-11 4.1608889623e-11 6.9933972765e-11 
6.9933972765e-11 2.9891542706e-11 3.2747464807e-11 7.5427592487e-11 7.5427592487e-11 4.3274464209e-11 5.1185839601e-11 1.3382969619e-10 1.3382969619e-10 
-9.1613932581e-11 -3.4821368223e-11 -2.3531499196e-11 -9.1613932581e-11 -2.8962247412e-11 -2.0145304235e-11 -1.3631648353e-11 -2.8962247412e-11 -6.8673562016e-11 
-3.5138882802e-11 -2.5106355182e-11 -6.8673562016e-11 -4.574952488e-11 -1.5520161408e-11 3.6912862877e-12 -4.574952488e-11 -3.2621871232e-11 -6.0140645366e-12 
4.1293557683e-12 -3.2621871232e-11 -1.8090548037e-11 -6.6706506939e-12 1.3468149731e-11 -1.8090548037e-11 -1.1688066808e-11 5.9948435569e-12 2.0386323251e-11 
2.0386323251e-11 -3.2548513479e-12 2.2216224603e-11 7.2458526745e-11 7.2458526745e-11 -1.1833496682e-12 3.723851395e-12 3.1358848273e-11 3.1358848273e-11 
-3.7692475233e-11 2.1752105636e-11 5.1155299597e-11 5.1155299597e-11 -6.4279221201e-11 1.6331133238e-12 8.4880278771e-12 -6.4279221201e-11 -1.6307009566e-10 
-7.3545050235e-11 -7.0604754105e-11 -1.6307009566e-10 -7.301589579e-11 -2.9397112068e-11 -2.1446192142e-11 -7.301589579e-11 -3.8066964998e-11 1.0960472273e-11 
4.9692642725e-11 4.9692642725e-11 -1.3325789034e-11 6.2800683605e-12 2.9510350673e-11 2.9510350673e-11 -9.5644514669e-11 -2.7824039722e-11 -4.8431456095e-12 
-9.5644514669e-11 -9.5757211013e-11 -2.1941693066e-11 1.0232804079e-11 -9.5757211013e-11 -1.1981637563e-10 -1.2321594936e-11 6.2679670569e-11 -1.1981637563e-10 
-4.1188199328e-13 3.6710427507e-11 9.1550554486e-11 9.1550554486e-11 1.4985738853e-11 4.5176399491e-11 1.4590586166e-10 1.4590586166e-10 -8.6307651888e-12 
7.2316547603e-12 3.9892670428e-11 3.9892670428e-11 -1.3040178165e-11 7.5824006854e-12 4.735132748e-11 4.735132748e-11 2.3690236075e-11 3.046198971e-11 
7.0213074215e-11 7.0213074215e-11 2.0878802824e-11 3.7975679528e-11 1.0325541765e-10 1.0325541765e-10 -1.8734685849e-10 -9.085171616e-11 -7.6500425346e-11 
-1.8734685849e-10 -2.40634278e-10 -7.7968749832e-11 -4.9210072171e-11 -2.40634278e-10 -3.1847679741e-10 -1.3245673912e-10 -1.2239246347e-10 -3.1847679741e-10 
-2.2633233057e-10 -8.9981742675e-11 -7.4693226751e-11 -2.2633233057e-10 -3.1701108002e-11 1.1221850826e-11 3.5253357176e-11 3.5253357176e-11 -9.6902344802e-12 
1.4669804037e-11 4.9360630443e-11 4.9360630443e-11 -2.9668208634e-11 3.029673355e-12 5.0317555279e-11 5.0317555279e-11 -1.0617583442e-10 8.1883423237e-12 
1.537241021e-10 1.537241021e-10 5.6086960369e-12 4.3354620105e-11 1.4483968386e-10 1.4483968386e-10 3.6864591123e-11 1.0474668745e-10 2.0932362143e-10 
2.0932362143e-10 6.6866001248e-11 9.859629781e-11 1.6057930094e-10 1.6057930094e-10 -8.6125144878e-11 -5.3474836006e-11 3.8001808838e-12 -8.6125144878e-11 
-7.4854007772e-11 -3.2989422083e-12 2.8265179981e-11 -7.4854007772e-11 -9.2771266048e-11 -1.561958403e-11 2.8975250079e-11 -9.2771266048e-11 -3.4901614385e-11 
3.7494289311e-11 1.1531652507e-10 1.1531652507e-10 -6.1896022288e-11 -1.112823641e-11 8.4925586979e-12 -6.1896022288e-11 -8.9862264319e-11 -2.0755710871e-11 
-1.698542481e-11 -8.9862264319e-11 -2.994156883e-11 1.6628229103e-12 3.7993145919e-11 3.7993145919e-11 -2.2092371195e-10 -9.8871188038e-11 -5.408980001e-11 
-2.2092371195e-10 6.3639567691e-11 1.123097702e-10 2.2425066211e-10 2.2425066211e-10 1.3711584606e-10 1.5353855585e-10 3.9154259809e-10 3.9154259809e-10 
7.5289018695e-11 1.1386440662e-10 3.2000457468e-10 3.2000457468e-10 -3.6891979341e-11 4.1635553224e-11 1.7558094612e-10 1.7558094612e-10 -1.4097643952e-10 
-1.6935915374e-11 -8.933745108e-12 -1.4097643952e-10 -2.2487468424e-11 -1.0952074993e-11 -7.4825265835e-12 -2.2487468424e-11 -3.5568146062e-11 -1.3867828574e-12 
3.100482892e-11 -3.5568146062e-11 -1.7591107312e-12 6.1077950531e-13 1.2832573259e-12 -1.7591107312e-12 -1.4334487527e-11 -1.2163781997e-11 -4.7425104756e-12 
-1.4334487527e-11 -3.061636024e-12 4.3631389e-12 8.048657124e-12 8.048657124e-12 -1.85384904e-13 2.0662694136e-12 5.2945554904e-12 5.2945554904e-12 
-4.4197009928e-13 1.0992222471e-12 4.0987858522e-12 4.0987858522e-12 1.2638586072e-13 1.4027811321e-12 4.2111960072e-12 4.2111960072e-12 -4.699671181e-12 
-3.9781468693e-12 -1.5763219497e-12 -4.699671181e-12 -7.6221198671e-13 2.0332090199e-12 5.0433996668e-12 5.0433996668e-12 -2.1007359417e-12 -1.0414005118e-12 
1.1550894535e-12 -2.1007359417e-12 1.3109532836e-12 5.6522220283e-12 1.0470794688e-11 1.0470794688e-11 1.9816421847e-12 6.9896269784e-12 1.2665460837e-11 
1.2665460837e-11 6.3393462904e-12 1.1397177709e-11 2.1526066e-11 2.1526066e-11 1.175367962e-12 7.7975708468e-12 1.2553411191e-11 1.2553411191e-11 
-9.2149063344e-12 -1.7973411628e-12 1.2226552497e-11 1.2226552497e-11 6.5817967197e-13 2.2952813353e-12 7.2025619928e-12 7.2025619928e-12 -6.7242140983e-12 
3.2575441842e-13 5.8924996799e-12 -6.7242140983e-12 8.6490035021e-12 9.703808987e-12 2.9544887511e-11 2.9544887511e-11 1.6518448789e-13 7.972115561e-12 
2.4759389951e-11 2.4759389951e-11 -8.7019546828e-13 1.0717079948e-11 1.990361552e-11 1.990361552e-11 1.1874556399e-11 1.5708666021e-11 3.169707758e-11 
3.169707758e-11 -6.1711008807e-11 -2.139304716e-11 -1.0397544034e-11 -6.1711008807e-11 7.7624505574e-12 1.579605724e-11 3.6347192203e-11 3.6347192203e-11 
1.0516576509e-11 1.4726351972e-11 3.2933371519e-11 3.2933371519e-11 -4.7268848648e-13 6.4275757272e-12 2.6021812759e-11 2.6021812759e-11 5.6861167241e-12 
9.6636451217e-12 2.4943088154e-11 2.4943088154e-11 2.4817722941e-11 2.8600960499e-11 7.094661656e-11 7.094661656e-11 1.1419555043e-12 1.4354281863e-11 
3.9257962632e-11 3.9257962632e-11 -9.516054229e-12 2.4834539528e-12 1.9681630276e-11 1.9681630276e-11 -7.6959047752e-12 5.0752509396e-12 3.0684593836e-11 
3.0684593836e-11 -3.5673083152e-11 -1.1895384539e-11 -1.0939032309e-11 -3.5673083152e-11 -1.1600212119e-12 9.3607711077e-12 2.3804860104e-11 2.3804860104e-11 
-2.456811515e-11 -8.5017535639e-12 -5.567111286e-12 -2.456811515e-11 -1.5412632655e-11 8.3351110652e-12 4.229238159e-11 4.229238159e-11 -1.3129131696e-11 
9.3747234863e-12 4.128756821e-11 4.128756821e-11 -7.6003808495e-12 1.4067917891e-14 9.0762293163e-13 -7.6003808495e-12 -3.1756303187e-11 -7.1615692512e-12 
7.2355324383e-12 -3.1756303187e-11 3.5193293847e-11 5.4254751463e-11 9.701545469e-11 9.701545469e-11 2.3657590881e-11 2.8388626584e-11 7.1104582535e-11 
7.1104582535e-11 2.1610477064e-11 2.6593308199e-11 6.3181114737e-11 6.3181114737e-11 8.7503007457e-12 2.9266812969e-11 7.4609786286e-11 7.4609786286e-11 
-1.6814638421e-12 1.3374365187e-11 7.8975298655e-11 7.8975298655e-11 -7.700236235e-11 -3.1653165982e-11 -1.9950571668e-11 -7.700236235e-11 -8.7050568897e-11 
-2.4262059057e-11 -1.3052572046e-11 -8.7050568897e-11 -5.1515744621e-11 -1.9844350507e-11 -1.4193304871e-11 -5.1515744621e-11 3.3426357432e-12 4.5402585906e-12 
4.2684385666e-11 4.2684385666e-11 6.8866436907e-11 7.7597676753e-11 1.6936648634e-10 1.6936648634e-10 1.4891796437e-11 2.4564319486e-11 7.7724484077e-11 
7.7724484077e-11 -1.215077302e-11 -2.5449228639e-12 1.4143737884e-11 1.4143737884e-11 -1.7367206338e-10 -7.1064873169e-11 -4.0734963451e-11 -1.7367206338e-10 
-7.1282202306e-11 -3.5802345131e-11 -2.6691452563e-11 -7.1282202306e-11 -1.3173215767e-10 -4.9799061078e-11 -3.406298125e-11 -1.3173215767e-10 -2.2246664404e-12 
3.3763129434e-12 1.6455793497e-11 1.6455793497e-11 -9.1319961995e-11 -3.9622505406e-11 -3.5527932599e-11 -9.1319961995e-11 2.1594213726e-11 4.6584458926e-11 
6.7958627347e-11 6.7958627347e-11 -1.4605613373e-11 1.1840759432e-11 6.135505394e-11 6.135505394e-11 -3.5583273469e-12 1.1535445227e-11 4.357578212e-11 
4.357578212e-11 -6.3360382193e-11 -2.3008629265e-11 -8.5492885414e-12 -6.3360382193e-11 -6.8760846517e-11 -3.4408931897e-11 -3.0943521587e-11 -6.8760846517e-11 
-9.6775789148e-11 -3.3493628907e-11 -2.0746181945e-11 -9.6775789148e-11 1.4262598061e-11 4.050478167e-11 1.1149142027e-10 1.1149142027e-10 -4.0213271434e-11 
1.362284706e-11 7.6818524375e-11 7.6818524375e-11 -2.2193152173e-10 -8.7714352126e-11 -6.9926326149e-11 -2.2193152173e-10 -1.9779984213e-10 -9.1751092078e-11 
-4.1733565788e-11 -1.9779984213e-10 -5.7687716943e-11 -9.2805738514e-12 2.2747390794e-11 -5.7687716943e-11 -7.8778820406e-11 -2.8928277178e-11 -1.7035302415e-11 
-7.8778820406e-11 -8.7555783047e-11 -2.5984776764e-11 4.9613598111e-12 -8.7555783047e-11 -8.3733960213e-11 1.6698130599e-11 1.0602854961e-10 1.0602854961e-10 
-1.7489081038e-10 -7.6285747704e-11 -4.6770441917e-11 -1.7489081038e-10 -2.4734178999e-10 -7.9695522081e-11 -4.8588187926e-11 -2.4734178999e-10 -9.0592450391e-11 
-3.4875086944e-12 5.0144219086e-11 -9.0592450391e-11 -1.426643087e-10 -4.7890882248e-11 1.6302190948e-11 -1.426643087e-10 -2.3625760772e-10 -1.156918294e-10 
-1.0109656288e-10 -2.3625760772e-10 -1.0830123789e-11 1.4606543155e-11 6.9192280634e-11 6.9192280634e-11 -5.3618061128e-11 -1.3977967994e-12 2.9879707928e-11 
-5.3618061128e-11 -2.9984189587e-11 2.8049406127e-11 7.9539983461e-11 7.9539983461e-11 -8.3382327741e-11 -3.4917719117e-11 -1.7823753142e-11 -8.3382327741e-11 
1.0663195637e-12 1.8726091444e-11 8.6526788993e-11 8.6526788993e-11 2.8232806121e-11 3.5663203888e-11 1.1273038999e-10 1.1273038999e-10 -1.2529798688e-11 
-2.5805235915e-12 7.9459152797e-12 -1.2529798688e-11 -1.2466324943e-10 -1.8051520553e-11 2.2829569988e-11 -1.2466324943e-10 -1.4474082201e-10 -7.2844605458e-11 
-2.9930272528e-11 -1.4474082201e-10 -1.493526715e-10 1.3830342013e-12 1.397393373e-10 -1.493526715e-10 -3.1202922972e-11 2.4068518398e-11 1.3938340457e-10 
1.3938340457e-10 -3.6724354706e-11 -2.0391063168e-12 4.0180190022e-11 4.0180190022e-11 -9.6896253747e-11 -8.9348508923e-12 1.6303644639e-11 -9.6896253747e-11 
-2.9623261803e-11 -5.6121311858e-12 1.8370034989e-11 -2.9623261803e-11 -1.3600257056e-10 -3.942911252e-11 3.2143483082e-11 -1.3600257056e-10 -3.8921548356e-11 
2.6505547299e-12 4.2784113626e-11 4.2784113626e-11 -1.0433756658e-10 -3.4199504771e-11 -1.6388228644e-11 -1.0433756658e-10 -5.8650587394e-11 9.4428800148e-12 
9.7559107379e-11 9.7559107379e-11 -1.5881536313e-10 -5.8445989105e-11 -3.6022847764e-11 -1.5881536313e-10 -2.096513818e-10 -5.6876995134e-11 -2.8106823069e-11 
-2.096513818e-10 -7.2790398203e-11 -3.3740458763e-11 -2.4513043034e-11 -7.2790398203e-11 -9.0169361159e-11 4.957762571e-12 3.0457418588e-11 -9.0169361159e-11 
-1.2509625959e-10 -5.3877401868e-11 1.8584061461e-11 -1.2509625959e-10 -1.7941585425e-10 -7.0388971862e-11 -5.3992273888e-11 -1.7941585425e-10 -2.2747057325e-11 
8.1132952888e-11 2.9119960444e-10 2.9119960444e-10 -3.1422746212e-11 -1.2372107228e-11 -4.1702465605e-12 -3.1422746212e-11 -7.9849620386e-11 -4.0784651869e-12 
2.1556849573e-11 -7.9849620386e-11 -5.3143610287e-11 -1.026885487e-11 1.4233005157e-11 -5.3143610287e-11 -4.4002348244e-11 8.9314371751e-12 6.5563441069e-11 
6.5563441069e-11 -1.5422344704e-10 -9.5347804039e-12 9.0347927449e-11 -1.5422344704e-10 -6.0705066367e-11 7.7240174808e-12 5.6927538886e-11 -6.0705066367e-11 
-1.6027007638e-10 -7.9684870344e-13 1.9871046508e-10 1.9871046508e-10 -1.9147120854e-10 -6.6806804683e-11 -2.6642086774e-11 -1.9147120854e-10 -1.7994524952e-10 
-7.2034377557e-11 -7.170729246e-13 -1.7994524952e-10 1.1878385784e-12 6.5491525499e-12 2.1001588872e-11 2.1001588872e-11 -1.2023844892e-10 -1.549449963e-12 
1.2795280889e-10 1.2795280889e-10 1.8900869605e-12 3.4024553149e-12 1.2800627725e-11 1.2800627725e-11 -1.128388775e-10 1.4965634706e-11 1.6207974279e-10 
1.6207974279e-10 -3.6120046064e-12 1.3144320347e-13 4.7882714029e-12 4.7882714029e-12 -9.8771075586e-12 -5.9896644964e-12 -2.2263979451e-12 -9.8771075586e-12 
-1.7624441043e-12 -6.7936182197e-13 2.1719598263e-12 2.1719598263e-12 -4.1456071042e-12 -2.8476424441e-12 -7.262704517e-13 -4.1456071042e-12 1.9543307997e-13 
2.9989282567e-12 4.2938586633e-12 4.2938586633e-12 -1.4514671315e-12 6.0541745267e-13 3.4770486788e-12 3.4770486788e-12 9.2034195734e-13 2.8706396419e-12 
4.0008184007e-12 4.0008184007e-12 -5.456349103e-12 -1.0612324835e-12 9.317715865e-13 -5.456349103e-12 -5.5721248849e-12 -1.1336650516e-12 3.5485959365e-12 
-5.5721248849e-12 3.0748091782e-12 5.9315604725e-12 1.3053550349e-11 1.3053550349e-11 -2.410126272e-11 -8.2098955578e-12 4.7868482776e-12 -2.410126272e-11 
-9.6020549623e-13 3.3179976907e-12 1.0028137806e-11 1.0028137806e-11 -1.4620436498e-11 -4.7172865489e-12 3.8119630469e-12 -1.4620436498e-11 -2.9962127296e-11 
-8.8112904419e-12 -8.4832922616e-12 -2.9962127296e-11 6.3532304736e-12 9.612349411e-12 2.4349430115e-11 2.4349430115e-11 -2.4881194204e-12 6.260183172e-12 
2.2234346248e-11 2.2234346248e-11 -9.7538850316e-12 -2.7905041593e-12 6.1085691909e-12 -9.7538850316e-12 -4.428345968e-11 -1.4361062531e-11 -5.1740877886e-12 
-4.428345968e-11 -4.6045605636e-11 -1.4530344836e-11 -3.1751395276e-12 -4.6045605636e-11 1.477557394e-11 1.7710330398e-11 4.3812895662e-11 4.3812895662e-11 
-1.8147145193e-11 1.2913377108e-12 2.1470166483e-11 2.1470166483e-11 -1.4556165709e-11 -2.8272849869e-12 5.3618206956e-12 -1.4556165709e-11 -4.0599244362e-11 
-2.3560401667e-11 -1.5849653971e-11 -4.0599244362e-11 -3.8533412437e-11 -1.6744065439e-11 -8.5950221247e-12 -3.8533412437e-11 -8.8176908215e-12 4.5719262166e-12 
1.1878544605e-11 1.1878544605e-11 -7.8410890599e-12 2.1748198573e-13 1.0052217074e-11 1.0052217074e-11 -2.8219198896e-11 -1.8535622645e-12 2.2652007161e-11 
-2.8219198896e-11 1.8365783733e-11 2.31656077e-11 5.7781508567e-11 5.7781508567e-11 -1.4216760943e-11 -1.8623458215e-12 1.2537374764e-11 -1.4216760943e-11 
3.6167958518e-12 1.6086289557e-11 4.4250414591e-11 4.4250414591e-11 3.8844414766e-11 4.1424113896e-11 9.8942971338e-11 9.8942971338e-11 2.4933308421e-11 
2.837679755e-11 7.1277694029e-11 7.1277694029e-11 -3.1581416972e-11 -3.3339592433e-12 -1.9474637851e-12 -3.1581416972e-11 -6.9302599637e-11 -2.5131786074e-11 
4.424298571e-11 -6.9302599637e-11 4.1270644903e-11 4.6103285197e-11 1.240371699e-10 1.240371699e-10 -8.9832345866e-11 -3.7249279017e-11 -1.0269975117e-11 
-8.9832345866e-11 -1.571918369e-11 -3.0411803574e-12 4.3101240475e-12 -1.571918369e-11 1.6198878021e-11 2.5362950847e-11 7.5965671133e-11 7.5965671133e-11 
-1.6559255323e-11 1.064644024e-11 4.5742085083e-11 4.5742085083e-11 -1.1182525237e-11 4.2849631257e-12 4.3812492111e-11 4.3812492111e-11 2.7958929403e-11 
3.0077577758e-11 9.751619284e-11 9.751619284e-11 1.5210960442e-11 3.1611411852e-11 1.0591032771e-10 1.0591032771e-10 -3.325279328e-11 -4.5981416183e-12 
6.7849408983e-12 -3.325279328e-11 -7.4447415326e-11 -3.2757734364e-11 -2.8797250309e-11 -7.4447415326e-11 -8.5654652655e-11 -3.8931474257e-11 -3.7186473088e-11 
-8.5654652655e-11 -2.4136639834e-11 5.8977130062e-12 4.3253646828e-11 4.3253646828e-11 -4.1516031753e-11 -1.4127960457e-11 4.147708221e-11 -4.1516031753e-11 
-5.9587487594e-12 3.0880211694e-11 6.1800337066e-11 6.1800337066e-11 -8.946693937e-11 -4.2098945293e-11 -2.3258215337e-11 -8.946693937e-11 -1.0142162634e-10 
-3.8042604027e-11 -1.0435269628e-11 -1.0142162634e-10 6.7188074778e-11 7.5987231275e-11 1.7557969395e-10 1.7557969395e-10 -4.1772983484e-11 8.6974646311e-12 
2.6498068853e-11 -4.1772983484e-11 -6.1065816668e-11 -3.5811908807e-11 -5.1240745252e-12 -6.1065816668e-11 -5.4517908759e-11 -4.942994649e-12 3.6631913408e-11 
-5.4517908759e-11 -4.4521450497e-11 -5.886220523e-12 3.717174102e-11 -4.4521450497e-11 -4.9817895729e-11 2.2936581984e-12 4.131778353e-11 -4.9817895729e-11 
7.0652352885e-11 7.9877195847e-11 1.6306525127e-10 1.6306525127e-10 -1.1920228705e-10 -4.8960194833e-11 -3.3655018117e-11 -1.1920228705e-10 5.2957043458e-12 
4.3847749239e-11 1.3573474641e-10 1.3573474641e-10 -2.7627619372e-10 -1.109429756e-10 -7.9681830679e-11 -2.7627619372e-10 -7.4589623158e-11 -2.3606490167e-11 
6.7589133247e-12 -7.4589623158e-11 -1.825839046e-10 -9.1146104261e-11 -7.1672191141e-11 -1.825839046e-10 -1.5036046237e-10 -7.827153267e-11 -6.3408604961e-11 
-1.5036046237e-10 -2.0979177494e-10 -9.0168456382e-11 -5.6924868677e-11 -2.0979177494e-10 -1.8796013366e-10 -7.54427e-11 -6.3515866343e-11 -1.8796013366e-10 
-1.5140736888e-10 -9.0433119804e-11 -6.7200511312e-11 -1.5140736888e-10 -1.1125606156e-10 -2.3799520359e-11 2.6758191876e-13 -1.1125606156e-10 -4.6803716713e-11 
-1.3496618116e-11 1.8042494828e-11 -4.6803716713e-11 -1.0689148083e-11 -8.6022973004e-12 7.2720895383e-11 7.2720895383e-11 -5.2538567266e-11 -5.4452312001e-12 
2.2942418466e-11 -5.2538567266e-11 -8.7833751309e-11 3.1560547777e-12 1.0398520653e-10 1.0398520653e-10 -3.0644888118e-11 2.3164935162e-11 7.5379852956e-11 
7.5379852956e-11 -4.1311828895e-11 9.9100630522e-13 9.6786032589e-11 9.6786032589e-11 -5.2573467868e-11 -4.5399682435e-12 2.8239946112e-11 -5.2573467868e-11 
-1.7387413168e-13 2.6422831045e-11 8.8502973486e-11 8.8502973486e-11 3.6843419875e-11 5.8223283751e-11 1.0930109637e-10 1.0930109637e-10 -1.0874532609e-10 
-4.080787846e-11 4.0022704554e-11 -1.0874532609e-10 -6.8197612258e-11 -1.8187501029e-11 2.4091213287e-11 -6.8197612258e-11 -1.5540918135e-10 -6.666099659e-11 
-6.0863222061e-11 -1.5540918135e-10 -1.3517540648e-10 -5.4240050409e-11 -4.3596243116e-11 -1.3517540648e-10 3.8278969321e-11 1.0999676331e-10 2.6774516737e-10 
2.6774516737e-10 -1.0677603424e-10 -6.3273951077e-11 -2.8792714682e-11 -1.0677603424e-10 -7.390253004e-11 4.4355305893e-12 7.8675539451e-11 7.8675539451e-11 
-2.5585461109e-10 -9.2696360996e-11 -5.4113227915e-11 -2.5585461109e-10 -4.4530607916e-10 -1.9445124735e-10 -1.7031967349e-10 -4.4530607916e-10 -2.3004968742e-10 
-9.3058246083e-11 -8.79349665e-11 -2.3004968742e-10 -2.3358017247e-10 -8.3267982605e-11 -6.0193844925e-11 -2.3358017247e-10 8.7321221207e-11 1.0544696247e-10 
2.2556121633e-10 2.2556121633e-10 -2.4901072892e-10 -9.0984212418e-11 -8.9869158659e-11 -2.4901072892e-10 -1.155887561e-10 -1.1104124375e-11 2.2748280479e-11 
-1.155887561e-10 -3.9012474746e-11 9.6761725859e-12 6.697978716e-11 6.697978716e-11 4.3667942073e-12 7.6680550417e-12 2.2269290751e-11 2.2269290751e-11 
-2.1817550402e-11 -4.9466894294e-12 1.7495298312e-12 -2.1817550402e-11 -2.2902552638e-10 -5.7915328828e-11 3.4728955204e-11 -2.2902552638e-10 -1.8327223546e-10 
-5.3602120223e-11 3.8622556839e-12 -1.8327223546e-10 -6.3747675409e-12 -4.668520268e-13 5.3574725677e-12 -6.3747675409e-12 5.745270148e-14 6.8381961008e-12 
9.9022611977e-12 9.9022611977e-12 9.9990145603e-11 1.3516365704e-10 2.7424719736e-10 2.7424719736e-10 -5.5109523299e-11 3.332785379e-11 1.4442666951e-10 
1.4442666951e-10 -2.9427240634e-12 1.5939541216e-12 1.1063223942e-11 1.1063223942e-11 1.3543854727e-12 6.0711745955e-12 2.1232059932e-11 2.1232059932e-11 
-4.8524175724e-11 4.6978387837e-11 2.2267098789e-10 2.2267098789e-10 -4.8987149675e-12 1.3917114475e-12 8.36423352e-12 8.36423352e-12 -2.6572285748e-10 
-7.8882487423e-11 -4.7725955092e-11 -2.6572285748e-10 6.9445383196e-14 3.061036803e-12 1.0024507814e-11 1.0024507814e-11 3.0739750642e-12 6.6051817654e-11 
2.3687900728e-10 2.3687900728e-10 -7.6625504164e-12 -2.6394341517e-12 -1.0683454319e-12 -7.6625504164e-12 -1.9703682137e-11 3.8135080397e-11 7.749880174e-11 
7.749880174e-11 -2.5866635081e-11 -1.0567333114e-11 -6.1882318046e-12 -2.5866635081e-11 6.2105993466e-11 9.8384220437e-11 3.025253861e-10 3.025253861e-10 
-1.0550237259e-11 -8.6975357193e-12 1.2066529778e-12 -1.0550237259e-11 -1.5913026217e-10 -7.2718364803e-11 -5.7763373029e-11 -1.5913026217e-10 3.7765852731e-11 
7.2757368843e-11 1.3626157843e-10 1.3626157843e-10 5.1174725327e-11 8.2692692748e-11 2.2958378192e-10 2.2958378192e-10 -1.4293945022e-10 -7.3178859815e-11 
2.9395410032e-11 -1.4293945022e-10 5.6011713682e-11 7.780657578e-11 1.5378501054e-10 1.5378501054e-10 -3.268294854e-11 2.8200522438e-11 5.4922826102e-11 
5.4922826102e-11 -3.04371874e-10 -1.22358127e-10 -7.3097998999e-11 -3.04371874e-10 -1.5985667891e-10 -3.338418577e-11 1.4438844468e-10 -1.5985667891e-10 
-3.2595522246e-12 5.5885118321e-11 2.042402339e-10 2.042402339e-10 -2.5101632624e-10 -8.078090079e-11 -6.5281272967e-11 -2.5101632624e-10 -3.4243513529e-10 
-1.7815476813e-10 -1.4444509658e-10 -3.4243513529e-10 -1.938440363e-10 -7.1421470348e-11 -3.0804593353e-11 -1.938440363e-10 4.1854833198e-12 4.9814248668e-11 
1.7307556801e-10 1.7307556801e-10 -4.1959473402e-12 2.6068230791e-11 6.5692716549e-11 6.5692716549e-11 -8.1859314843e-11 -1.8814759867e-11 6.761792471e-11 
-8.1859314843e-11 2.5703044379e-11 4.9500218621e-11 1.40391037e-10 1.40391037e-10 -5.4057996355e-11 -5.9446407254e-12 4.259758708e-11 -5.4057996355e-11 
-2.1325575727e-10 -7.6173954715e-11 -5.7996888018e-11 -2.1325575727e-10 4.4301009303e-11 5.0133897058e-11 1.2130659364e-10 1.2130659364e-10 1.0802719983e-11 
3.0934135947e-11 7.6271544069e-11 7.6271544069e-11 -5.5298569105e-11 -2.2941716689e-11 -1.8904314205e-11 -5.5298569105e-11 1.5122800567e-11 1.9534196302e-11 
3.5959603131e-11 3.5959603131e-11 1.9833171114e-11 2.6046003118e-11 4.4166325767e-11 4.4166325767e-11 -1.9781740418e-11 9.2394802906e-12 4.6597870127e-11 
4.6597870127e-11 -2.7292984472e-11 -1.8412898877e-12 3.630971736e-11 3.630971736e-11 1.0012184949e-11 1.6861818111e-11 2.5341196939e-11 2.5341196939e-11 
-2.1346763189e-11 7.0484853901e-12 4.3883197799e-11 4.3883197799e-11 -2.0740712427e-11 -6.9371332639e-12 2.8798744691e-11 2.8798744691e-11 -2.9939097427e-11 
-8.0920305359e-12 1.4150779631e-12 -2.9939097427e-11 -1.7995626223e-11 3.8791136462e-13 2.2371524859e-11 2.2371524859e-11 -7.6673889412e-11 -2.6395240412e-11 
-1.8496470176e-11 -7.6673889412e-11 1.3120922304e-11 2.7523288517e-11 8.5864489179e-11 8.5864489179e-11 1.0996232013e-11 1.3347541433e-11 2.9625326555e-11 
2.9625326555e-11 7.4404870656e-12 9.7246757799e-12 2.3747657155e-11 2.3747657155e-11 -2.6100147455e-11 -5.222293295e-12 1.80550075e-12 -2.6100147455e-11 
-4.6320020523e-12 5.6585288652e-12 1.4759453187e-11 1.4759453187e-11 -3.8738344081e-12 3.3585478812e-12 1.1002476527e-11 1.1002476527e-11 -1.1223111034e-11 
-6.8332229223e-12 8.3418739559e-12 -1.1223111034e-11 -3.0064834374e-12 3.4176913286e-12 1.6589057409e-11 1.6589057409e-11 -6.7604851767e-12 2.1122126155e-12 
4.8690524611e-12 -6.7604851767e-12 -2.2377812863e-12 6.3867767319e-12 2.3240334554e-11 2.3240334554e-11 -4.7870212306e-12 -4.7580037186e-13 5.1278985024e-12 
5.1278985024e-12 4.2886793418e-12 6.9206471316e-12 1.5726203527e-11 1.5726203527e-11 -8.1916531045e-12 -3.2528160779e-12 3.4962831824e-12 -8.1916531045e-12 
-4.3299578666e-11 1.1995134879e-11 4.1777883788e-11 -4.3299578666e-11 1.6846442873e-10 2.0448412611e-10 3.9462744515e-10 3.9462744515e-10 3.0800228237e-12 
8.8879217144e-12 1.8524655462e-11 1.8524655462e-11 -2.6432455394e-12 5.7486405477e-13 5.6178914846e-12 5.6178914846e-12 -3.1302220231e-12 1.5485154581e-12 
6.438936565e-12 6.438936565e-12 -2.0497167703e-12 6.4099545743e-13 1.1284971129e-12 -2.0497167703e-12 1.428016065e-12 2.9780109335e-12 4.0941130015e-12 
4.0941130015e-12 9.5137697888e-13 3.073494541e-12 7.0388084802e-12 7.0388084802e-12 4.2298871479e-12 5.6298200742e-12 1.0010762778e-11 1.0010762778e-11 
5.4475888319e-13 5.8296304193e-12 1.2244980698e-11 1.2244980698e-11 -3.2854109782e-11 -1.0086938187e-11 -7.7403203096e-13 -3.2854109782e-11 -3.7200136681e-12 
3.3838921933e-12 1.8550721475e-11 1.8550721475e-11 -7.1245120722e-12 1.0527930631e-11 3.4613761441e-11 3.4613761441e-11 3.876721512e-12 8.3745994614e-12 
1.2221619027e-11 1.2221619027e-11 1.4604124105e-11 1.7322628562e-11 4.8487347332e-11 4.8487347332e-11 7.3050137554e-12 8.6807992083e-12 2.4895857036e-11 
2.4895857036e-11 -1.2418826591e-11 -2.0424396333e-12 3.3117262238e-12 -1.2418826591e-11 -2.2783056811e-11 -8.5739075748e-12 -2.7785656139e-12 -2.2783056811e-11 
-5.487586862e-11 -2.345143369e-11 -1.797649769e-11 -5.487586862e-11 -7.269809787e-11 -2.7215527292e-11 -2.3011474838e-11 -7.269809787e-11 5.1901250298e-11 
6.013940971e-11 1.3905093999e-10 1.3905093999e-10 -1.0035245512e-10 -2.9234747651e-11 -8.5737972324e-12 -1.0035245512e-10 -8.4724557386e-11 -3.6431454124e-11 
-2.064798849e-11 -8.4724557386e-11 4.824427812e-11 5.2721245943e-11 1.4081627594e-10 1.4081627594e-10 -7.1162013095e-11 -2.0437143732e-11 -8.9185431729e-12 
-7.1162013095e-11 -6.3804678773e-11 -2.7471596064e-11 2.032748371e-13 -6.3804678773e-11 -8.6831909409e-11 -2.8975583276e-11 5.1188926844e-12 -8.6831909409e-11 
-8.6191033863e-11 -3.404089175e-11 3.4716256124e-12 -8.6191033863e-11 -5.0698249107e-11 -9.2742337147e-12 4.7148282151e-13 -5.0698249107e-11 4.3546209445e-11 
4.7166113891e-11 1.1340117666e-10 1.1340117666e-10 -5.305833908e-11 4.4415061521e-12 8.5315832928e-11 8.5315832928e-11 -2.5772353644e-12 6.7696552708e-12 
2.4141350094e-11 2.4141350094e-11 -2.7961135872e-10 -7.3354572813e-11 2.4293731534e-11 -2.7961135872e-10 8.1656390417e-12 4.7068011371e-11 1.5956334959e-10 
1.5956334959e-10 -9.3183198294e-11 -5.2745602573e-11 -3.5488499132e-11 -9.3183198294e-11 -9.4733089164e-11 -2.3913156659e-11 3.2209745823e-11 -9.4733089164e-11 
-3.4364308292e-11 2.3096504786e-11 1.0336840351e-10 1.0336840351e-10 2.7121085764e-11 4.8264974033e-11 1.773241402e-10 1.773241402e-10 -1.5826827389e-11 
4.2572330287e-11 1.805692971e-10 1.805692971e-10 -1.1730822905e-10 -4.0311544187e-11 4.0506673234e-11 -1.1730822905e-10 -3.4011407963e-11 3.9736235758e-13 
5.4931895606e-11 5.4931895606e-11 -3.5630527763e-11 8.4239840262e-12 4.8512113737e-11 4.8512113737e-11 -4.0710064413e-11 -1.2737696483e-11 3.1092608954e-12 
-4.0710064413e-11 -3.6906405006e-11 -2.0892109111e-12 3.9535309917e-11 3.9535309917e-11 2.1229184631e-11 3.8413775268e-11 1.231570401e-10 1.231570401e-10 
-9.4994234507e-11 -3.3319969169e-11 1.5383603676e-11 -9.4994234507e-11 -1.2916302307e-10 -5.030689914e-11 -1.7112477792e-11 -1.2916302307e-10 -1.4420020675e-10 
-3.9655335153e-11 2.1792341901e-11 -1.4420020675e-10 -2.1351106045e-11 -7.4395431235e-12 -4.1979908312e-12 -2.1351106045e-11 -1.2911755921e-10 -6.9948808024e-11 
-3.7824832762e-11 -1.2911755921e-10 -3.464701689e-11 -2.2212359985e-11 -1.4299023125e-11 -3.464701689e-11 -6.8784829437e-11 7.3876344442e-12 9.7947824993e-11 
9.7947824993e-11 -3.4858195709e-13 6.0177868517e-13 5.5484842719e-12 5.5484842719e-12 4.5662928144e-12 7.0384294858e-11 2.5588051233e-10 2.5588051233e-10 
-3.0030677946e-11 -1.3826563284e-11 -8.6007587708e-12 -3.0030677946e-11 2.4035560022e-11 7.2343825082e-11 2.244406149e-10 2.244406149e-10 -1.8548726465e-11 
-4.5969846805e-12 -2.9618788548e-12 -1.8548726465e-11 8.490671484e-11 1.0712653435e-10 2.1597365081e-10 2.1597365081e-10 -1.9188926005e-12 4.801330154e-12 
1.5158652446e-11 1.5158652446e-11 3.8409141749e-12 4.1824343421e-11 1.293684424e-10 1.293684424e-10 5.3046143764e-11 7.12629108e-11 1.5413134544e-10 
1.5413134544e-10 1.9696996295e-13 2.3335253388e-12 8.6411346983e-12 8.6411346983e-12 7.349867818e-14 2.4953894307e-12 4.6157618911e-12 4.6157618911e-12 
-3.2419004862e-10 -1.4417833238e-10 -1.18344619e-10 -3.2419004862e-10 4.9485673911e-12 7.7078835304e-12 1.1629679078e-11 1.1629679078e-11 -6.1029887411e-11 
-3.0117012074e-11 -1.7331200515e-11 -6.1029887411e-11 -6.3444554607e-12 8.400724321e-12 1.059276014e-11 1.059276014e-11 -1.3884361277e-11 -3.8371967066e-12 
1.3284079832e-12 -1.3884361277e-11 -1.4317263416e-11 -4.982358412e-12 -4.4805381724e-12 -1.4317263416e-11 2.8046941028e-12 5.6120326516e-12 1.1821673246e-11 
1.1821673246e-11 -9.3907072463e-12 -1.5726161214e-12 6.6120533676e-12 -9.3907072463e-12 -3.7667278149e-11 -1.6761321809e-11 3.8324999576e-12 -3.7667278149e-11 
6.7445075392e-12 1.3245934929e-11 2.4028087532e-11 2.4028087532e-11 -1.574059884e-11 -2.1784001625e-12 7.0914790023e-12 -1.574059884e-11 -2.0031592141e-12 
1.3288273986e-12 7.1506318154e-12 7.1506318154e-12 1.4552992429e-11 2.168548245e-11 3.6417525121e-11 3.6417525121e-11 -2.5526508236e-12 6.0817363519e-12 
2.1667744472e-11 2.1667744472e-11 -3.6301058631e-11 -1.0857802448e-11 3.443791079e-12 -3.6301058631e-11 -7.3492171051e-11 -3.777038323e-11 -2.6864745719e-11 
-7.3492171051e-11 -3.7302929116e-11 -1.4078263406e-11 -6.905507478e-12 -3.7302929116e-11 -2.7643480339e-11 -1.0650362505e-11 -6.0283571562e-12 -2.7643480339e-11 
-8.4059727588e-11 -3.9477791684e-11 -3.1994880728e-11 -8.4059727588e-11 -3.6990407288e-11 -2.4060954162e-11 -1.190813855e-11 -3.6990407288e-11 -6.8475168724e-11 
-2.4117099914e-11 -2.1249031362e-11 -6.8475168724e-11 -1.3259918705e-10 -4.8355490755e-11 -3.5596622194e-11 -1.3259918705e-10 -1.1047755381e-10 -3.8155953095e-11 
-1.4184693095e-11 -1.1047755381e-10 -1.0185272107e-10 -6.5328606864e-11 -4.9066372068e-11 -1.0185272107e-10 -3.1410547457e-11 -9.5332587793e-12 3.4014662363e-12 
-3.1410547457e-11 -4.0520684019e-11 -5.5758194222e-12 8.3517934407e-12 -4.0520684019e-11 -3.548683348e-11 -4.478522533e-12 4.7505030128e-12 -3.548683348e-11 
-1.066639176e-10 -4.5814717791e-11 -4.1506864605e-11 -1.066639176e-10 -9.3618093444e-11 -3.710737447e-11 -1.1044732086e-11 -9.3618093444e-11 -7.8265750789e-12 
1.7929817016e-12 1.2712253377e-11 1.2712253377e-11 -4.2278059655e-11 -2.3017676474e-11 -1.5050863871e-11 -4.2278059655e-11 -2.389858631e-11 -8.2799858017e-12 
-6.0720578879e-12 -2.389858631e-11 -7.1232582478e-11 -2.8447212964e-11 -2.3066304559e-11 -7.1232582478e-11 -5.422408937e-11 -1.3671080458e-11 1.9019369828e-11 
-5.422408937e-11 -1.5150036187e-10 -6.8118570277e-11 -5.0867867852e-11 -1.5150036187e-10 -6.9489570681e-12 8.3018805274e-12 1.8581976541e-11 1.8581976541e-11 
-7.911896354e-12 1.3525856217e-11 3.1017580137e-11 3.1017580137e-11 6.0835023931e-13 6.3483736973e-12 3.4430856063e-11 3.4430856063e-11 2.6316906244e-11 
3.9952353143e-11 1.0150744061e-10 1.0150744061e-10 -3.7363494933e-11 -6.6133940473e-12 2.495277898e-11 -3.7363494933e-11 -7.0048064733e-11 -4.2046511529e-11 
-1.9556523737e-11 -7.0048064733e-11 -5.3801735559e-11 -1.2210042998e-11 1.8350288556e-11 -5.3801735559e-11 9.7971639662e-13 1.3557810868e-11 1.0891697274e-10 
1.0891697274e-10 -5.6445282833e-11 -1.9692618581e-11 -9.4706985859e-12 -5.6445282833e-11 -1.4187607482e-10 -5.363683713e-11 -4.2896288047e-11 -1.4187607482e-10 
-4.3280789923e-11 -2.3691988495e-11 -1.5195321582e-11 -4.3280789923e-11 -5.803740793e-12 1.6032215855e-11 6.4046598938e-11 6.4046598938e-11 5.0368809327e-12 
2.6800463035e-11 5.7717856032e-11 5.7717856032e-11 -5.2763519959e-11 -1.306288382e-11 4.5891523779e-11 -5.2763519959e-11 -7.3761127002e-11 -2.6512877313e-11 
-8.3051956847e-12 -7.3761127002e-11 -2.9965496068e-11 1.950855737e-11 6.2874538697e-11 6.2874538697e-11 4.3372085739e-11 4.7382250884e-11 1.2589796338e-10 
1.2589796338e-10 4.9862605759e-11 6.9931839516e-11 1.6020485472e-10 1.6020485472e-10 4.5079867117e-11 6.9220747831e-11 1.5790688505e-10 1.5790688505e-10 
4.5350636934e-11 6.8918008194e-11 1.5287865487e-10 1.5287865487e-10 -1.6303038798e-12 3.9820201749e-11 1.2280690213e-10 1.2280690213e-10 -5.5955768132e-11 
1.7120914636e-11 9.7425153496e-11 9.7425153496e-11 -2.9464144679e-11 9.8145054382e-12 5.0209639241e-11 5.0209639241e-11 2.1834723113e-11 3.2506711229e-11 
9.2589665659e-11 9.2589665659e-11 5.9724934868e-11 8.3891544613e-11 2.1946092052e-10 2.1946092052e-10 1.3851128265e-11 6.1360861921e-11 1.6916720981e-10 
1.6916720981e-10 3.8679889449e-11 7.393105868e-11 1.9875755187e-10 1.9875755187e-10 2.8468552966e-12 2.8834780647e-11 1.3316046406e-10 1.3316046406e-10 
-1.9276485089e-11 2.9678543683e-11 7.9861341407e-11 7.9861341407e-11 2.3835622454e-11 4.9999925087e-11 1.0709615246e-10 1.0709615246e-10 -2.079073447e-12 
6.6691316238e-11 2.0324315721e-10 2.0324315721e-10 9.0505381433e-11 1.0437632977e-10 2.3042998879e-10 2.3042998879e-10 3.8526232372e-11 5.6300074106e-11 
1.4732659352e-10 1.4732659352e-10 -1.8605065894e-11 2.3154769242e-11 7.9035096652e-11 7.9035096652e-11 -2.1305084193e-10 -6.977195188e-11 -6.2343706187e-11 
-2.1305084193e-10 -1.7483893498e-10 -1.037051652e-10 -7.3098699815e-11 -1.7483893498e-10 -1.0319430325e-10 -5.3721493484e-12 9.5715042597e-11 -1.0319430325e-10 
1.0500750074e-11 5.8259161112e-11 1.3949358881e-10 1.3949358881e-10 1.0458415796e-10 1.1819826977e-10 2.4401757227e-10 2.4401757227e-10 -1.0859410553e-10 
-3.6102836153e-11 -1.1037858312e-11 -1.0859410553e-10 -1.1836438655e-10 -2.4550899965e-11 2.3306186514e-11 -1.1836438655e-10 -1.1469495796e-10 -3.7668650423e-11 
-1.7942891618e-11 -1.1469495796e-10 5.5432877322e-12 5.7173324001e-11 1.8732948827e-10 1.8732948827e-10 4.7707223632e-11 7.5726734394e-11 1.8014254197e-10 
1.8014254197e-10 -1.0914732187e-10 -2.979921458e-11 -8.5917635536e-12 -1.0914732187e-10 -6.1708313624e-11 -1.0156106453e-11 -3.9285699235e-12 -6.1708313624e-11 
5.1322814262e-11 6.6939815223e-11 1.5667627052e-10 1.5667627052e-10 -5.5238758594e-11 -2.7767541407e-11 -8.2689999989e-12 -5.5238758594e-11 -3.1122491081e-11 
-1.0524585554e-11 7.6544663465e-13 -3.1122491081e-11 -3.9242582208e-11 -1.0973187584e-11 7.3102697923e-12 -3.9242582208e-11 -2.7299024945e-11 1.7708119535e-11 
6.818110541e-11 6.818110541e-11 7.2688991163e-13 2.7989726526e-11 7.4701783562e-11 7.4701783562e-11 -4.6952188132e-11 2.4497008253e-11 1.3923097988e-10 
1.3923097988e-10 1.9252939942e-11 4.2231011936e-11 9.1113848122e-11 9.1113848122e-11 4.4896764508e-11 5.3879974937e-11 1.5076366056e-10 1.5076366056e-10 
4.1719229426e-11 5.5922738349e-11 1.4835673223e-10 1.4835673223e-10 2.7008467548e-11 4.0715019113e-11 9.5803113339e-11 9.5803113339e-11 2.2254217645e-11 
3.2692048691e-11 7.5591633664e-11 7.5591633664e-11 -4.5280259342e-12 2.9738926221e-11 1.0168419971e-10 1.0168419971e-10 2.1327282989e-11 3.7894694884e-11 
1.1715602213e-10 1.1715602213e-10 -5.3838746864e-11 1.697023241e-11 1.1205441445e-10 1.1205441445e-10 -4.5030221293e-11 5.0933375972e-12 4.6109603696e-11 
4.6109603696e-11 -1.3861123202e-12 1.2977827295e-11 4.8010585026e-11 4.8010585026e-11 1.1058159868e-11 1.944135468e-11 4.4585085452e-11 4.4585085452e-11 
-8.6425804585e-12 6.064132188e-12 2.473949827e-11 2.473949827e-11 -2.4640121474e-11 3.7178298786e-12 2.1124675695e-11 -2.4640121474e-11 -1.9432234002e-11 
-1.0611700429e-11 1.4561554431e-11 -1.9432234002e-11 -1.4110917734e-11 -6.4386593911e-13 2.0320352673e-11 2.0320352673e-11 -1.4044583649e-10 -6.2258540267e-11 
-5.6347523243e-11 -1.4044583649e-10 -1.5754053322e-11 -9.9943930013e-12 1.4010152323e-11 -1.5754053322e-11 -1.9937880108e-11 -6.3491625445e-12 1.7685712652e-11 
-1.9937880108e-11 -2.5753268755e-11 4.5900521538e-13 4.087791654e-11 4.087791654e-11 -9.3690633089e-12 2.7792422762e-12 2.3691265033e-11 2.3691265033e-11 
-8.8348026542e-11 -3.5044998537e-11 -2.616897492e-11 -8.8348026542e-11 -4.7654819804e-11 -2.0465622179e-11 1.6512441983e-11 -4.7654819804e-11 -3.3132619897e-11 
-8.8229495728e-12 -2.6702205304e-12 -3.3132619897e-11 -8.8287102368e-11 -3.3312784942e-11 -2.4622812689e-11 -8.8287102368e-11 -2.1185644275e-11 3.8209354051e-12 
3.831153887e-11 3.831153887e-11 -9.9821967403e-12 2.0685595241e-11 6.9036001499e-11 6.9036001499e-11 -3.2139657137e-11 -3.7591288251e-12 6.0470759623e-12 
-3.2139657137e-11 -4.9329410522e-12 5.0094400165e-12 2.1780971036e-11 2.1780971036e-11 -1.0195016856e-11 1.6040024623e-11 6.2965692233e-11 6.2965692233e-11 
-3.5239728471e-11 -7.6677730052e-12 -3.5396785235e-12 -3.5239728471e-11 -3.5841406218e-11 -1.0624951707e-11 2.9536579251e-12 -3.5841406218e-11 -3.9674881329e-11 
-6.4252896341e-12 1.3617450963e-11 -3.9674881329e-11 -7.7745566465e-11 -2.9412172616e-11 -2.085036092e-11 -7.7745566465e-11 -3.3974586531e-11 -8.555382674e-12 
-8.8143079458e-13 -3.3974586531e-11 -2.6865719223e-12 1.501418726e-11 5.5977084662e-11 5.5977084662e-11 -9.4074462104e-12 7.9585436913e-12 2.6443382519e-11 
2.6443382519e-11 -4.9070912032e-11 -2.1367355291e-11 -5.1523326774e-12 -4.9070912032e-11 -2.2811061656e-11 -3.1430521494e-12 5.412113805e-12 -2.2811061656e-11 
-1.2306278177e-11 -1.8948396173e-12 5.7009677947e-12 -1.2306278177e-11 -2.4065504498e-11 -8.9505592995e-12 -5.4369962026e-12 -2.4065504498e-11 5.9027431215e-12 
7.8873433072e-12 1.8287873571e-11 1.8287873571e-11 -2.5445149164e-11 -1.0998153973e-11 -7.5753168628e-12 -2.5445149164e-11 -5.134263335e-11 -2.6523763973e-11 
-2.3022302678e-11 -5.134263335e-11 -8.5282496916e-12 1.9690576102e-12 7.2675370814e-12 -8.5282496916e-12 -5.4840389879e-11 -2.2624074592e-11 -2.0084835529e-11 
-5.4840389879e-11 -5.0595017641e-11 -2.7228639018e-11 -1.9523243341e-11 -5.0595017641e-11 -3.0269569379e-11 -1.1664160215e-11 -5.5253804057e-12 -3.0269569379e-11 
-2.8996882064e-11 -1.0642649079e-11 -2.3552388577e-12 -2.8996882064e-11 -1.0122805544e-11 -4.7180901043e-12 -3.9808543519e-12 -1.0122805544e-11 1.1440307564e-11 
1.734958625e-11 3.6883906186e-11 3.6883906186e-11 5.1226506178e-12 1.0405517449e-11 2.4442791933e-11 2.4442791933e-11 2.2532438497e-12 2.9763228544e-12 
9.5445032959e-12 9.5445032959e-12 2.1524699806e-12 5.6150064591e-12 1.085188356e-11 1.085188356e-11 -1.5691265565e-12 3.6122384646e-12 4.8379580919e-12 
4.8379580919e-12 -5.1926661942e-13 2.6214898243e-12 7.0050767951e-12 7.0050767951e-12 -2.9333545772e-13 1.1493792211e-12 4.2035652366e-12 4.2035652366e-12 
-5.0053672261e-12 1.6317634419e-12 1.0355863784e-11 1.0355863784e-11 5.449060539e-12 1.1962218316e-11 1.2845181145e-11 1.2845181145e-11 -6.5457823277e-12 
5.2372085094e-11 1.7720129723e-10 1.7720129723e-10 -6.4632283339e-11 -3.6344129519e-11 -6.5907871412e-12 -6.4632283339e-11 -1.5700856984e-12 2.0426182206e-13 
1.0622467763e-12 -1.5700856984e-12 4.4785239536e-12 5.9913232722e-12 1.5738922774e-11 1.5738922774e-11 -5.3359739875e-11 2.8722502589e-11 1.5021673729e-10 
1.5021673729e-10 -8.6871091446e-12 -6.4761512434e-12 -5.21529612e-13 -8.6871091446e-12 2.5667865277e-11 5.1196125812e-11 1.1793100891e-10 1.1793100891e-10 
4.7038567048e-12 7.4914963141e-12 1.1584806981e-11 1.1584806981e-11 -8.358142015e-12 2.1350612496e-11 6.6747029519e-11 6.6747029519e-11 -5.4307583288e-11 
5.1949616838e-12 1.000122816e-10 1.000122816e-10 -7.7435832166e-12 -2.5287035094e-12 -1.466013274e-12 -7.7435832166e-12 7.9235526706e-13 5.0767427596e-12 
1.1030001973e-11 1.1030001973e-11 -8.6177590834e-11 -2.9594974321e-11 3.6336565155e-11 -8.6177590834e-11 -7.0021098374e-12 -5.2990312959e-12 -7.5264886668e-13 
-7.0021098374e-12 -1.3364614826e-11 3.4209653768e-11 1.0837736106e-10 1.0837736106e-10 -8.0629832791e-12 -5.449340464e-12 -1.7676962569e-12 -8.0629832791e-12 
-7.1870179797e-11 -1.4039698e-11 -3.0380222031e-12 -7.1870179797e-11 5.8473711294e-12 8.4764171273e-12 1.3099341743e-11 1.3099341743e-11 -2.5889266513e-10 
-9.6423401767e-11 -5.9571333101e-11 -2.5889266513e-10 7.9798128616e-13 2.0491731708e-12 5.349425543e-12 5.349425543e-12 -8.1083676342e-11 -4.3232360935e-11 
-5.2099627225e-12 -8.1083676342e-11 -3.178388035e-13 7.4538757907e-13 2.8106062244e-12 2.8106062244e-12 -1.3256027712e-11 3.8007607639e-12 1.7044678948e-11 
1.7044678948e-11 -4.4229681855e-12 -2.2088845382e-12 1.3698547236e-12 -4.4229681855e-12 3.6356904472e-11 5.6430530342e-11 1.5918126519e-10 1.5918126519e-10 
-9.9325330177e-11 -2.2988040323e-11 6.62123705e-11 -9.9325330177e-11 -4.2688852665e-14 2.8902430709e-12 1.4274158982e-11 1.4274158982e-11 -1.9862656766e-11 
-8.2457337839e-12 2.0007805497e-12 -1.9862656766e-11 -3.1735431439e-11 -2.305169716e-11 -1.2849671401e-11 -3.1735431439e-11 -8.4487967584e-11 4.6901365997e-13 
4.4267629239e-12 -8.4487967584e-11 -3.7728864972e-12 1.6158414782e-12 6.1311400191e-12 6.1311400191e-12 8.3227919021e-11 8.4268731641e-11 2.3067414934e-10 
2.3067414934e-10 -5.5218543835e-12 9.6463105052e-13 2.128614333e-12 -5.5218543835e-12 -2.6798103964e-10 -9.2507784209e-11 -6.469187615e-11 -2.6798103964e-10 
-2.4364195128e-11 -9.388272969e-12 -6.4545419027e-12 -2.4364195128e-11 -9.9486365552e-11 2.0574819627e-11 1.3046434593e-10 1.3046434593e-10 -4.4470152907e-11 
6.6207129994e-11 2.4772882291e-10 2.4772882291e-10 -1.5086214186e-11 9.9648768173e-12 2.6537267368e-11 2.6537267368e-11 -4.717850889e-12 -3.4422638369e-12 
1.9763444726e-11 1.9763444726e-11 4.7577135566e-11 5.6445997143e-11 1.1112956729e-10 1.1112956729e-10 4.1914689693e-11 4.6042550095e-11 9.4630260212e-11 
9.4630260212e-11 2.1385580561e-11 3.4162031602e-11 1.0253288784e-10 1.0253288784e-10 1.7517975268e-13 1.0370062244e-12 2.7619120229e-12 2.7619120229e-12 
-9.7105290462e-12 9.8632776819e-12 1.5228491364e-11 1.5228491364e-11 -3.0959006937e-11 -1.7404009787e-11 1.2203666724e-11 -3.0959006937e-11 -1.7208448982e-10 
-5.1559632184e-11 3.8549220035e-12 -1.7208448982e-10 8.4186584235e-12 1.7579873896e-11 3.997876768e-11 3.997876768e-11 -4.7470528704e-11 -9.8064591739e-13 
4.3728874621e-11 -4.7470528704e-11 -2.3772056195e-11 6.3948131515e-12 7.5222393044e-11 7.5222393044e-11 -1.4256940519e-11 1.7229091924e-12 2.4014751326e-11 
2.4014751326e-11 -2.8264109801e-10 -9.1348212245e-11 -3.6114989747e-11 -2.8264109801e-10 -5.8181502775e-12 2.2031353341e-12 9.3553749434e-12 9.3553749434e-12 
-1.4725290903e-10 -2.9132274779e-11 -1.0507516193e-11 -1.4725290903e-10 1.0900017163e-11 1.611514321e-11 3.7563839627e-11 3.7563839627e-11 -4.8410702703e-12 
2.5593864515e-12 1.4314352819e-11 1.4314352819e-11 -1.8972368793e-11 -8.8796878485e-13 2.9304936578e-11 2.9304936578e-11 6.4531396399e-12 2.2660747463e-11 
4.3634112897e-11 4.3634112897e-11 4.5628452239e-11 5.0198317179e-11 1.0905993058e-10 1.0905993058e-10 -1.7067351675e-12 6.9265437437e-12 2.2169593424e-11 
2.2169593424e-11 -3.1524432487e-10 -1.2588143622e-10 -9.1955238912e-11 -3.1524432487e-10 3.6113701447e-12 5.9209947414e-12 1.4643325114e-11 1.4643325114e-11 
-2.4439747248e-10 -8.1971533227e-11 -2.3350894297e-11 -2.4439747248e-10 -1.5775024621e-11 -1.1595444068e-11 -7.8444413113e-12 -1.5775024621e-11 -5.6385560092e-12 
8.0613948679e-12 2.8817971141e-11 2.8817971141e-11 -1.3430308856e-10 -5.3557057866e-11 -2.1883453578e-11 -1.3430308856e-10 -1.9026414518e-10 -7.2523788052e-11 
-4.9558766763e-11 -1.9026414518e-10 -5.1362697344e-11 -2.7292400352e-11 -2.2132302304e-11 -5.1362697344e-11 9.8228844366e-12 2.1776578335e-11 3.5727137228e-11 
3.5727137228e-11 -5.9392878837e-12 -2.5496516076e-13 2.2201540444e-12 -5.9392878837e-12 3.6118793087e-11 4.6770340336e-11 8.5494666577e-11 8.5494666577e-11 
-1.8198026034e-11 -7.6667820864e-12 6.8406781204e-12 -1.8198026034e-11 3.1488930708e-13 3.8589160371e-12 1.0128024656e-11 1.0128024656e-11 -1.3781040918e-10 
-6.7164961339e-11 -4.6790929482e-11 -1.3781040918e-10 7.9867689778e-12 1.190555405e-11 2.0058366972e-11 2.0058366972e-11 -1.5394097621e-11 4.9582901802e-13 
1.6962585603e-11 1.6962585603e-11 -2.1821050796e-11 4.2919963145e-12 2.7091724481e-11 2.7091724481e-11 1.4644658186e-11 1.9716562859e-11 5.1399178955e-11 
5.1399178955e-11 -5.8064877514e-11 1.0595328124e-12 3.7880004701e-11 -5.8064877514e-11 -8.5200802615e-11 1.6246079644e-11 7.7910182972e-11 -8.5200802615e-11 
-7.2644618723e-11 -5.8284415094e-12 2.0550660232e-11 -7.2644618723e-11 1.6285165173e-10 1.7124409052e-10 4.2047425775e-10 4.2047425775e-10 -1.3643263626e-10 
-5.3582209663e-11 4.9935945927e-11 -1.3643263626e-10 -1.1135139201e-10 -8.4458585121e-12 1.1926300525e-11 -1.1135139201e-10 -1.0729461514e-10 -2.956692691e-11 
3.526444205e-11 -1.0729461514e-10 -1.5744463649e-10 -4.9672953176e-11 -2.1171510329e-11 -1.5744463649e-10 -8.48379975e-11 -2.244497715e-12 7.7266885215e-11 
-8.48379975e-11 8.7468777398e-11 1.1382269075e-10 2.4739453185e-10 2.4739453185e-10 -6.4356874165e-11 3.3368460331e-11 1.0222761383e-10 1.0222761383e-10 
2.7732953503e-11 6.2587701321e-11 1.8719484518e-10 1.8719484518e-10 4.1394007593e-11 1.0044936123e-10 2.9996263117e-10 2.9996263117e-10 -1.73653438e-10 
-7.6297909871e-11 -5.4637652131e-11 -1.73653438e-10 -4.7861707086e-11 -1.5355977662e-11 1.5859704747e-11 -4.7861707086e-11 8.5509457127e-11 1.2648613174e-10 
2.4021241114e-10 2.4021241114e-10 2.2446194748e-11 3.8887726376e-11 7.9058578875e-11 7.9058578875e-11 4.7860084017e-12 5.7716642535e-11 1.8359684906e-10 
1.8359684906e-10 -7.8780701367e-11 -2.6578847509e-11 5.6759488754e-12 -7.8780701367e-11 8.7357047841e-13 2.7033357015e-11 1.0349837251e-10 1.0349837251e-10 
3.4645492126e-11 7.1661330982e-11 1.2727387689e-10 1.2727387689e-10 4.6505570256e-11 1.555884098e-10 3.0283601994e-10 3.0283601994e-10 -3.5721580441e-11 
3.3182016641e-11 1.363156638e-10 1.363156638e-10 -2.9788827929e-11 5.2364630068e-12 1.3450154923e-11 -2.9788827929e-11 2.974842166e-11 6.1465348477e-11 
2.0264812986e-10 2.0264812986e-10 -4.6593961385e-11 4.895287002e-12 7.5178864383e-11 7.5178864383e-11 -1.1952251209e-10 -3.7175926913e-11 -3.7923609961e-12 
-1.1952251209e-10 -1.2384757714e-10 -4.9956703912e-11 -2.7264918944e-11 -1.2384757714e-10 -2.2382586137e-10 -9.0676088629e-11 -7.6130750001e-11 -2.2382586137e-10 
-2.6708190408e-10 -9.7560870713e-11 -6.6435925212e-11 -2.6708190408e-10 1.181355773e-11 2.7535409813e-11 5.5164532457e-11 5.5164532457e-11 -2.1123463163e-11 
1.706042836e-12 1.7761556327e-11 -2.1123463163e-11 1.1748352857e-11 3.0960571931e-11 7.9936075212e-11 7.9936075212e-11 -6.682392581e-12 3.2831231967e-11 
9.5281760614e-11 9.5281760614e-11 5.2216931375e-12 2.7101399339e-11 8.4904107523e-11 8.4904107523e-11 7.8266906579e-11 9.9921122199e-11 2.0300217122e-10 
2.0300217122e-10 -5.8767355222e-11 -1.5099907342e-11 5.0933625641e-12 -5.8767355222e-11 -8.9142393964e-11 1.2508519807e-11 8.7936254157e-11 -8.9142393964e-11 
-8.9208743984e-11 -2.9403122866e-11 -4.4378331501e-12 -8.9208743984e-11 -1.0562166708e-10 -1.7967387045e-11 -3.6923458787e-12 -1.0562166708e-10 3.3749221564e-11 
3.7030886898e-11 1.1597989154e-10 1.1597989154e-10 -3.9105449947e-11 4.6716956122e-12 1.5446374335e-11 -3.9105449947e-11 -2.3293306622e-10 -9.6133328407e-11 
-8.8411705374e-11 -2.3293306622e-10 -2.1033658408e-10 -9.5397567318e-11 -9.1233848604e-11 -2.1033658408e-10 -6.9545676361e-11 -1.9328502187e-11 2.2087278548e-11 
-6.9545676361e-11 -2.9596862554e-11 -1.0057268033e-11 -2.0658894131e-12 -2.9596862554e-11 -1.4733936205e-11 3.1755800924e-11 8.6007435281e-11 8.6007435281e-11 
-1.1121003796e-12 2.676229763e-11 1.0185200275e-10 1.0185200275e-10 4.8602736413e-11 5.9405970461e-11 1.1486359313e-10 1.1486359313e-10 -4.4447528739e-11 
-7.4295095885e-12 1.0330388327e-11 -4.4447528739e-11 -8.3198004147e-11 -4.5750335415e-11 -3.1620260438e-11 -8.3198004147e-11 -4.2387194472e-11 1.8311870191e-12 
6.4943287453e-11 6.4943287453e-11 -1.4958400818e-11 -1.8343041288e-12 1.4870055947e-11 -1.4958400818e-11 2.5949818024e-11 2.9549083657e-11 7.6152198319e-11 
7.6152198319e-11 -1.1939307848e-10 -4.187367262e-11 -2.8529548897e-11 -1.1939307848e-10 -5.391141224e-11 -2.5397344118e-11 3.0282563582e-12 -5.391141224e-11 
2.7057740303e-11 3.4514523519e-11 7.0873836178e-11 7.0873836178e-11 1.525569134e-11 2.5347523267e-11 5.1352785393e-11 5.1352785393e-11 4.4512465953e-12 
2.0138681599e-11 2.2565671806e-11 2.2565671806e-11 -6.0691437141e-12 8.3424058434e-12 3.0426267871e-11 3.0426267871e-11 8.9119341264e-13 1.5705994443e-11 
3.4663912144e-11 3.4663912144e-11 4.5630117712e-11 5.2768740238e-11 1.0144134205e-10 1.0144134205e-10 1.8176138698e-11 2.5290417323e-11 8.4816243979e-11 
8.4816243979e-11 -2.2767470541e-11 -5.4271975831e-12 2.2403354124e-11 -2.2767470541e-11 -1.083966489e-11 2.6303283702e-12 2.314530652e-11 2.314530652e-11 
4.0215497253e-11 4.9557393844e-11 1.033021089e-10 1.033021089e-10 2.4852580801e-11 4.1767426693e-11 1.0426599251e-10 1.0426599251e-10 2.2337499548e-11 
2.8171254189e-11 7.7103846262e-11 7.7103846262e-11 -5.3380107007e-11 -2.194798239e-11 -7.6090106033e-12 -5.3380107007e-11 -5.4048765978e-11 -3.1227953581e-11 
-2.5004380442e-11 -5.4048765978e-11 -4.0882159294e-11 -1.4504934314e-11 1.5839936071e-12 -4.0882159294e-11 -9.8610645621e-12 1.0574158219e-11 1.5853506344e-11 
1.5853506344e-11 -6.2805259935e-11 -3.2683616913e-11 -2.2740423152e-11 -6.2805259935e-11 -2.5867441439e-11 -7.7462550748e-12 -4.1310134867e-12 -2.5867441439e-11 
-2.4005167937e-11 -1.154625055e-11 -4.1470715123e-12 -2.4005167937e-11 4.2017187442e-12 1.0451118019e-11 2.8333633237e-11 2.8333633237e-11 -1.7448074453e-12 
8.3282289507e-12 1.4501358495e-11 1.4501358495e-11 1.7247663569e-11 1.840731961e-11 4.3477316821e-11 4.3477316821e-11 -1.9983677877e-11 -3.0254361163e-12 
1.2411523994e-11 -1.9983677877e-11 2.9845511418e-12 8.5636972748e-12 2.5488091583e-11 2.5488091583e-11 -3.3653054431e-12 5.2177218368e-12 1.2476403606e-11 
1.2476403606e-11 1.056952863e-11 1.3983310282e-11 2.7993561088e-11 2.7993561088e-11 -1.3956645232e-12 4.4455447497e-12 1.5631759774e-11 1.5631759774e-11 
-2.7418790945e-11 -1.206465861e-11 -1.1011550444e-11 -2.7418790945e-11 -2.7364091159e-11 -1.0897168907e-11 -9.6486399342e-12 -2.7364091159e-11 -1.7251363627e-12 
9.1805214934e-13 4.7302312133e-12 4.7302312133e-12 -5.0443197361e-12 -2.0141117765e-12 -8.3455848737e-13 -5.0443197361e-12 -2.207574308e-11 -8.8982020587e-12 
-8.1046248612e-12 -2.207574308e-11 1.9404204679e-12 3.1278995051e-12 8.475860027e-12 8.475860027e-12 1.8239765457e-12 2.5094671795e-12 3.8024062749e-12 
3.8024062749e-12 -1.3246555416e-12 -2.3506197232e-13 1.3389346139e-12 1.3389346139e-12 1.6988030998e-12 2.417845086e-12 3.5003618142e-12 3.5003618142e-12 
-3.3522529239e-12 -6.0018873413e-13 9.1667365802e-13 -3.3522529239e-12 5.0062981332e-13 1.5690747898e-12 2.5667353969e-12 2.5667353969e-12 4.3637853826e-12 
4.7597969657e-12 1.1172627652e-11 1.1172627652e-11 -4.1973579856e-12 5.2293837863e-13 2.9805316069e-12 -4.1973579856e-12 5.7474420922e-12 1.0138935987e-11 
1.4912831921e-11 1.4912831921e-11 3.7098146998e-12 6.0715889369e-12 1.6759906363e-11 1.6759906363e-11 -6.0403419298e-11 -2.3778680301e-12 4.1495217328e-11 
-6.0403419298e-11 -6.4250952034e-11 -1.2318523192e-11 2.6782875226e-11 -6.4250952034e-11 -5.1670154362e-11 -1.0549913398e-11 -1.85793224e-12 -5.1670154362e-11 
7.7139973649e-13 4.6554724006e-12 8.8136278629e-12 8.8136278629e-12 6.0058465887e-12 9.3413993739e-12 1.9766494037e-11 1.9766494037e-11 1.0811115062e-11 
1.1379445155e-11 2.7381739783e-11 2.7381739783e-11 -2.005986928e-12 3.130102124e-11 5.5532965688e-11 5.5532965688e-11 -1.4714991938e-11 3.4986858697e-12 
1.2170402068e-11 -1.4714991938e-11 -9.291886913e-12 -2.7326884772e-12 1.8764401902e-12 -9.291886913e-12 8.2464213064e-12 4.0940233617e-11 8.6295245077e-11 
8.6295245077e-11 6.9062040715e-11 9.2696839892e-11 1.9615821939e-10 1.9615821939e-10 1.0225301352e-11 1.7704576662e-11 2.5297221985e-11 2.5297221985e-11 
-1.3109382348e-11 -9.6523413501e-13 1.4302258583e-11 1.4302258583e-11 -7.2976957498e-12 3.0289557619e-11 5.8568978131e-11 5.8568978131e-11 -8.9955007981e-11 
-1.7617298243e-11 5.6664806223e-11 -8.9955007981e-11 -2.9027156922e-12 3.7960739742e-12 7.2756217179e-12 7.2756217179e-12 3.2310202569e-12 4.9238264324e-12 
9.1766133107e-12 9.1766133107e-12 -8.9573215501e-11 -4.4024794583e-11 -3.3755489917e-11 -8.9573215501e-11 1.4688733931e-11 6.8771506498e-11 1.4179395957e-10 
1.4179395957e-10 1.2216603846e-10 1.6564538424e-10 3.531915773e-10 3.531915773e-10 -1.409303224e-10 -3.5769555518e-11 9.0322779157e-12 -1.409303224e-10 
-1.1082367606e-10 -3.2087278465e-11 1.6698974528e-11 -1.1082367606e-10 -9.4619521706e-11 -5.8356801071e-11 -2.7316277223e-11 -9.4619521706e-11 -6.8714485248e-11 
-4.4080199276e-11 2.0355584524e-11 -6.8714485248e-11 -1.8076613476e-10 -7.4904539848e-11 -3.3405725396e-11 -1.8076613476e-10 -1.7166579273e-10 -6.0419568776e-11 
-4.3258738491e-11 -1.7166579273e-10 -6.8368644034e-11 -1.5431841953e-11 9.4421359863e-12 -6.8368644034e-11 -7.106161891e-11 -2.6719654129e-11 3.4181973038e-11 
-7.106161891e-11 9.3425982048e-12 4.0351338745e-11 9.420136305e-11 9.420136305e-11 2.3504285349e-11 8.6464631457e-11 2.1713448319e-10 2.1713448319e-10 
-6.1240555213e-11 -1.930571544e-11 1.5330870653e-11 -6.1240555213e-11 -3.752377174e-11 2.9010368115e-11 1.0649280363e-10 1.0649280363e-10 -8.6119819248e-11 
-3.8384406716e-11 2.6221235964e-11 -8.6119819248e-11 3.3250963876e-11 8.5726055109e-11 2.0729238102e-10 2.0729238102e-10 -1.6203220871e-11 7.8566507871e-12 
1.5203827084e-11 -1.6203220871e-11 -1.0239394629e-10 -6.8413715652e-11 -4.5187038061e-11 -1.0239394629e-10 -2.826024217e-11 -1.2992001314e-11 1.4394643484e-11 
-2.826024217e-11 -1.5967368949e-10 -6.0959313515e-11 -4.5907096998e-11 -1.5967368949e-10 -8.1934764929e-11 -1.620603605e-11 3.3782500979e-11 -8.1934764929e-11 
-3.2588929074e-11 3.7785887903e-12 3.6167606284e-11 3.6167606284e-11 7.8222702528e-12 2.8400859419e-11 8.3858270328e-11 8.3858270328e-11 1.886529825e-11 
5.3349457276e-11 1.7517954447e-10 1.7517954447e-10 -1.1822156638e-10 -4.3597749324e-11 -3.2874384294e-11 -1.1822156638e-10 -5.8995283011e-11 -2.6408032777e-11 
4.3686157872e-12 -5.8995283011e-11 6.0934738581e-11 8.3461840488e-11 1.8475642093e-10 1.8475642093e-10 1.6110935772e-11 2.7006941572e-11 6.7459922656e-11 
6.7459922656e-11 3.770762252e-12 2.8186315715e-11 1.2559902203e-10 1.2559902203e-10 -7.3379485417e-11 -1.7864818675e-11 1.0265204092e-11 -7.3379485417e-11 
1.6520139835e-11 2.8998677208e-11 7.1697482957e-11 7.1697482957e-11 -1.8500211584e-10 -8.1568763187e-11 -3.1693020973e-11 -1.8500211584e-10 2.3322123e-11 
2.6296278424e-11 7.7731998575e-11 7.7731998575e-11 4.4998629233e-11 6.9408599439e-11 1.5431187133e-10 1.5431187133e-10 7.6763708613e-11 1.0446605069e-10 
1.8184734069e-10 1.8184734069e-10 3.9683264727e-11 4.8210402683e-11 1.0449803259e-10 1.0449803259e-10 -7.9336823716e-11 -1.9985158459e-11 1.3941022175e-11 
-7.9336823716e-11 -4.6424532072e-11 -8.5001033597e-12 5.9237454315e-12 -4.6424532072e-11 -4.5091841243e-11 -2.9631561828e-11 -1.3313796929e-11 -4.5091841243e-11 
-2.8089440961e-11 -4.5041200286e-12 4.4367879894e-12 -2.8089440961e-11 -3.3916700468e-11 -6.2381349284e-12 2.0225905396e-11 -3.3916700468e-11 3.9106758628e-12 
1.423038025e-11 4.6141343888e-11 4.6141343888e-11 3.3444838096e-11 3.9188574744e-11 7.991378716e-11 7.991378716e-11 9.5211719893e-12 2.2140090502e-11 
8.5367437508e-11 8.5367437508e-11 1.0764424227e-11 2.3961660226e-11 7.9990215547e-11 7.9990215547e-11 1.5085528994e-11 2.7425458393e-11 4.2642212613e-11 
4.2642212613e-11 -1.8429526501e-11 9.8896659254e-12 5.6808560576e-11 5.6808560576e-11 -5.2295388713e-11 -2.1566280758e-11 -1.8122030529e-11 -5.2295388713e-11 
-4.3480440504e-11 -6.844350742e-12 8.9624412457e-12 -4.3480440504e-11 -6.8472813192e-11 -1.8771506616e-11 7.2501780804e-13 -6.8472813192e-11 -1.4009067361e-10 
-6.229483427e-11 -5.8159192123e-11 -1.4009067361e-10 -6.2270016476e-11 -1.8024740111e-11 -5.563843413e-12 -6.2270016476e-11 -1.0644806216e-11 6.3196628559e-12 
3.331667336e-11 3.331667336e-11 -3.5167584995e-11 -8.7068922919e-12 1.9809202869e-12 -3.5167584995e-11 -1.1798636938e-11 -8.661614511e-12 -3.183018551e-12 
-1.1798636938e-11 -3.3287848078e-11 5.8669432084e-12 4.146132487e-11 4.146132487e-11 2.3124484425e-11 3.761126327e-11 7.4409352305e-11 7.4409352305e-11 
-1.2342363176e-12 2.3133261285e-11 7.4562475033e-11 7.4562475033e-11 2.9012953759e-11 3.7677100227e-11 5.9669246014e-11 5.9669246014e-11 -2.8806433375e-11 
-1.2219508903e-11 -7.1581772118e-13 -2.8806433375e-11 -6.3670657928e-11 -3.323480216e-11 -2.0025139913e-11 -6.3670657928e-11 2.0529936208e-11 2.2858169083e-11 
5.8992994709e-11 5.8992994709e-11 -4.8774237915e-11 -2.2763524867e-11 -1.9838837218e-11 -4.8774237915e-11 -3.5808613304e-12 1.6941811476e-11 2.8139839854e-11 
2.8139839854e-11 8.6787117364e-12 1.3386337624e-11 3.584215064e-11 3.584215064e-11 -2.0847530756e-11 -1.4239730327e-11 -1.8731989173e-12 -2.0847530756e-11 
-3.0745320602e-11 -1.680072248e-11 -1.0454956919e-11 -3.0745320602e-11 3.4196346406e-12 1.2076550739e-11 1.9035704621e-11 1.9035704621e-11 -1.6231694996e-11 
-5.0600305738e-12 4.967255702e-13 -1.6231694996e-11 9.9835922859e-12 1.8773596656e-11 4.3570011058e-11 4.3570011058e-11 9.1311842641e-12 2.335628607e-11 
4.4442429665e-11 4.4442429665e-11 -1.9942374195e-11 -8.9296015862e-12 8.9877057814e-12 -1.9942374195e-11 2.4562993125e-12 1.5458786614e-11 3.7487554073e-11 
3.7487554073e-11 9.795751546e-13 8.9145676564e-12 2.5392197189e-11 2.5392197189e-11 -2.6762707735e-11 -1.4365792733e-11 -1.1423999531e-11 -2.6762707735e-11 
-9.9016032696e-12 -1.2427963302e-12 1.18729836e-11 1.18729836e-11 -1.229789914e-11 -3.4224903837e-12 7.7514995235e-12 -1.229789914e-11 3.5410637309e-12 
8.6280488022e-12 1.9858227467e-11 1.9858227467e-11 -1.6410649956e-12 4.2301743324e-12 1.0625400663e-11 1.0625400663e-11 2.3534541153e-12 5.3882090814e-12 
1.5178386803e-11 1.5178386803e-11 6.7053791821e-12 9.8334492039e-12 1.6475081614e-11 1.6475081614e-11 -1.0987782834e-12 6.1860240601e-13 2.4802058774e-12 
2.4802058774e-12 -3.5480197114e-12 4.0580477698e-12 7.8383219416e-12 7.8383219416e-12 6.3583995689e-12 8.6311482296e-12 1.5595752201e-11 1.5595752201e-11 
-1.4629834052e-12 4.451386472e-12 6.1546169332e-12 6.1546169332e-12 -2.46429588e-12 2.2024912233e-12 4.3600846567e-12 4.3600846567e-12 1.0765070353e-12 
3.2665415788e-12 6.2821213859e-12 6.2821213859e-12 -5.1152741959e-12 -1.3511533358e-12 1.1091955317e-12 -5.1152741959e-12 7.0255378977e-12 1.0581575077e-11 
1.7911357025e-11 1.7911357025e-11 -3.5485245802e-12 2.4012010675e-12 5.4732935127e-12 5.4732935127e-12 -1.4948421355e-12 2.6277458455e-13 4.1919345509e-12 
4.1919345509e-12 2.3935388554e-12 4.6040842915e-12 1.0474896853e-11 1.0474896853e-11 -2.6110937026e-11 -1.3106836621e-11 -5.7115663529e-12 -2.6110937026e-11 
1.0451456254e-12 2.0713640595e-12 6.7257603151e-12 6.7257603151e-12 -3.8951490764e-12 9.1975678542e-13 7.225468291e-12 7.225468291e-12 -9.387158391e-12 
-2.8715209424e-12 2.5442293335e-12 -9.387158391e-12 -1.5595264183e-11 -8.0011639617e-12 1.9991481447e-12 -1.5595264183e-11 -3.9175536994e-12 1.700952352e-12 
3.8594883474e-12 -3.9175536994e-12 1.0057012722e-11 1.5501661472e-11 2.3241225807e-11 2.3241225807e-11 4.8178869824e-12 6.7858492767e-12 1.0177893741e-11 
1.0177893741e-11 -3.9299599329e-12 -7.1279987264e-13 1.8672038055e-12 -3.9299599329e-12 3.9216992024e-12 4.6193383029e-12 8.5351524947e-12 8.5351524947e-12 
-3.670890814e-12 -2.9520968404e-12 -2.8338234566e-13 -3.670890814e-12 -6.6905400556e-12 -5.5282187808e-13 -4.2594806635e-13 -6.6905400556e-12 -2.4098495792e-12 
2.4984935031e-12 7.4574050761e-12 7.4574050761e-12 2.0680201609e-12 4.971138557e-12 1.1327201282e-11 1.1327201282e-11 3.2247742742e-12 4.3303250114e-12 
1.0543840714e-11 1.0543840714e-11 -1.5641816636e-11 -1.0373578389e-11 -4.873514975e-12 -1.5641816636e-11 -1.1364806485e-11 -4.280203154e-12 -1.1276003611e-12 
-1.1364806485e-11 1.1329201554e-11 1.3802864344e-11 2.7368834103e-11 2.7368834103e-11 -4.8898010372e-12 1.2373108895e-12 6.0810991477e-12 6.0810991477e-12 
-2.225127604e-11 -5.4604557821e-12 4.1285918216e-12 -2.225127604e-11 -1.1996391359e-11 -3.7459003321e-12 2.598916907e-13 -1.1996391359e-11 6.328650417e-12 
9.1378194075e-12 2.6578920176e-11 2.6578920176e-11 5.748472454e-12 1.3021296263e-11 1.7196911283e-11 1.7196911283e-11 -4.829940102e-11 -1.5570012836e-11 
-1.4318386144e-11 -4.829940102e-11 -3.0256040907e-11 -9.5078767759e-12 -3.7593423173e-12 -3.0256040907e-11 -1.4139511364e-11 2.3822233382e-12 2.6784338026e-11 
2.6784338026e-11 -2.5141185834e-11 -9.0106270798e-12 -6.6719670861e-12 -2.5141185834e-11 -3.8650152792e-11 -1.4318694852e-11 -1.0402752356e-11 -3.8650152792e-11 
-3.6479671647e-11 -1.5125226001e-11 -7.9720023515e-12 -3.6479671647e-11 1.5503935839e-11 1.821843e-11 3.4662334161e-11 3.4662334161e-11 -1.9583653329e-11 
-1.8818740517e-12 1.3193057381e-11 -1.9583653329e-11 -5.2127547808e-11 -2.0240920422e-11 -1.422673177e-11 -5.2127547808e-11 -1.2896481781e-11 6.5594640004e-13 
6.0411753813e-12 -1.2896481781e-11 3.1429910574e-11 3.7434844898e-11 9.2865644528e-11 9.2865644528e-11 -9.567992096e-12 2.6481937062e-12 1.426345839e-11 
1.426345839e-11 -3.7344664604e-11 -1.3817989196e-11 -2.4944461998e-12 -3.7344664604e-11 1.2635145656e-13 1.5647650611e-11 4.6907297932e-11 4.6907297932e-11 
-2.7404549728e-11 -4.705117101e-12 1.1845916829e-11 -2.7404549728e-11 -7.8004642775e-11 -3.4310012868e-11 -3.0163944356e-11 -7.8004642775e-11 -1.0076737246e-10 
-3.9210967413e-11 -3.1238960127e-11 -1.0076737246e-10 -7.7257043573e-11 -3.9725668766e-11 -2.9037687661e-11 -7.7257043573e-11 -2.2637260749e-11 -1.7644451985e-12 
1.3856417047e-11 -2.2637260749e-11 -5.3375416272e-11 -1.519046633e-11 -5.2467173987e-12 -5.3375416272e-11 -3.542352792e-11 -6.5197161543e-12 1.3634714074e-11 
-3.542352792e-11 -1.0161267874e-10 -3.6581672075e-11 -1.9896849182e-11 -1.0161267874e-10 -1.1595280642e-10 -3.2908505507e-11 -2.3797888074e-11 -1.1595280642e-10 
-8.2740916436e-12 1.6988517018e-12 1.1952882942e-11 1.1952882942e-11 1.7619498168e-11 1.9956085249e-11 4.8336616583e-11 4.8336616583e-11 1.1658516784e-11 
2.6950647072e-11 5.6916236144e-11 5.6916236144e-11 -2.8067770387e-11 3.0045754104e-12 2.5063194977e-11 -2.8067770387e-11 1.6492253428e-11 3.8298207172e-11 
1.023754394e-10 1.023754394e-10 1.8171469837e-11 1.9685802085e-11 4.8662028078e-11 4.8662028078e-11 1.3440139944e-11 2.0998041746e-11 5.877431831e-11 
5.877431831e-11 2.0772424183e-11 3.1616500998e-11 7.1166774819e-11 7.1166774819e-11 -1.8921200458e-12 1.4165714971e-11 5.3450815075e-11 5.3450815075e-11 
5.6389005161e-11 6.7834868653e-11 1.2445352619e-10 1.2445352619e-10 1.7150695504e-11 4.305690651e-11 1.1621369799e-10 1.1621369799e-10 -1.5444431995e-10 
-5.558527175e-11 -4.4271708303e-11 -1.5444431995e-10 3.4248773936e-11 4.3123626694e-11 1.1615739937e-10 1.1615739937e-10 3.7989826406e-11 5.3874471784e-11 
1.2072050181e-10 1.2072050181e-10 -1.8868736839e-11 4.987363865e-12 5.9114282973e-11 5.9114282973e-11 1.5736049649e-11 3.822073171e-11 1.2674701864e-10 
1.2674701864e-10 -4.0523973434e-11 1.5511483946e-11 8.6768589487e-11 8.6768589487e-11 1.5025749461e-10 1.5755434702e-10 3.6196415838e-10 3.6196415838e-10 
-2.427383902e-11 5.1884902637e-12 4.2081268756e-11 4.2081268756e-11 6.9856956511e-11 8.9686736676e-11 1.8301850681e-10 1.8301850681e-10 8.1058610562e-12 
3.9903335457e-11 1.3864670349e-10 1.3864670349e-10 -7.6236204969e-11 -3.1905032233e-11 -9.8381627975e-12 -7.6236204969e-11 -8.9443792896e-12 2.4793018856e-11 
7.2622260434e-11 7.2622260434e-11 -1.4051146854e-11 1.8377655731e-11 7.3708691123e-11 7.3708691123e-11 7.4455114501e-11 7.9575198864e-11 1.8068478664e-10 
1.8068478664e-10 -5.7361467916e-11 -1.4185748696e-11 1.6403416612e-11 -5.7361467916e-11 2.0926809412e-11 3.5926833535e-11 1.0935445705e-10 1.0935445705e-10 
6.0171105188e-11 7.7020933721e-11 1.8505436109e-10 1.8505436109e-10 1.0263295404e-10 1.1345020038e-10 2.9047484559e-10 2.9047484559e-10 1.0424317905e-10 
1.1245362937e-10 2.9945919158e-10 2.9945919158e-10 5.1969837544e-11 8.6806708579e-11 2.6454705388e-10 2.6454705388e-10 -7.9658804793e-11 -1.4160545768e-11 
5.4961560561e-11 -7.9658804793e-11 -2.3774418821e-10 -1.0020676503e-10 -8.7696146761e-11 -2.3774418821e-10 -6.2394774384e-11 -1.7977287603e-11 3.6926841987e-11 
-6.2394774384e-11 -6.8791279435e-11 -1.7141696343e-11 1.5119725777e-11 -6.8791279435e-11 9.5700823363e-11 1.157333183e-10 2.5944685833e-10 2.5944685833e-10 
4.3049638562e-11 9.3005143086e-11 2.1749981835e-10 2.1749981835e-10 -4.2228612747e-11 3.0820765855e-12 9.7703136161e-11 9.7703136161e-11 -4.9023815432e-11 
-1.6055867781e-11 -7.5869167874e-12 -4.9023815432e-11 -2.4660332231e-10 -8.5599979221e-11 -6.3129298468e-11 -2.4660332231e-10 5.6137332084e-11 8.2524703867e-11 
1.2062106405e-10 1.2062106405e-10 -1.4768502399e-10 -4.94903642e-11 -1.7217511812e-11 -1.4768502399e-10 1.4182420643e-10 1.465926027e-10 3.5612419087e-10 
3.5612419087e-10 -1.4178763797e-11 1.3436314144e-11 4.2635999654e-11 4.2635999654e-11 9.2629378306e-11 1.0649301331e-10 2.2602820838e-10 2.2602820838e-10 
5.2364187549e-11 6.9929858281e-11 1.8075085417e-10 1.8075085417e-10 1.815554811e-11 5.0577851595e-11 1.4205630029e-10 1.4205630029e-10 6.7807912788e-11 
8.1494619756e-11 1.9351186746e-10 1.9351186746e-10 2.1766158695e-11 6.4297517792e-11 1.7379792351e-10 1.7379792351e-10 1.5520367411e-10 1.7496429801e-10 
4.2790602789e-10 4.2790602789e-10 -1.5010431031e-10 -9.3003132169e-12 8.8399523527e-11 -1.5010431031e-10 -6.9033392745e-11 -1.023536005e-11 7.2676832795e-11 
7.2676832795e-11 -1.246198624e-10 -4.6409166462e-11 -2.9432271142e-11 -1.246198624e-10 -1.7708415425e-11 -1.4024626101e-11 -7.6307084747e-12 -1.7708415425e-11 
-7.1246789091e-12 1.7938036073e-12 8.5401183017e-12 8.5401183017e-12 -1.8301823727e-10 -8.0922688636e-12 8.6477706136e-11 -1.8301823727e-10 -9.727290489e-12 
2.0396025396e-12 1.7187847949e-11 1.7187847949e-11 -6.8579478682e-11 -1.8018684164e-11 9.3495428462e-12 -6.8579478682e-11 -7.7424313936e-13 5.9483137356e-12 
2.3795859404e-11 2.3795859404e-11 3.1384229346e-12 1.4383588899e-11 2.6121568167e-11 2.6121568167e-11 3.6039064011e-11 6.9273155368e-11 1.7406528062e-10 
1.7406528062e-10 -1.3609604982e-11 5.5256694347e-11 1.7699981063e-10 1.7699981063e-10 -7.5075674172e-13 3.9385459218e-12 1.340773082e-11 1.340773082e-11 
7.8828637352e-12 1.0305860012e-11 1.8571636253e-11 1.8571636253e-11 -9.7561089241e-11 8.4111538747e-12 6.1895555367e-11 -9.7561089241e-11 1.1864036344e-10 
1.6194806705e-10 3.3429256951e-10 3.3429256951e-10 6.980381993e-12 1.0020044651e-11 2.6350283356e-11 2.6350283356e-11 1.0119270224e-10 1.101330065e-10 
2.6392329126e-10 2.6392329126e-10 2.8734989771e-11 7.5916123274e-11 2.2251738695e-10 2.2251738695e-10 -1.5127655426e-11 3.3793237707e-11 1.2195111772e-10 
1.2195111772e-10 3.664644076e-12 6.2652706281e-12 1.1118065296e-11 1.1118065296e-11 1.9512513161e-11 2.8336838819e-11 4.166244802e-11 4.166244802e-11 
-1.525154781e-10 -2.4485066359e-11 -9.2941555432e-12 -1.525154781e-10 -1.5587395646e-10 -5.5365372181e-11 -2.9304171359e-11 -1.5587395646e-10 -2.938734214e-12 
1.3326518661e-12 4.3658713479e-12 4.3658713479e-12 -6.3886278492e-12 -1.6173713609e-12 1.316679921e-11 1.316679921e-11 -1.4579400021e-10 -3.1985392996e-11 
3.934849321e-11 -1.4579400021e-10 1.8829603065e-11 2.1051117834e-11 4.2961879101e-11 4.2961879101e-11 -1.5787796235e-11 -8.2688073962e-12 -4.9132363686e-12 
-1.5787796235e-11 -2.7936400776e-11 -9.1362523063e-12 3.9067622082e-11 3.9067622082e-11 -2.9981425735e-10 -1.1673820155e-10 -8.7890541107e-11 -2.9981425735e-10 
-1.760518002e-11 -3.2089784427e-12 1.9923584629e-12 -1.760518002e-11 6.0157951342e-12 1.1533905104e-11 2.5558219762e-11 2.5558219762e-11 -1.8139150207e-11 
2.6943982975e-11 1.4594336723e-10 1.4594336723e-10 -1.7272483672e-10 -5.4042010527e-11 -4.0481952752e-11 -1.7272483672e-10 2.1905285419e-12 5.9930041276e-12 
1.4483517331e-11 1.4483517331e-11 9.86903499e-13 4.1833938655e-12 1.3610932635e-11 1.3610932635e-11 -4.272088826e-11 -3.9648236911e-12 5.9881171951e-11 
5.9881171951e-11 -3.6894843456e-11 -9.7316087096e-12 1.2140142166e-11 -3.6894843456e-11 -6.460935571e-12 -6.0351440533e-12 1.2434996243e-12 -6.460935571e-12 
2.2176123565e-11 4.1896600785e-11 1.1898437565e-10 1.1898437565e-10 -2.8113961914e-10 -1.3750644184e-10 -1.0886893901e-10 -2.8113961914e-10 -1.5543177169e-10 
-5.2428789521e-11 -1.3056738794e-11 -1.5543177169e-10 -1.1391100227e-12 3.8557426221e-11 1.132424838e-10 1.132424838e-10 4.9807415226e-11 6.2216988334e-11 
1.4697019644e-10 1.4697019644e-10 5.3760806022e-12 2.6008139442e-11 4.9063579956e-11 4.9063579956e-11 -6.605278898e-11 2.5492777568e-11 1.2475191141e-10 
1.2475191141e-10 -2.8362786001e-11 8.6967571403e-12 8.837548886e-11 8.837548886e-11 6.6329868171e-12 4.0558815494e-11 1.1997769769e-10 1.1997769769e-10 
-1.7867776426e-10 -3.9497858305e-11 3.2083122563e-11 -1.7867776426e-10 -2.8380826856e-10 -1.4946925089e-10 -1.0223148056e-10 -2.8380826856e-10 -3.9073707845e-10 
-1.4378392616e-10 -1.1553799539e-10 -3.9073707845e-10 -6.712627069e-11 2.6675539552e-11 5.1581861139e-11 -6.712627069e-11 -2.1872015309e-11 1.263437695e-11 
1.4422803836e-10 1.4422803836e-10 -9.3183388607e-12 4.7397980017e-11 1.6906095884e-10 1.6906095884e-10 -7.9965194488e-11 2.5702206654e-11 1.1467468783e-10 
1.1467468783e-10 -2.7562418731e-11 -1.6082598977e-11 3.7472297708e-11 3.7472297708e-11 -6.0907180904e-11 6.7906380006e-12 6.0289262903e-11 -6.0907180904e-11 
-6.0903132829e-11 2.5422022056e-11 1.2159571077e-10 1.2159571077e-10 1.5944452497e-11 7.5153095982e-11 2.1419885152e-10 2.1419885152e-10 -2.872869695e-11 
8.325324554e-12 5.5112292396e-11 5.5112292396e-11 6.666309745e-11 1.1022628335e-10 2.744276192e-10 2.744276192e-10 5.6495662775e-11 8.9551026508e-11 
2.2289981072e-10 2.2289981072e-10 -1.1800028907e-11 2.7659679548e-11 1.0850554936e-10 1.0850554936e-10 -1.0008431837e-11 2.65221397e-11 9.4392892136e-11 
9.4392892136e-11 -2.7086303249e-11 -4.7928650773e-12 8.3013583265e-12 -2.7086303249e-11 -3.3032675621e-12 2.4969023654e-11 5.8174843908e-11 5.8174843908e-11 
-2.2737245455e-11 3.536252163e-11 1.7154472383e-10 1.7154472383e-10 -2.1297875476e-11 3.8794867783e-11 1.5493460769e-10 1.5493460769e-10 4.4627441435e-11 
5.1502826378e-11 1.2001583219e-10 1.2001583219e-10 -2.3900279797e-11 2.3052733673e-12 2.5035546429e-11 2.5035546429e-11 -1.069376832e-10 -2.8256097652e-11 
1.4066680849e-11 -1.069376832e-10 -8.6957194006e-11 -4.485697424e-11 -3.4444631754e-11 -8.6957194006e-11 -9.6712039986e-11 -2.4430439182e-11 1.2259679168e-11 
-9.6712039986e-11 -1.3494079363e-11 7.916500363e-12 1.8934949e-11 1.8934949e-11 -1.122564906e-10 -6.0453170078e-11 -3.8984639323e-11 -1.122564906e-10 
-1.0852079524e-10 -5.2852858346e-11 -3.4129746416e-11 -1.0852079524e-10 -1.8112105397e-10 -6.4324615534e-11 -3.0505630492e-11 -1.8112105397e-10 -3.3105169408e-11 
-4.2266445064e-12 2.1950603914e-11 -3.3105169408e-11 2.405198379e-11 3.0499358938e-11 6.4754257272e-11 6.4754257272e-11 -4.8928392064e-11 -2.312352342e-11 
-1.8919884516e-11 -4.8928392064e-11 -1.5543430482e-11 -5.1394262673e-12 1.6587576489e-12 -1.5543430482e-11 3.0144105527e-11 4.355596276e-11 9.0939631714e-11 
9.0939631714e-11 2.1732448684e-11 2.4164979474e-11 5.4181671842e-11 5.4181671842e-11 9.7774965425e-13 3.5579961062e-12 4.535202424e-11 4.535202424e-11 
2.4507946567e-11 3.1816657645e-11 6.5004895788e-11 6.5004895788e-11 -1.486132089e-11 1.8436966269e-12 5.428214263e-12 -1.486132089e-11 -2.9793392549e-11 
-1.0454992588e-11 9.8907351364e-12 -2.9793392549e-11 -3.3981003322e-11 -1.1262569498e-11 -9.1978271802e-12 -3.3981003322e-11 -4.2750374498e-12 8.0482426554e-12 
3.4376314794e-11 3.4376314794e-11 -1.3387073569e-11 -5.2375050045e-13 6.3214130691e-12 -1.3387073569e-11 -7.0149975715e-12 5.6758779623e-12 2.8155049609e-11 
2.8155049609e-11 1.4273247759e-11 2.2202306093e-11 5.0347446149e-11 5.0347446149e-11 -4.4802739998e-11 -1.1763326362e-11 6.1723663596e-12 -4.4802739998e-11 
-5.6118944852e-11 -2.8575701028e-11 -1.659875412e-11 -5.6118944852e-11 -3.050788414e-12 1.7796864003e-11 4.0909624411e-11 4.0909624411e-11 -1.1007407833e-11 
-2.6779290891e-12 8.3392692206e-13 -1.1007407833e-11 -1.5924370679e-11 -1.6505955771e-12 6.5450152561e-12 -1.5924370679e-11 -9.7455886622e-11 -3.9416543256e-11 
-5.4657012267e-13 -9.7455886622e-11 -8.6501611782e-11 -2.3855259186e-11 -4.4963290318e-12 -8.6501611782e-11 -2.8756482262e-11 8.6292366817e-12 4.168118558e-11 
4.168118558e-11 -5.9304916807e-13 2.1061364898e-11 7.981318427e-11 7.981318427e-11 -7.5163921726e-11 -3.9055729829e-11 -2.9473248446e-11 -7.5163921726e-11 
-5.7088057218e-11 -1.8861569963e-11 -1.2188672819e-11 -5.7088057218e-11 -3.6850092711e-11 -1.3718592593e-11 -2.8608046963e-12 -3.6850092711e-11 -3.8145803467e-11 
-2.1259135115e-11 -1.0012961418e-11 -3.8145803467e-11 -5.8462223194e-11 -2.3537664364e-11 -2.0609112441e-11 -5.8462223194e-11 -1.8662018495e-11 6.4510651365e-14 
2.7103478433e-12 -1.8662018495e-11 6.8179831697e-12 1.2068684442e-11 3.3227322388e-11 3.3227322388e-11 -1.2138925178e-11 -8.3031053103e-12 2.6321904887e-12 
-1.2138925178e-11 -1.7189073413e-11 -1.3704122534e-12 6.8211826668e-12 -1.7189073413e-11 -8.1346311626e-12 2.2592671408e-12 9.3158940217e-12 9.3158940217e-12 
-2.6701543859e-11 -1.1718743919e-11 4.5208477772e-12 -2.6701543859e-11 -9.0337796437e-12 -1.829803081e-12 5.0956227247e-12 -9.0337796437e-12 2.5780290738e-12 
1.0821309506e-11 1.5238091421e-11 1.5238091421e-11 -4.3618274583e-12 6.2238501861e-13 7.4835514397e-12 7.4835514397e-12 -2.5159318947e-11 -9.8547655928e-12 
-9.4093154601e-12 -2.5159318947e-11 -1.2714370239e-11 5.1685749556e-13 5.4176327431e-12 -1.2714370239e-11 1.3922829705e-12 6.4442615173e-12 1.1086385512e-11 
1.1086385512e-11 -2.7365100052e-12 2.1920891058e-12 5.9076108994e-12 5.9076108994e-12 -9.4518442498e-12 -2.7993531625e-12 9.1766741234e-13 -9.4518442498e-12 
-1.0105067316e-11 -2.1772398978e-12 3.4785872136e-12 -1.0105067316e-11 -2.4296484628e-13 7.8440330032e-12 9.803991843e-12 9.803991843e-12 -3.4991940594e-12 
-5.9997241063e-13 1.4681634701e-12 -3.4991940594e-12 -6.7271376333e-12 -3.1085002109e-12 8.2952784426e-13 -6.7271376333e-12 -2.8846981822e-12 -2.5306801671e-13 
3.3401502989e-12 3.3401502989e-12 1.6121857024e-12 3.4710481777e-12 5.8455261199e-12 5.8455261199e-12 -3.6582125826e-12 2.8019337354e-14 1.5051562453e-12 
-3.6582125826e-12 -8.789593208e-13 -3.1234874723e-13 3.822303068e-12 3.822303068e-12 3.1457637113e-13 1.5813866523e-12 6.6041829765e-12 6.6041829765e-12 
6.0611020156e-12 9.6296597633e-12 1.2035938221e-11 1.2035938221e-11 -2.8094669263e-12 -1.0902573095e-12 -7.6576876426e-13 -2.8094669263e-12 -1.7122355773e-13 
4.4869626068e-12 7.447860951e-12 7.447860951e-12 -2.0549542333e-11 -8.3803692721e-12 -6.7908983953e-12 -2.0549542333e-11 -3.3688493807e-11 -2.3234431265e-11 
-1.6238974928e-11 -3.3688493807e-11 -3.3699443855e-12 -1.6695967105e-12 2.6904909595e-13 -3.3699443855e-12 4.0100199115e-12 4.8452438689e-12 9.7930162196e-12 
9.7930162196e-12 5.0908816023e-12 8.0515280164e-12 1.1057000381e-11 1.1057000381e-11 -4.0885578748e-12 -1.1591236899e-12 -5.2027543527e-13 -4.0885578748e-12 
-2.9620584105e-14 1.2846310934e-13 1.3178494748e-12 1.3178494748e-12 -4.3658890724e-12 7.1916415472e-13 6.2777239176e-12 6.2777239176e-12 -4.4736464547e-12 
-1.1747201876e-12 5.8875664226e-13 -4.4736464547e-12 -9.8927425199e-12 -5.8811502161e-12 -1.1252072639e-12 -9.8927425199e-12 -1.673728818e-12 8.3827269268e-13 
3.9724091253e-12 3.9724091253e-12 1.7401958589e-12 5.2799153907e-12 6.6408387504e-12 6.6408387504e-12 7.3161000129e-12 1.1767732412e-11 1.7952517575e-11 
1.7952517575e-11 4.7166051796e-12 8.010168853e-12 1.4190335967e-11 1.4190335967e-11 1.1046905777e-11 1.618783976e-11 3.2063954464e-11 3.2063954464e-11 
-1.6057293795e-12 1.6316009416e-12 6.0456584379e-12 6.0456584379e-12 -2.753227372e-11 -1.525879166e-11 -9.9301346199e-12 -2.753227372e-11 -9.9122751088e-12 
6.4943071542e-13 7.1378113934e-12 -9.9122751088e-12 -3.0200636095e-11 -9.326442852e-12 -6.3130210525e-12 -3.0200636095e-11 -3.1128584917e-11 -8.9246932398e-12 
2.8145881565e-12 -3.1128584917e-11 1.2556786634e-11 1.651311861e-11 2.6282294756e-11 2.6282294756e-11 -4.2145864752e-11 -1.8755270171e-11 -1.5094265077e-11 
-4.2145864752e-11 -3.633850698e-11 -1.3932807843e-11 -2.2474851762e-12 -3.633850698e-11 9.6348197252e-12 1.7714244424e-11 3.346753585e-11 3.346753585e-11 
-8.6977335235e-12 2.5132543769e-12 1.9137079147e-11 1.9137079147e-11 -6.6592129945e-12 1.4971430082e-12 1.9733779986e-11 1.9733779986e-11 1.3929963939e-12 
1.2546255082e-11 2.5829298524e-11 2.5829298524e-11 -9.6186068562e-12 3.2674576398e-12 1.8696639216e-11 1.8696639216e-11 -1.414085946e-11 -8.7556571381e-12 
-5.538533402e-12 -1.414085946e-11 3.5695016616e-12 1.2870535729e-11 3.9215662609e-11 3.9215662609e-11 1.1662389656e-11 1.3233317658e-11 3.7944692686e-11 
3.7944692686e-11 -2.707780939e-11 -1.4024844967e-12 2.1599223887e-11 -2.707780939e-11 3.311669304e-12 1.2537519634e-11 2.6651571062e-11 2.6651571062e-11 
2.6818070367e-12 2.1822166319e-11 7.9420426645e-11 7.9420426645e-11 -4.4973287171e-11 -4.3939043232e-12 3.0343061494e-11 -4.4973287171e-11 8.3158429771e-12 
3.0167081162e-11 8.2441775861e-11 8.2441775861e-11 4.5015308376e-11 5.6740469328e-11 1.394869223e-10 1.394869223e-10 -3.3135122001e-12 1.2718862474e-11 
4.8780149726e-11 4.8780149726e-11 3.3422432711e-11 4.70166804e-11 1.0524858689e-10 1.0524858689e-10 4.0938449478e-11 4.8490152618e-11 1.367357979e-10 
1.367357979e-10 -5.9984185965e-11 -1.9848927056e-11 -8.507686979e-12 -5.9984185965e-11 3.133264613e-11 4.2546166526e-11 8.4284587344e-11 8.4284587344e-11 
-1.4299819931e-12 9.4429375372e-12 3.1249596456e-11 3.1249596456e-11 -7.1301174678e-11 -3.3135422518e-11 -2.5393002804e-11 -7.1301174678e-11 9.8790492667e-12 
2.2682454274e-11 6.1142496459e-11 6.1142496459e-11 1.0298241306e-11 3.3390367112e-11 9.9397091582e-11 9.9397091582e-11 1.1985359345e-11 3.3910163912e-11 
9.5267576744e-11 9.5267576744e-11 3.2132870117e-11 3.6590943866e-11 7.6284586017e-11 7.6284586017e-11 -5.2605929811e-11 -2.7356682861e-11 -1.9306987327e-11 
-5.2605929811e-11 -3.0145943101e-11 -4.1702102365e-12 2.0250433338e-11 -3.0145943101e-11 -1.2196224219e-12 2.220966294e-11 7.5850859482e-11 7.5850859482e-11 
2.487400454e-11 3.4522036331e-11 8.6624359129e-11 8.6624359129e-11 4.670185736e-12 1.4956105569e-11 3.1779308695e-11 3.1779308695e-11 4.8214930461e-12 
1.3547747701e-11 2.8078059253e-11 2.8078059253e-11 1.5876501857e-11 2.3659608561e-11 6.8435889582e-11 6.8435889582e-11 -4.7523667807e-11 -1.2789600046e-11 
-4.1462321472e-12 -4.7523667807e-11 -1.475466515e-10 -4.9551214678e-11 -9.5365338183e-12 -1.475466515e-10 1.8856036769e-12 2.9264546338e-11 9.9590049986e-11 
9.9590049986e-11 1.8793988253e-12 2.7391225636e-11 8.8820675539e-11 8.8820675539e-11 1.6912569203e-11 3.6684361897e-11 8.65543689e-11 8.65543689e-11 
-2.4057176421e-13 2.0403296314e-11 7.1517475451e-11 7.1517475451e-11 2.1535855049e-11 3.1805518733e-11 8.1244226218e-11 8.1244226218e-11 -7.0240871466e-12 
2.4554140057e-11 8.8519347089e-11 8.8519347089e-11 -6.1789979636e-11 -2.3165714271e-11 1.3008093907e-11 -6.1789979636e-11 -6.8474721395e-11 -3.2191665053e-11 
-4.2461355254e-13 -6.8474721395e-11 7.7023210521e-12 4.0358803379e-11 1.2052507557e-10 1.2052507557e-10 3.7937814338e-11 5.3217388774e-11 1.2731859689e-10 
1.2731859689e-10 5.1831845877e-11 6.8481580237e-11 1.1607117389e-10 1.1607117389e-10 -3.3298378288e-11 -1.8043893025e-13 3.7425311218e-11 3.7425311218e-11 
-3.2204186067e-11 -1.0514326396e-11 1.9444352463e-11 -3.2204186067e-11 2.9068420441e-11 4.9444902096e-11 1.3297867746e-10 1.3297867746e-10 1.0502969038e-10 
1.1439809843e-10 2.551642112e-10 2.551642112e-10 4.6402087598e-12 1.190937123e-11 6.582092001e-11 6.582092001e-11 5.5532623411e-11 6.364125086e-11 
1.4736612573e-10 1.4736612573e-10 7.0725176147e-11 1.0520212142e-10 2.8641870243e-10 2.8641870243e-10 1.5597170714e-10 1.6868154981e-10 3.6780474305e-10 
3.6780474305e-10 4.3500397101e-11 6.7607557271e-11 1.7911114563e-10 1.7911114563e-10 -2.7431968846e-11 -2.0419053521e-12 1.7229574198e-11 -2.7431968846e-11 
-1.1527556277e-10 -4.567234636e-11 -1.8061190873e-11 -1.1527556277e-10 -1.4768322201e-10 -4.1207435944e-11 4.054295795e-11 -1.4768322201e-10 3.874943403e-11 
7.634848498e-11 1.8352018099e-10 1.8352018099e-10 2.7254192872e-11 4.0820635675e-11 1.1063067145e-10 1.1063067145e-10 2.4061662509e-12 3.3537783626e-11 
1.3780315012e-10 1.3780315012e-10 1.4005101409e-12 5.7199050084e-11 1.9579803978e-10 1.9579803978e-10 -3.7292705049e-12 6.2447817051e-11 2.1591735345e-10 
2.1591735345e-10 -1.8813595278e-10 -5.8296180744e-11 -1.5048566475e-11 -1.8813595278e-10 -2.5722744238e-10 -1.2163941804e-10 -8.732613958e-11 -2.5722744238e-10 
-2.7981258033e-10 -1.1209961962e-10 -7.3369800056e-11 -2.7981258033e-10 -2.3198589116e-10 -1.0315835314e-10 -8.6827755697e-11 -2.3198589116e-10 -7.9264788294e-11 
-2.0269153106e-11 3.4014413998e-12 -7.9264788294e-11 -2.2944079322e-10 -8.9411501165e-11 -8.5208405614e-11 -2.2944079322e-10 -3.5306062681e-11 1.4181279192e-11 
8.9970703489e-11 8.9970703489e-11 7.9528471192e-11 1.0956840654e-10 2.7567922226e-10 2.7567922226e-10 -2.3545254716e-10 -9.1292856411e-11 -7.8179496428e-11 
-2.3545254716e-10 3.7972572616e-12 8.3972816356e-12 2.5890491103e-11 2.5890491103e-11 -1.1912147426e-11 -5.1314362167e-12 -3.8424763573e-12 -1.1912147426e-11 
-8.761003942e-11 1.4885923872e-11 8.9805345548e-11 8.9805345548e-11 -1.1778065504e-10 -6.107428848e-11 -2.5719956481e-11 -1.1778065504e-10 1.9128404398e-12 
3.5860197663e-12 1.0644269794e-11 1.0644269794e-11 -4.3041985238e-11 -1.8161941617e-11 5.8662268542e-12 -4.3041985238e-11 4.1252230308e-12 6.0215176652e-11 
1.4816370032e-10 1.4816370032e-10 -1.5063091553e-12 5.6059959897e-12 1.1146613166e-11 1.1146613166e-11 3.6848618828e-13 3.8100578326e-12 1.5402175979e-11 
1.5402175979e-11 -7.110757867e-11 -4.935978691e-11 -1.782873442e-11 -7.110757867e-11 -3.3378007259e-10 -1.2775767159e-10 -1.2365725582e-10 -3.3378007259e-10 
-1.326955045e-10 -4.5778834948e-11 -1.3143460548e-11 -1.326955045e-10 -3.5769392147e-12 2.008172422e-11 1.1737251499e-10 1.1737251499e-10 -2.0797437295e-10 
-7.7807621672e-11 -6.3600705374e-11 -2.0797437295e-10 -3.0283164645e-10 -1.2298953416e-10 -1.036168194e-10 -3.0283164645e-10 1.5042801548e-11 5.305241626e-11 
1.5245288219e-10 1.5245288219e-10 -3.8135055015e-10 -1.5180506953e-10 -1.2001938032e-10 -3.8135055015e-10 7.5327394383e-11 8.117209757e-11 2.1497710805e-10 
2.1497710805e-10 -3.4135694586e-10 -1.5699645514e-10 -1.39764599e-10 -3.4135694586e-10 -2.4737732581e-10 -8.5830703918e-11 -7.9959970275e-11 -2.4737732581e-10 
-3.047224167e-10 -1.2911353776e-10 -1.1887604554e-10 -3.047224167e-10 -3.2741718978e-12 1.4705739383e-11 5.6569632515e-11 5.6569632515e-11 -2.4374224372e-11 
1.2658409472e-11 2.66922649e-11 2.66922649e-11 -1.5517626301e-10 -3.8950709783e-11 -1.4885727208e-11 -1.5517626301e-10 -1.9023071821e-10 -6.3102780756e-11 
-2.4338201039e-11 -1.9023071821e-10 -2.2277879742e-10 -8.0873635061e-11 -5.4871667521e-11 -2.2277879742e-10 -2.3037454666e-10 -7.338206564e-11 -4.0398087698e-11 
-2.3037454666e-10 -2.4006447601e-10 -1.0994046003e-10 -1.6107963962e-11 -2.4006447601e-10 2.6456008212e-11 6.8199921872e-11 1.8767016992e-10 1.8767016992e-10 
7.6465465339e-11 9.1378911807e-11 1.9705512285e-10 1.9705512285e-10 8.2768847309e-11 1.1758415859e-10 3.098981941e-10 3.098981941e-10 -8.4808718969e-11 
8.3423701692e-12 4.66399788e-11 -8.4808718969e-11 8.9054750582e-11 1.0987894349e-10 2.4003730593e-10 2.4003730593e-10 -3.4888142416e-11 4.3580033167e-11 
1.8721610925e-10 1.8721610925e-10 1.3714587426e-10 1.436162485e-10 3.1364087724e-10 3.1364087724e-10 -2.3895799717e-10 -1.1008422711e-10 -5.1375775714e-11 
-2.3895799717e-10 9.0447957972e-11 9.358526369e-11 2.6910477834e-10 2.6910477834e-10 -1.3204776178e-10 -5.0796347734e-11 -2.9279890481e-11 -1.3204776178e-10 
-4.7393765235e-12 3.2641180528e-11 1.01855496e-10 1.01855496e-10 -6.0533383881e-12 2.8908851769e-11 9.3262586619e-11 9.3262586619e-11 -1.1259830933e-11 
4.31358871e-11 7.3768543833e-11 7.3768543833e-11 -1.5183350153e-10 -7.9243325959e-11 -3.5969772514e-11 -1.5183350153e-10 -3.3240114157e-11 -2.0687125357e-11 
-2.5379604864e-12 -3.3240114157e-11 -2.7782753667e-11 8.7764293498e-13 6.0905700732e-11 6.0905700732e-11 -1.0220251177e-10 -4.1697152256e-11 1.2855764023e-11 
-1.0220251177e-10 -3.1332938576e-11 -4.8377180384e-12 1.5325036614e-11 -3.1332938576e-11 -1.1695737822e-10 -4.6942062454e-11 -4.5221759322e-11 -1.1695737822e-10 
-5.2453216452e-11 -3.1430514658e-12 5.3046225918e-11 5.3046225918e-11 -1.3690524712e-10 -5.2001659893e-11 -3.7358692989e-11 -1.3690524712e-10 4.4227208343e-11 
7.4558770081e-11 2.2192812158e-10 2.2192812158e-10 -6.5642548248e-11 -1.1924566355e-11 7.6474236603e-11 7.6474236603e-11 3.1308664262e-11 4.3511038474e-11 
1.0836739726e-10 1.0836739726e-10 4.5011521634e-11 7.8920336656e-11 1.7660914171e-10 1.7660914171e-10 9.6969893045e-11 9.823160246e-11 2.3761150449e-10 
2.3761150449e-10 6.7190316816e-11 8.3143187822e-11 1.5476129536e-10 1.5476129536e-10 6.2685759357e-11 9.1308685288e-11 2.4499225535e-10 2.4499225535e-10 
-2.0647512128e-10 -8.653402756e-11 -8.585405116e-11 -2.0647512128e-10 -7.103456703e-11 -1.524693639e-11 1.125470342e-11 -7.103456703e-11 -9.5935400081e-11 
-1.4512069216e-11 2.7788692969e-12 -9.5935400081e-11 -4.1961146069e-11 1.0202410604e-11 8.4985935464e-11 8.4985935464e-11 -1.0565033511e-10 -4.1452469893e-11 
-1.1364594994e-11 -1.0565033511e-10 -1.4027367272e-10 -5.7358630508e-11 -1.1141996772e-11 -1.4027367272e-10 2.6017515508e-12 1.6059538854e-11 5.3711409595e-11 
5.3711409595e-11 -9.2044118892e-11 -3.7094666739e-11 -2.8634314369e-11 -9.2044118892e-11 -1.8983602346e-10 -8.3412440736e-11 -8.0494135807e-11 -1.8983602346e-10 
-1.0728050728e-10 -1.9476280615e-11 4.0887987895e-11 -1.0728050728e-10 -1.5938649907e-10 -6.9155375268e-11 -1.4522125659e-11 -1.5938649907e-10 -1.8021729219e-10 
-7.7131271694e-11 -6.5483636111e-11 -1.8021729219e-10 -9.952509864e-11 -1.0558020654e-11 6.4182319295e-11 -9.952509864e-11 -1.7379367929e-10 -5.565342438e-11 
-1.0972963316e-12 -1.7379367929e-10 -7.0881571808e-12 4.0619523018e-11 1.4325133416e-10 1.4325133416e-10 -1.7158200857e-10 -5.4207929813e-11 -3.9535761614e-11 
-1.7158200857e-10 4.3968577526e-11 7.8510179612e-11 1.8150294286e-10 1.8150294286e-10 1.3050977296e-11 4.0169125204e-11 1.421816975e-10 1.421816975e-10 
5.7995146691e-12 4.6803023366e-11 1.2731716196e-10 1.2731716196e-10 -1.2786358339e-10 -5.8734685839e-11 -3.6920730773e-11 -1.2786358339e-10 6.5462667423e-11 
8.6216124149e-11 2.2030380843e-10 2.2030380843e-10 3.1747697557e-11 4.3740788742e-11 8.22846137e-11 8.22846137e-11 4.1237393521e-12 3.9492508968e-11 
1.2972605168e-10 1.2972605168e-10 -5.7552000472e-11 -3.2924555062e-15 2.5723066927e-11 -5.7552000472e-11 1.5758617532e-12 2.3029528444e-11 6.3634209803e-11 
6.3634209803e-11 -2.9041470941e-11 1.226982921e-11 6.2568441732e-11 6.2568441732e-11 -9.8473715943e-11 -4.7135733473e-11 -3.8600850584e-11 -9.8473715943e-11 
5.554179332e-11 7.2064854206e-11 1.8438375247e-10 1.8438375247e-10 -1.3467660119e-12 1.6049829338e-11 2.6077406674e-11 2.6077406674e-11 -4.1588418355e-11 
-1.8576592946e-11 -8.443288699e-12 -4.1588418355e-11 4.7946420299e-11 5.8513920561e-11 1.2162715914e-10 1.2162715914e-10 -5.5374050283e-11 -2.5572907283e-11 
-1.5156742434e-11 -5.5374050283e-11 3.7890557322e-11 5.1402490701e-11 1.0995485198e-10 1.0995485198e-10 -5.0915095813e-11 -9.1369876049e-12 1.5729873418e-11 
-5.0915095813e-11 -6.5733046112e-11 -3.6635787196e-11 -2.2805966693e-11 -6.5733046112e-11 -1.0387846268e-10 -4.0216406014e-11 -2.1759131302e-11 -1.0387846268e-10 
-4.3236833219e-11 -1.6320147202e-12 8.9600479396e-12 -4.3236833219e-11 -2.4113268741e-11 -9.0540119656e-12 -4.7038792937e-12 -2.4113268741e-11 -2.5737249394e-11 
-9.7380961349e-12 1.3213108529e-11 -2.5737249394e-11 2.664367707e-11 3.1925878207e-11 6.5820944724e-11 6.5820944724e-11 3.1620226223e-11 3.3533239288e-11 
8.6735934488e-11 8.6735934488e-11 -4.1882958392e-12 1.1605758704e-11 4.7631107135e-11 4.7631107135e-11 -9.6616577116e-12 -5.9739253756e-13 1.9366320249e-11 
1.9366320249e-11 1.3066314994e-11 3.162612867e-11 7.4410856336e-11 7.4410856336e-11 -6.5318652588e-12 8.7048555694e-12 5.1603409689e-11 5.1603409689e-11 
-8.9298929294e-11 -3.4465583248e-11 -2.6505987458e-11 -8.9298929294e-11 -3.7292618875e-11 6.5360593806e-12 2.1649279494e-11 -3.7292618875e-11 -2.3334678796e-11 
-6.1568279983e-12 4.4937679406e-13 -2.3334678796e-11 4.8562150743e-12 1.8130288995e-11 4.258604593e-11 4.258604593e-11 -5.4500857162e-11 -1.4816596373e-11 
1.9993535348e-12 -5.4500857162e-11 -1.557750046e-11 3.2813452728e-12 2.6867825187e-11 2.6867825187e-11 3.8328515513e-11 4.5082053314e-11 9.4283031173e-11 
9.4283031173e-11 -1.4251354877e-11 -1.7202295873e-12 2.6191984464e-11 2.6191984464e-11 -3.2708172654e-11 -1.0674028087e-11 -2.5879592594e-12 -3.2708172654e-11 
-1.2880033547e-11 9.9341894243e-12 4.6418024122e-11 4.6418024122e-11 -5.3273338561e-11 -2.0562473484e-11 -9.6043879551e-12 -5.3273338561e-11 1.0785501038e-11 
2.3236398919e-11 6.7025700044e-11 6.7025700044e-11 4.3101861634e-12 1.6090629704e-11 4.8641184133e-11 4.8641184133e-11 -1.8663723506e-11 1.9007303424e-11 
6.0371720082e-11 6.0371720082e-11 9.7324301616e-12 3.1307292303e-11 6.9722477535e-11 6.9722477535e-11 5.9666976285e-11 7.1161839627e-11 1.5526188409e-10 
1.5526188409e-10 -1.0475581486e-11 -3.7642680356e-12 7.5611595216e-12 -1.0475581486e-11 2.5261000163e-11 3.015225744e-11 7.2435842397e-11 7.2435842397e-11 
-2.9810638385e-11 -1.0333769256e-11 1.4821764135e-13 -2.9810638385e-11 5.8257066072e-12 2.9313165103e-11 9.550022829e-11 9.550022829e-11 7.2731447687e-12 
1.5111176472e-11 5.1384778759e-11 5.1384778759e-11 -2.7107511715e-11 -2.1188638455e-12 2.5583458561e-11 -2.7107511715e-11 1.7977184518e-11 2.4843253664e-11 
3.8917561818e-11 3.8917561818e-11 -2.7368760137e-11 -1.7236101084e-12 4.0194580245e-11 4.0194580245e-11 -8.7445172873e-11 -2.6406129624e-11 -2.0137975028e-12 
-8.7445172873e-11 1.3726654399e-11 1.4936440141e-11 3.741550546e-11 3.741550546e-11 1.822128004e-11 2.1051969541e-11 4.3603050419e-11 4.3603050419e-11 
-7.2025039658e-11 -2.7372165501e-11 -6.8544948404e-12 -7.2025039658e-11 3.9301991059e-12 7.4490835828e-12 2.1710517311e-11 2.1710517311e-11 -4.029247762e-12 
1.4011262135e-11 5.2919085627e-11 5.2919085627e-11 -4.1499095561e-12 1.076964014e-11 3.4261899416e-11 3.4261899416e-11 9.2779265059e-12 1.2842013247e-11 
3.7502560247e-11 3.7502560247e-11 -3.1016188647e-11 -1.0977343301e-11 -5.8848680512e-12 -3.1016188647e-11 9.5800142584e-12 2.0709241966e-11 5.1763243776e-11 
5.1763243776e-11 -2.9724697907e-11 -1.1602365167e-11 -8.806466926e-12 -2.9724697907e-11 -7.3201151426e-12 1.1861121696e-11 2.8418793447e-11 2.8418793447e-11 
-2.67220417e-11 -1.012981445e-11 -5.1429438497e-12 -2.67220417e-11 1.3826889782e-11 2.6915552146e-11 3.4544458072e-11 3.4544458072e-11 -1.3995703015e-11 
-3.9810077788e-12 -4.1134920596e-13 -1.3995703015e-11 1.7285604763e-11 2.2480417625e-11 4.4801777612e-11 4.4801777612e-11 -3.371629812e-11 -8.543107108e-12 
-1.7158447718e-12 -3.371629812e-11 -2.2227547585e-11 1.9152045281e-13 7.4643961324e-12 -2.2227547585e-11 1.2574679698e-11 1.9872261085e-11 4.3548359216e-11 
4.3548359216e-11 -1.2337888949e-11 8.0406328315e-12 2.1904706117e-11 2.1904706117e-11 1.5126146719e-11 1.6499625804e-11 4.5938027477e-11 4.5938027477e-11 
-1.2078539454e-11 1.9632951304e-12 1.2037903324e-11 -1.2078539454e-11 -8.0003791928e-13 1.8921151791e-12 4.8276627402e-12 4.8276627402e-12 -3.8633993356e-11 
-2.4786347191e-11 -1.4780959453e-11 -3.8633993356e-11 -1.6966609858e-11 -5.0979029717e-12 1.6237028298e-12 -1.6966609858e-11 -7.2920947019e-12 1.0687271062e-11 
1.794195364e-11 1.794195364e-11 -2.095970348e-11 -2.0097641468e-12 9.5109026265e-12 -2.095970348e-11 -2.2023837525e-11 -7.7480726889e-12 -2.6674297861e-12 
-2.2023837525e-11 6.3869831848e-12 9.7158149703e-12 1.4963211845e-11 1.4963211845e-11 -6.2910789521e-11 -3.1434796165e-11 -2.8097014315e-11 -6.2910789521e-11 
-2.0545050195e-11 -7.9090632219e-12 -7.1077665833e-12 -2.0545050195e-11 4.213010658e-12 1.7906090124e-11 2.8173399218e-11 2.8173399218e-11 3.7881145519e-12 
6.9740047586e-12 1.9161810689e-11 1.9161810689e-11 7.5945203727e-12 1.5730702636e-11 2.3830376991e-11 2.3830376991e-11 -1.9500609613e-11 -9.6274790306e-12 
-8.4141913569e-12 -1.9500609613e-11 -8.5741031122e-12 -4.6133500793e-13 3.5710581202e-12 -8.5741031122e-12 2.410016168e-12 6.7169979052e-12 2.0016355927e-11 
2.0016355927e-11 1.0081829759e-12 1.0012606145e-11 1.6786790879e-11 1.6786790879e-11 -1.8842566054e-11 -4.4419594316e-12 -9.1491451468e-13 -1.8842566054e-11 
-8.4294655478e-12 -2.9630849652e-12 8.1833075131e-12 -8.4294655478e-12 -2.4406096998e-11 -5.9200700987e-12 -1.8529229031e-12 -2.4406096998e-11 -4.8079033499e-12 
2.5941132658e-12 4.2954620841e-12 -4.8079033499e-12 -1.2885490045e-11 -5.6855475792e-12 -1.1613923758e-12 -1.2885490045e-11 -6.2299995558e-12 -4.1878898966e-12 
1.5129694524e-12 -6.2299995558e-12 3.952835946e-12 7.3318832264e-12 1.2307470828e-11 1.2307470828e-11 2.0793421465e-12 3.2689108392e-12 1.0194857014e-11 
1.0194857014e-11 1.2489353091e-11 1.7751490156e-11 2.6224356753e-11 2.6224356753e-11 3.5361320531e-14 2.1460392903e-12 5.8850613891e-12 5.8850613891e-12 
-9.9218624936e-12 -1.8614690046e-12 2.6760314982e-12 -9.9218624936e-12 3.4409470349e-12 4.1523730994e-12 7.3426498657e-12 7.3426498657e-12 3.1272364148e-12 
3.408415065e-12 7.0819285202e-12 7.0819285202e-12 4.9069910299e-12 7.4087456368e-12 9.1370033333e-12 9.1370033333e-12 2.408331325e-12 4.4097330965e-12 
1.2090425579e-11 1.2090425579e-11 -8.5759053577e-12 -3.1750312293e-12 -1.953373413e-12 -8.5759053577e-12 -1.8530522889e-12 3.9057119182e-13 9.5651809705e-13 
-1.8530522889e-12 2.468735782e-12 4.4294394441e-12 1.3340234774e-11 1.3340234774e-11 2.9111330432e-12 7.8825114597e-12 1.2379365497e-11 1.2379365497e-11 
-3.9977355071e-12 -2.5107571521e-12 1.3043240591e-12 -3.9977355071e-12 -1.7646218554e-12 1.6569577058e-12 5.5720441497e-12 5.5720441497e-12 -2.9833296858e-12 
-9.0997934962e-13 1.4919903546e-13 -2.9833296858e-12 -3.3645347373e-12 7.3632081995e-13 2.4932878174e-12 -3.3645347373e-12 -1.0736963191e-12 8.7406668556e-12 
2.0383489464e-11 2.0383489464e-11 1.0975347699e-11 1.3413882562e-11 2.3575969739e-11 2.3575969739e-11 -3.5415955826e-12 8.7039865967e-12 1.8853928986e-11 
1.8853928986e-11 -5.6517569214e-13 2.3937862029e-11 6.1909013664e-11 6.1909013664e-11 -8.6260841832e-12 -1.6161814818e-12 3.516875665e-12 -8.6260841832e-12 
-1.4700347714e-10 -1.9368497264e-11 1.5414344402e-11 -1.4700347714e-10 -2.0486988874e-11 -1.2972507683e-11 -4.2479134433e-12 -2.0486988874e-11 -7.4753551025e-11 
-7.3132028022e-13 1.0112820131e-10 1.0112820131e-10 1.3297999363e-11 8.8233971317e-11 1.1554862932e-10 1.1554862932e-10 8.3310294516e-11 9.2466408939e-11 
1.9507229654e-10 1.9507229654e-10 1.3457492958e-10 1.6147313094e-10 3.8973193948e-10 3.8973193948e-10 -8.7584680178e-12 4.1296607847e-11 1.2974526017e-10 
1.2974526017e-10 -1.7378062197e-10 -8.743762345e-11 -5.7923654575e-11 -1.7378062197e-10 -1.6512096496e-10 -4.8447818773e-11 -8.3259162683e-12 -1.6512096496e-10 
4.3643586389e-11 5.2351950688e-11 1.3251476292e-10 1.3251476292e-10 -2.6538008483e-10 -1.0986507364e-10 -8.4646141529e-11 -2.6538008483e-10 3.6291897003e-11 
6.1041040345e-11 1.1759946265e-10 1.1759946265e-10 -1.5727526153e-10 -5.9343743813e-11 -2.3261894654e-11 -1.5727526153e-10 -1.4267449955e-10 -2.5464568e-11 
6.2604767548e-11 -1.4267449955e-10 -2.7674563254e-11 1.5082136999e-11 1.0101602625e-10 1.0101602625e-10 9.6508829377e-11 1.0033547383e-10 2.2396819679e-10 
2.2396819679e-10 8.0678863476e-11 9.0296098069e-11 1.7896603845e-10 1.7896603845e-10 -3.3347961279e-10 -1.3103246404e-10 -1.2530992317e-10 -3.3347961279e-10 
1.8711090838e-11 4.4556915733e-11 1.0618299343e-10 1.0618299343e-10 -4.571609466e-11 7.8087625273e-12 8.6148452132e-11 8.6148452132e-11 -4.8368230668e-11 
2.4414461722e-11 1.2970886895e-10 1.2970886895e-10 -3.7931300705e-11 2.324737636e-11 1.0045812434e-10 1.0045812434e-10 -6.4235344293e-11 2.5316785502e-11 
1.4555675879e-10 1.4555675879e-10 -6.8768653248e-11 -1.7818491297e-11 3.0075244545e-11 -6.8768653248e-11 -1.6235992995e-10 -5.8354603715e-11 -5.4933266336e-11 
-1.6235992995e-10 -7.7524099568e-11 -6.1565411079e-12 3.3146795676e-11 -7.7524099568e-11 -7.2885284039e-11 -3.2037875332e-11 -3.0748040629e-11 -7.2885284039e-11 
6.6200539377e-12 3.017979311e-11 1.0275195295e-10 1.0275195295e-10 -2.9770053887e-11 -6.5247344939e-12 2.3030828381e-11 -2.9770053887e-11 -2.2885543333e-10 
-8.1431745371e-11 -3.1680621295e-11 -2.2885543333e-10 -1.4063621422e-11 1.7931998272e-11 6.702842315e-11 6.702842315e-11 -2.5733362111e-11 2.2618943257e-11 
7.0894818854e-11 7.0894818854e-11 -1.3419875744e-10 -1.938186489e-11 2.2545922332e-11 -1.3419875744e-10 -3.047635619e-11 1.7866934387e-11 6.5852121803e-11 
6.5852121803e-11 -1.3202994481e-10 -5.6929491291e-11 -2.1115163898e-11 -1.3202994481e-10 -8.2867902752e-11 -1.8347499554e-11 2.1071202305e-11 -8.2867902752e-11 
-3.1234775258e-11 1.6339896775e-12 6.437405558e-11 6.437405558e-11 -5.1603839178e-11 -6.2458804082e-12 3.0294289586e-11 -5.1603839178e-11 -3.1399851429e-11 
2.5287240806e-11 4.6957430622e-11 4.6957430622e-11 5.3722279311e-12 1.7492484322e-11 3.4980387747e-11 3.4980387747e-11 3.9572967099e-11 4.1878696588e-11 
1.0069433631e-10 1.0069433631e-10 -6.2787580499e-11 -1.5289341631e-11 1.018612213e-11 -6.2787580499e-11 2.1036185239e-11 3.812496064e-11 8.2471154121e-11 
8.2471154121e-11 -2.2490732718e-11 8.0405927367e-12 4.3814299982e-11 4.3814299982e-11 -3.5628817315e-11 -1.6875527026e-11 -1.0970755659e-11 -3.5628817315e-11 
-4.6766904893e-12 1.5497268154e-11 2.8037212335e-11 2.8037212335e-11 -1.4859667965e-11 -3.2638165626e-12 7.4749535281e-12 -1.4859667965e-11 2.5520628982e-11 
3.9785491497e-11 1.0359287952e-10 1.0359287952e-10 7.5640204174e-12 2.3513754002e-11 7.2911025581e-11 7.2911025581e-11 9.2065746336e-12 3.0808297037e-11 
9.5435528329e-11 9.5435528329e-11 -4.7993598186e-11 -2.48085396e-11 -1.2640862214e-11 -4.7993598186e-11 -6.2147997065e-11 -2.4345839426e-11 -1.650136351e-11 
-6.2147997065e-11 -2.3126632621e-11 6.7005572495e-12 5.5725455371e-11 5.5725455371e-11 3.8698411568e-12 1.1226776731e-11 3.3254882112e-11 3.3254882112e-11 
-4.5650319629e-11 -1.6035504004e-11 -1.0612076367e-11 -4.5650319629e-11 -2.3109867417e-11 -6.027797705e-12 6.7281451224e-12 -2.3109867417e-11 -1.1062673236e-11 
5.7974810691e-12 1.3391705167e-11 1.3391705167e-11 3.8602312591e-12 1.7469728121e-11 3.861264062e-11 3.861264062e-11 -3.7609335586e-11 -1.2657280032e-11 
-4.5979843823e-12 -3.7609335586e-11 1.8455062014e-12 4.5244886548e-12 1.4383565144e-11 1.4383565144e-11 -1.6003968735e-11 -1.5242368415e-12 6.709835576e-12 
-1.6003968735e-11 -6.8756871799e-12 4.0602259629e-13 6.3762558836e-12 -6.8756871799e-12 1.6059303899e-11 2.351747634e-11 3.5710119762e-11 3.5710119762e-11 
-3.0713302574e-11 -1.1000440441e-11 -4.7101069848e-12 -3.0713302574e-11 3.6371387482e-12 1.10144337e-11 1.6147607552e-11 1.6147607552e-11 -6.5942476014e-12 
6.4742085381e-14 6.622911216e-12 6.622911216e-12 -5.2873996016e-12 -3.3404154606e-13 5.9526160476e-12 5.9526160476e-12 -1.0702835361e-11 -3.5826150004e-13 
2.654356861e-12 -1.0702835361e-11 3.5615315509e-12 5.5104263544e-12 1.2012822095e-11 1.2012822095e-11 -4.0693956938e-12 -4.610036111e-13 5.2776653049e-12 
5.2776653049e-12 -4.556932036e-12 -8.6014319056e-13 7.8063122652e-13 -4.556932036e-12 -2.636427205e-12 1.8508580724e-12 5.0823431326e-12 5.0823431326e-12 
-6.1380993025e-12 -5.0290066118e-13 3.7453419637e-12 -6.1380993025e-12 -1.4465247202e-11 -3.7656960036e-12 -3.1481079425e-13 -1.4465247202e-11 2.3407116096e-12 
5.4157202683e-12 8.2438381222e-12 8.2438381222e-12 -1.1714281793e-10 -8.5382736176e-11 -4.5379745892e-11 -1.1714281793e-10 -8.5981132893e-12 -2.4152068099e-12 
-2.1799007473e-15 -8.5981132893e-12 -1.0138089899e-11 -1.0896361151e-12 3.4748460144e-12 -1.0138089899e-11 -1.375605606e-11 2.7109157973e-11 1.0885819809e-10 
1.0885819809e-10 -1.4727746275e-10 -2.3314869731e-11 8.4882532481e-11 -1.4727746275e-10 9.4944107957e-12 1.0241592037e-11 2.6320897167e-11 2.6320897167e-11 
1.3516502132e-11 1.9773991734e-11 2.7323706134e-11 2.7323706134e-11 -1.5201038848e-10 -5.3882232432e-11 8.6546209161e-12 -1.5201038848e-10 9.7893597715e-12 
1.3881652234e-11 3.0567987994e-11 3.0567987994e-11 1.1670304531e-11 2.1830456839e-11 2.816863863e-11 2.816863863e-11 -3.109735441e-11 1.0922240032e-11 
1.9047515378e-11 -3.109735441e-11 2.7627071106e-11 9.2739953552e-11 2.5181777534e-10 2.5181777534e-10 1.5892959713e-11 5.2684716869e-11 1.1213972342e-10 
1.1213972342e-10 9.618405663e-12 1.036514101e-11 2.1878023327e-11 2.1878023327e-11 -1.9550020249e-11 -8.1845869409e-12 -2.6230928106e-12 -1.9550020249e-11 
-1.2480799216e-10 -5.2877275948e-11 -4.9006531893e-11 -1.2480799216e-10 -4.8110936523e-11 2.415588932e-11 8.1358667202e-11 8.1358667202e-11 -3.2124672975e-12 
4.3420000733e-13 2.9990501902e-12 -3.2124672975e-12 -1.4454836643e-10 -7.2985519896e-11 -4.9532113678e-11 -1.4454836643e-10 -1.847918826e-11 -2.8446870819e-12 
4.8840253416e-12 -1.847918826e-11 -4.3917286486e-12 -1.1634411577e-13 4.6699800643e-12 4.6699800643e-12 -3.2647189172e-10 -1.4458665019e-10 -1.1031445809e-10 
-3.2647189172e-10 -4.0365267649e-12 5.9732058639e-11 1.2073606813e-10 1.2073606813e-10 -1.3026051857e-13 5.5196095315e-12 1.3432400987e-11 1.3432400987e-11 
5.5215185874e-12 9.0569846032e-12 2.2136426809e-11 2.2136426809e-11 -3.7543315465e-11 1.4734600821e-11 8.9123414644e-11 8.9123414644e-11 2.1199128774e-11 
7.5075368267e-11 2.4949870296e-10 2.4949870296e-10 -1.104871785e-12 8.1123926075e-12 3.2659819178e-11 3.2659819178e-11 -2.2350288967e-12 3.8948936368e-12 
1.224394526e-11 1.224394526e-11 -1.7831211041e-10 -3.4906477711e-11 -1.3666118811e-12 -1.7831211041e-10 3.0900490461e-12 1.2279737663e-11 3.7756113291e-11 
3.7756113291e-11 -6.0092085736e-12 6.289254387e-12 1.5072264187e-11 1.5072264187e-11 -1.3793364815e-10 -1.5869881076e-11 -2.3360707733e-12 -1.3793364815e-10 
7.4573618629e-11 1.1700862468e-10 2.6803275669e-10 2.6803275669e-10 2.9143617597e-11 9.6602526728e-11 1.7499715568e-10 1.7499715568e-10 -1.1724041055e-11 
-1.3718382116e-12 -1.0204307339e-12 -1.1724041055e-11 -2.0020840582e-11 -1.1563541175e-11 -6.0591282433e-12 -2.0020840582e-11 -5.5521752153e-11 5.93841281e-12 
9.5861899343e-11 9.5861899343e-11 9.4517188938e-12 1.8992392342e-11 3.1277788764e-11 3.1277788764e-11 -2.0134718294e-10 -4.4768611201e-11 3.6482794146e-11 
-2.0134718294e-10 -1.1325049884e-10 6.0861233946e-12 1.1498148545e-10 1.1498148545e-10 2.4817976687e-13 5.5779666879e-12 2.2558223545e-11 2.2558223545e-11 
9.9001445891e-12 1.1787925088e-11 2.5897530323e-11 2.5897530323e-11 6.8113621109e-11 7.288301645e-11 1.6842376244e-10 1.6842376244e-10 -6.8555755364e-12 
2.1927095249e-12 1.4478506012e-11 1.4478506012e-11 1.0525853873e-12 3.8422835041e-12 7.5084011086e-12 7.5084011086e-12 -8.3031399111e-11 -1.6396950469e-11 
5.7532695806e-12 -8.3031399111e-11 -1.0348524994e-10 -4.5687562003e-11 -2.2044488059e-11 -1.0348524994e-10 -2.6243330551e-10 -9.6128955146e-11 -6.4276639342e-11 
-2.6243330551e-10 4.6254086835e-12 1.0378165613e-11 1.7399295703e-11 1.7399295703e-11 7.6744748783e-13 4.4673828937e-12 1.5246469618e-11 1.5246469618e-11 
1.3310503924e-11 6.5735330527e-11 2.1748756555e-10 2.1748756555e-10 -1.7301793385e-10 -4.9204964666e-11 -5.1127014822e-12 -1.7301793385e-10 -4.3246962148e-11 
-9.8132920741e-12 4.7216374222e-11 4.7216374222e-11 -1.5530994479e-10 -6.3301596252e-11 -4.4821558956e-11 -1.5530994479e-10 -1.2750577058e-10 -2.8030026753e-11 
6.2641297333e-11 -1.2750577058e-10 4.6093261544e-11 5.9195382222e-11 1.4156275623e-10 1.4156275623e-10 -2.1008385526e-11 1.0466430575e-11 1.2095705495e-10 
1.2095705495e-10 -2.4477799195e-10 -1.1596961725e-10 -8.0653390798e-11 -2.4477799195e-10 -1.9998370146e-10 -6.1585079123e-11 -1.2517819418e-11 -1.9998370146e-10 
-1.033315364e-10 -2.9824639337e-11 -2.4096524258e-11 -1.033315364e-10 -1.2845285202e-10 -4.7355810688e-11 -3.4092637297e-11 -1.2845285202e-10 -1.6646507326e-10 
-4.2455755602e-11 4.4836288659e-12 -1.6646507326e-10 -6.033345375e-11 1.0447314879e-11 4.372791887e-11 -6.033345375e-11 1.4668379706e-10 1.7918587364e-10 
3.203143293e-10 3.203143293e-10 2.1103894156e-10 2.2655703294e-10 5.056590255e-10 5.056590255e-10 1.9016338515e-11 5.4104083518e-11 1.2593907797e-10 
1.2593907797e-10 3.2742480334e-12 2.0994031063e-11 6.1860710904e-11 6.1860710904e-11 1.5731745711e-10 1.6537835625e-10 3.9157718663e-10 3.9157718663e-10 
1.478199961e-10 1.5720296379e-10 3.6709604011e-10 3.6709604011e-10 1.0005231152e-10 1.2193671939e-10 2.7101896909e-10 2.7101896909e-10 1.3106508689e-10 
1.6284504709e-10 2.9554886602e-10 2.9554886602e-10 -1.4167259135e-11 3.1288067768e-11 1.1289669137e-10 1.1289669137e-10 -2.1231066087e-11 -4.0705941931e-12 
1.3332074281e-11 -2.1231066087e-11 1.0921925872e-11 3.8084661594e-11 1.3556791253e-10 1.3556791253e-10 -1.0154807322e-10 -2.1951169627e-11 3.8033428479e-12 
-1.0154807322e-10 -6.9595884e-11 -1.8699036271e-11 1.7084510271e-11 -6.9595884e-11 -5.9220949348e-11 -2.7183071595e-11 5.3057209427e-12 -5.9220949348e-11 
8.4500853735e-11 1.1485119018e-10 2.1342525608e-10 2.1342525608e-10 4.7992972424e-11 6.744208988e-11 1.698398377e-10 1.698398377e-10 3.8716149217e-11 
5.2976592296e-11 1.1508595849e-10 1.1508595849e-10 6.064703924e-11 8.2781001693e-11 2.0759335907e-10 2.0759335907e-10 -7.8097530712e-12 5.0353080033e-12 
5.8719265068e-11 5.8719265068e-11 -6.0606125086e-11 -1.8909263984e-11 4.7488090706e-12 -6.0606125086e-11 1.079249253e-10 1.264021502e-10 2.667479245e-10 
2.667479245e-10 2.9525895609e-11 6.0990000808e-11 1.5407980358e-10 1.5407980358e-10 2.5719720051e-11 3.0592964733e-11 8.2204915216e-11 8.2204915216e-11 
1.4960416913e-11 5.226735884e-11 1.5238832425e-10 1.5238832425e-10 6.3817288157e-11 7.8994612569e-11 1.7733159927e-10 1.7733159927e-10 3.5892402356e-11 
5.9213686694e-11 6.431501095e-11 6.431501095e-11 -1.8691739542e-11 7.7125547059e-12 4.1076654836e-11 4.1076654836e-11 -5.2760932213e-11 -1.9724957186e-11 
-1.3266106012e-12 -5.2760932213e-11 2.5218170818e-11 2.8441461437e-11 7.9133567745e-11 7.9133567745e-11 -2.1375125185e-11 -4.3481052317e-12 5.5136704165e-12 
-2.1375125185e-11 -3.9780286042e-11 -8.9888645482e-12 9.4777005904e-12 -3.9780286042e-11 1.8881713439e-11 2.204967545e-11 6.913681111e-11 6.913681111e-11 
6.0719732967e-11 6.7114985555e-11 1.5015448148e-10 1.5015448148e-10 3.2728882925e-11 4.4501235013e-11 8.5139982062e-11 8.5139982062e-11 1.1531819053e-11 
2.9441729657e-11 7.299785129e-11 7.299785129e-11 -2.0018321016e-11 -5.8815678524e-12 4.7362688681e-12 -2.0018321016e-11 -1.6961322343e-11 1.1760159857e-11 
2.6538302486e-11 2.6538302486e-11 -1.236737882e-11 8.0477338466e-12 3.1381294973e-11 3.1381294973e-11 5.0890821978e-12 2.0309036124e-11 5.0582781678e-11 
5.0582781678e-11 1.6661421055e-11 3.1077213193e-11 8.4360565752e-11 8.4360565752e-11 -1.5222250536e-11 4.7719192855e-12 2.441487125e-11 2.441487125e-11 
2.9278799756e-11 4.0047785975e-11 5.9997014269e-11 5.9997014269e-11 3.5814607406e-11 4.8433253948e-11 1.2305173865e-10 1.2305173865e-10 2.1402252513e-11 
3.0523787268e-11 8.2948660219e-11 8.2948660219e-11 4.499183596e-11 5.3725354029e-11 9.8867810011e-11 9.8867810011e-11 2.7589217007e-11 3.5678422258e-11 
8.9387960735e-11 8.9387960735e-11 8.1515392162e-14 5.115737196e-12 1.9088837412e-11 1.9088837412e-11 4.7329892638e-11 5.2730641119e-11 1.0958106624e-10 
1.0958106624e-10 1.8052570634e-11 2.4330873388e-11 6.0832655978e-11 6.0832655978e-11 2.4265151993e-11 4.1422345646e-11 6.2421902362e-11 6.2421902362e-11 
-3.1592846322e-12 2.561878942e-12 1.282720569e-11 1.282720569e-11 5.5737604847e-12 8.4724511336e-12 1.7959468382e-11 1.7959468382e-11 -8.4584805088e-12 
3.0719771425e-12 1.9958193366e-11 1.9958193366e-11 5.349918878e-12 2.0112898262e-11 4.756898286e-11 4.756898286e-11 -4.8463384378e-11 -1.1936256471e-11 
-8.6423391512e-12 -4.8463384378e-11 -6.4565205582e-11 -2.8677283259e-11 -2.5412611159e-11 -6.4565205582e-11 1.3020314022e-11 2.7395566028e-11 4.007531995e-11 
4.007531995e-11 -4.1820804433e-11 -1.8709411495e-11 -1.4062884072e-11 -4.1820804433e-11 -3.8639145986e-11 -1.2224524421e-11 -2.3923195931e-12 -3.8639145986e-11 
-2.0085344823e-11 -4.1010349468e-12 -1.8344902301e-12 -2.0085344823e-11 -7.0369581669e-12 3.2861923442e-12 1.2597855823e-11 1.2597855823e-11 -6.4212089987e-12 
4.6181744969e-12 1.2818530502e-11 1.2818530502e-11 -7.2620391122e-12 1.8462198012e-12 7.150540311e-12 -7.2620391122e-12 -2.7891979828e-12 3.1519123318e-12 
9.872145651e-12 9.872145651e-12 -1.1671074479e-11 -3.1105553962e-12 -2.0451801252e-12 -1.1671074479e-11 -2.4542942372e-11 -1.1263716756e-11 -6.2604208713e-12 
-2.4542942372e-11 -9.5635955707e-12 -4.6169468159e-12 -2.9064876134e-12 -9.5635955707e-12 1.9264590949e-12 4.3001606653e-12 8.6052602398e-12 8.6052602398e-12 
9.617029047e-12 1.4025714736e-11 1.9985556217e-11 1.9985556217e-11 -7.4059356126e-13 3.0807485023e-12 4.425265059e-12 4.425265059e-12 -1.0224980215e-13 
1.0779268642e-12 3.3611247379e-12 3.3611247379e-12 -4.7800380628e-12 -5.1984024856e-13 3.5591731139e-13 -4.7800380628e-12 1.4296817035e-12 3.6102530511e-12 
9.7919452454e-12 9.7919452454e-12 -6.7706736353e-12 -1.7670990061e-12 8.1825264143e-13 -6.7706736353e-12 -1.0399732814e-11 -5.2929034745e-12 -2.955643712e-12 
-1.0399732814e-11 1.3580312438e-12 3.9065716517e-12 1.0347937105e-11 1.0347937105e-11 5.7842251176e-12 7.4439843872e-12 1.9297800495e-11 1.9297800495e-11 
-1.6855650997e-11 -1.1099318112e-11 -4.3253008911e-12 -1.6855650997e-11 -4.3457856596e-12 -2.925814387e-12 -1.8761799534e-12 -4.3457856596e-12 5.2567328485e-12 
1.0997593953e-11 1.3756323199e-11 1.3756323199e-11 -3.4973917883e-12 -1.1712466947e-12 3.5757664831e-12 3.5757664831e-12 -1.6811177032e-12 2.0966987606e-12 
4.0368689426e-12 4.0368689426e-12 -4.9814242165e-12 -1.2803099635e-12 -7.0000819961e-14 -4.9814242165e-12 4.3867032144e-12 4.7984210721e-12 1.1544815713e-11 
1.1544815713e-11 -7.6815724056e-13 1.7481977994e-12 6.5660094412e-12 6.5660094412e-12 6.7186943058e-12 1.0087576334e-11 1.441879936e-11 1.441879936e-11 
-1.1450159485e-11 -6.342887423e-12 -3.2838930919e-12 -1.1450159485e-11 -5.0102901102e-12 -3.5790485943e-12 -1.3853112954e-12 -5.0102901102e-12 -6.3862436802e-12 
3.1418551802e-12 1.43466285e-11 1.43466285e-11 4.6032989358e-12 5.0105741825e-12 1.3371166882e-11 1.3371166882e-11 -9.847311483e-12 -7.1369787711e-12 
-4.1793297458e-12 -9.847311483e-12 -6.860581179e-12 6.9501478378e-14 2.5410107006e-12 -6.860581179e-12 7.1217550268e-12 1.2933185083e-11 1.429250989e-11 
1.429250989e-11 -7.1053998755e-12 -2.3154710889e-12 2.6554539643e-12 -7.1053998755e-12 -4.1056918928e-11 -1.5688336235e-11 -8.7405448371e-12 -4.1056918928e-11 
-4.2315742097e-11 -1.0657984502e-11 4.8351765986e-12 -4.2315742097e-11 -4.0486331553e-11 -1.5503172695e-11 -7.5881957511e-12 -4.0486331553e-11 -4.1800268011e-11 
-1.4835488765e-11 -1.1625643224e-11 -4.1800268011e-11 -1.7144245544e-11 -1.0078618505e-12 4.4477973943e-12 -1.7144245544e-11 -3.5259500742e-11 -1.3364894678e-11 
-5.2388045804e-12 -3.5259500742e-11 -2.5304651587e-11 -7.57990507e-12 -4.8456733432e-12 -2.5304651587e-11 -2.2631879361e-11 -3.3604277476e-12 6.5634271084e-12 
-2.2631879361e-11 -3.7786582591e-11 -2.6167904457e-12 9.2651130368e-12 -3.7786582591e-11 -1.5191552208e-11 -3.5779675089e-13 7.9165669587e-12 -1.5191552208e-11 
7.272133195e-12 9.6461383762e-12 1.9077258429e-11 1.9077258429e-11 -2.2736916741e-11 -6.2241365561e-12 1.8126732968e-12 -2.2736916741e-11 5.8243374571e-12 
7.7222895846e-12 1.3254862958e-11 1.3254862958e-11 1.5452242951e-11 2.448515599e-11 5.304380106e-11 5.304380106e-11 -5.3655349683e-11 -2.2455281339e-11 
-1.9819568979e-11 -5.3655349683e-11 -3.4295032165e-11 -9.0815966231e-12 -1.3792212122e-12 -3.4295032165e-11 -2.1304205704e-11 -3.6302993321e-12 5.5056050362e-12 
-2.1304205704e-11 -9.6910696156e-11 -3.8734269336e-11 -3.0888434508e-11 -9.6910696156e-11 -7.4633502399e-11 -2.4789046919e-11 -4.9210506823e-12 -7.4633502399e-11 
4.5562401673e-11 4.9142156964e-11 1.1172774136e-10 1.1172774136e-10 -4.6511210506e-11 -1.0402211109e-11 -3.5416783854e-12 -4.6511210506e-11 -3.5822465873e-11 
-2.2959368542e-13 1.9658878558e-11 -3.5822465873e-11 -2.1928099279e-11 -5.219685595e-12 1.4738448736e-12 -2.1928099279e-11 1.105205982e-11 1.4731612132e-11 
2.6171228049e-11 2.6171228049e-11 1.3102397108e-11 2.2122692533e-11 6.270001036e-11 6.270001036e-11 4.1511621131e-11 4.2454102757e-11 1.0442547611e-10 
1.0442547611e-10 5.007019416e-11 5.5831746809e-11 1.4467925903e-10 1.4467925903e-10 -6.856596277e-12 3.5207356892e-12 1.4177880588e-11 1.4177880588e-11 
-3.6009777484e-11 -1.1183700849e-11 -6.0625216671e-12 -3.6009777484e-11 -5.2112874616e-12 9.4036469491e-12 5.7303570513e-11 5.7303570513e-11 4.704575824e-11 
4.8570710843e-11 1.1480573092e-10 1.1480573092e-10 3.9813718971e-11 4.5319587365e-11 1.0412499366e-10 1.0412499366e-10 2.0545674287e-11 2.8128812856e-11 
6.6771312858e-11 6.6771312858e-11 -1.5607723624e-10 -6.2254636416e-11 -5.1157027347e-11 -1.5607723624e-10 -2.8719848232e-11 -6.3711746522e-12 1.1412062884e-11 
-2.8719848232e-11 -2.2865388953e-11 -8.447414593e-12 -2.7745564537e-12 -2.2865388953e-11 -7.3104593106e-11 -1.9843269601e-11 7.3392627071e-12 -7.3104593106e-11 
-1.4688162848e-10 -4.1338166036e-11 1.0237194513e-11 -1.4688162848e-10 5.2433289124e-11 7.6476259852e-11 1.6712075102e-10 1.6712075102e-10 5.7742103024e-11 
7.0887383485e-11 1.7824251349e-10 1.7824251349e-10 1.1572578407e-11 3.5689881311e-11 1.0738814028e-10 1.0738814028e-10 -1.2579843733e-10 -6.4903279313e-11 
-4.9123883361e-11 -1.2579843733e-10 -9.4217553125e-11 -3.37413692e-11 -2.5477377675e-11 -9.4217553125e-11 7.3486473374e-11 7.7869906241e-11 1.8717532038e-10 
1.8717532038e-10 3.4410572743e-11 7.1166247911e-11 1.5948877935e-10 1.5948877935e-10 7.8478338837e-11 9.3428824269e-11 2.3289063689e-10 2.3289063689e-10 
-2.8042997892e-11 -1.303182177e-11 -6.5432803387e-12 -2.8042997892e-11 -3.7799307171e-11 -5.4454430056e-12 3.5265020176e-11 -3.7799307171e-11 5.0367673255e-11 
5.6357116152e-11 1.3145241059e-10 1.3145241059e-10 4.6777383479e-11 5.6368646927e-11 1.1647006959e-10 1.1647006959e-10 -1.0849051643e-10 -5.6091672533e-11 
-4.6100311033e-11 -1.0849051643e-10 5.5373264967e-12 9.4582128028e-12 3.66124607e-11 3.66124607e-11 8.2172043406e-11 1.0364527536e-10 1.8168368123e-10 
1.8168368123e-10 9.968532463e-11 1.072958366e-10 2.4005783877e-10 2.4005783877e-10 9.0275987872e-11 1.1063051978e-10 2.6720949235e-10 2.6720949235e-10 
7.2862962548e-11 7.8018133857e-11 1.843540036e-10 1.843540036e-10 -5.0080107141e-11 9.1413734305e-12 4.5015337711e-11 -5.0080107141e-11 4.0584461594e-11 
7.6121756138e-11 1.6735478227e-10 1.6735478227e-10 4.6281011279e-12 2.568625581e-11 8.9988643062e-11 8.9988643062e-11 -1.0605476886e-10 3.0951343666e-13 
1.1181678542e-10 1.1181678542e-10 -7.4782650815e-13 5.0748032813e-11 1.603346937e-10 1.603346937e-10 5.2367867112e-11 7.6376223582e-11 1.5219470931e-10 
1.5219470931e-10 -4.4177918544e-11 2.4135665276e-12 5.0611452016e-11 5.0611452016e-11 -4.4650259204e-11 -8.0062505755e-12 2.637545978e-11 -4.4650259204e-11 
-9.4095050304e-11 -5.1151414705e-12 7.1107691775e-11 -9.4095050304e-11 -1.3913914475e-10 -3.5535658958e-11 5.5394037042e-12 -1.3913914475e-10 -3.076761194e-10 
-1.4755419826e-10 -1.2746268234e-10 -3.076761194e-10 -1.8417337335e-10 -7.524134681e-11 -5.9774379843e-11 -1.8417337335e-10 8.1711133452e-11 1.0380502065e-10 
2.314239459e-10 2.314239459e-10 1.9296931787e-10 2.0867835594e-10 4.7282632619e-10 4.7282632619e-10 1.1745811045e-10 1.195544574e-10 2.7898143215e-10 
2.7898143215e-10 9.5074167644e-11 1.0114001526e-10 2.4731081709e-10 2.4731081709e-10 -6.2926777552e-11 -2.7869508096e-11 1.1866385648e-11 -6.2926777552e-11 
5.0881307215e-12 4.5068437551e-11 7.2791931727e-11 7.2791931727e-11 -3.1312638794e-11 7.2091592469e-12 5.5473039547e-11 5.5473039547e-11 2.9500723534e-12 
8.3751115032e-12 1.8222896143e-11 1.8222896143e-11 2.6184945301e-12 5.2234251837e-11 1.8748795363e-10 1.8748795363e-10 -9.8171309534e-12 -6.4833199816e-13 
5.4347689515e-12 -9.8171309534e-12 -3.0717773075e-12 2.7611903782e-12 1.0753616929e-11 1.0753616929e-11 -2.0149698993e-10 -5.1869205147e-11 2.4267395073e-11 
-2.0149698993e-10 -1.4731210318e-10 -6.1660837661e-11 2.1782940839e-11 -1.4731210318e-10 5.2811041291e-12 1.0646496907e-11 1.9547538964e-11 1.9547538964e-11 
-1.5646723089e-12 6.9529361579e-13 2.3694086931e-12 2.3694086931e-12 -1.2402832659e-10 -3.8634625073e-11 1.5558451663e-11 -1.2402832659e-10 -1.4064048085e-10 
-5.7981091995e-11 -4.9340027153e-11 -1.4064048085e-10 1.4167298954e-11 1.9390476444e-11 2.8290924602e-11 2.8290924602e-11 1.4262638444e-11 4.4099463919e-11 
6.1964597637e-11 6.1964597637e-11 3.4599894188e-12 8.3292023591e-12 2.3204918222e-11 2.3204918222e-11 6.5915083492e-12 6.4978987252e-11 2.087323044e-10 
2.087323044e-10 1.580737527e-12 3.9296406641e-12 1.1692281809e-11 1.1692281809e-11 1.4073472815e-11 1.8832815725e-11 3.661281146e-11 3.661281146e-11 
5.2602769893e-11 8.651793737e-11 2.4702859274e-10 2.4702859274e-10 -1.02135651e-10 4.2171276225e-11 2.2389567477e-10 2.2389567477e-10 5.8743312495e-12 
1.0682571353e-11 1.3138357397e-11 1.3138357397e-11 -1.6474201467e-11 -6.1519529473e-12 -2.7007855855e-12 -1.6474201467e-11 6.149616669e-12 7.9433029231e-12 
1.2708550408e-11 1.2708550408e-11 -7.1522523392e-11 -2.3374355431e-11 -9.013021177e-12 -7.1522523392e-11 -5.6267292337e-11 4.7423577803e-13 7.1405646559e-11 
7.1405646559e-11 5.0989428301e-12 1.4641563505e-11 2.9195993665e-11 2.9195993665e-11 -1.911709727e-10 -5.4215439691e-11 1.1389612393e-11 -1.911709727e-10 
2.4139395467e-11 3.2124725977e-11 1.6160227856e-10 1.6160227856e-10 -5.2378469675e-12 -2.0879648163e-12 -9.7194821624e-13 -5.2378469675e-12 -1.251764255e-11 
-3.8995926212e-12 -1.0167048286e-12 -1.251764255e-11 -6.820714318e-11 -3.1117193061e-11 -1.031016376e-11 -6.820714318e-11 6.3778558502e-12 1.0494355064e-11 
1.9276719086e-11 1.9276719086e-11 -1.3941799496e-10 -5.8993048909e-11 -3.1559756132e-11 -1.3941799496e-10 -1.0684459756e-11 -2.7257404424e-12 1.1052201989e-12 
-1.0684459756e-11 -7.739267759e-11 2.25549329e-12 3.43177543e-11 -7.739267759e-11 -1.8497554562e-11 4.9270180532e-11 1.4601017403e-10 1.4601017403e-10 
9.508566564e-14 3.6587667196e-12 9.6035176148e-12 9.6035176148e-12 6.5858637642e-11 1.0255423931e-10 1.6861222305e-10 1.6861222305e-10 -2.6708211614e-13 
2.6036748395e-12 9.3394372767e-12 9.3394372767e-12 -1.0024754129e-10 -4.4426829151e-11 -2.3911829562e-11 -1.0024754129e-10 -1.18282105e-11 5.8603245829e-13 
8.9147610422e-12 -1.18282105e-11 9.1515214233e-12 1.1985503054e-11 2.5087575522e-11 2.5087575522e-11 5.5091059557e-11 8.4162042568e-11 1.8132369788e-10 
1.8132369788e-10 -1.0467765077e-10 -5.9176918145e-12 7.3819167584e-11 -1.0467765077e-10 -8.013745833e-11 -6.926870253e-11 -3.004133914e-11 -8.013745833e-11 
-1.0435211263e-10 -2.3205294838e-11 1.4087287472e-11 -1.0435211263e-10 1.8401048377e-11 7.4735835412e-11 2.3459131621e-10 2.3459131621e-10 -1.3378600244e-10 
-3.6241205219e-11 2.673953766e-11 -1.3378600244e-10 -9.2609466738e-11 -2.9207566128e-11 -4.2010671337e-12 -9.2609466738e-11 -2.9509897471e-10 -1.1139419549e-10 
-6.8704829799e-11 -2.9509897471e-10 -2.9274178298e-11 3.4111584243e-11 1.3396709406e-10 1.3396709406e-10 -1.2473286088e-10 -2.497460951e-11 5.3225270388e-11 
-1.2473286088e-10 3.0841021321e-14 2.4152128308e-11 8.7263430671e-11 8.7263430671e-11 -2.1252122089e-10 -8.2621864965e-11 -6.3887114147e-11 -2.1252122089e-10 
1.168695397e-10 1.2860215272e-10 3.1068130758e-10 3.1068130758e-10 -8.1114092832e-11 -1.5511157997e-11 4.5759350829e-11 -8.1114092832e-11 2.211746516e-11 
3.030232105e-11 4.998681379e-11 4.998681379e-11 2.9933400252e-12 1.6621737574e-11 3.2869922401e-11 3.2869922401e-11 -2.0210496449e-11 -9.6096421173e-12 
1.7561385665e-12 -2.0210496449e-11 -1.0161613379e-10 -5.0363587862e-11 -4.0150578344e-11 -1.0161613379e-10 3.017159778e-11 4.8275791974e-11 1.2137381025e-10 
1.2137381025e-10 -5.544804926e-11 -1.858293696e-12 4.3507402956e-11 -5.544804926e-11 6.428598059e-12 2.154668245e-11 3.2065419491e-11 3.2065419491e-11 
-1.7742549822e-11 -1.5579982993e-11 -4.7257371849e-12 -1.7742549822e-11 -4.122544664e-11 -1.4737944021e-11 5.3673906617e-12 -4.122544664e-11 -3.2888366676e-11 
-1.3777745752e-11 -4.1997875718e-12 -3.2888366676e-11 -3.2432908375e-12 -1.6902960046e-12 1.1814656842e-11 1.1814656842e-11 -8.8852327529e-13 2.1782229311e-12 
9.2342883442e-12 9.2342883442e-12 -1.4420329464e-11 -2.6266756946e-12 5.1738251583e-12 -1.4420329464e-11 -9.0741885258e-12 4.2306709369e-13 9.1908154321e-12 
9.1908154321e-12 6.3331315811e-13 1.7215337735e-12 2.6372930684e-12 2.6372930684e-12 5.6436080484e-12 8.115043206e-12 1.1606818746e-11 1.1606818746e-11 
-5.8343545914e-12 2.6774532438e-13 3.4691652671e-12 -5.8343545914e-12 2.5812650443e-12 5.7364811737e-12 7.2474537821e-12 7.2474537821e-12 -2.8225144076e-12 
5.288206849e-12 1.5748927559e-11 1.5748927559e-11 -9.2847665638e-12 -1.8504224638e-12 1.0895590276e-12 -9.2847665638e-12 -9.5254080012e-12 -5.202083673e-14 
8.5839038379e-12 -9.5254080012e-12 -1.1405044366e-11 -1.9244978966e-12 1.4563232622e-12 -1.1405044366e-11 -9.4606738499e-12 6.9724665338e-13 2.4711131966e-12 
-9.4606738499e-12 2.1806587072e-11 2.4106472322e-11 5.0458640605e-11 5.0458640605e-11 -4.3904189174e-13 3.3995183155e-12 7.8578935762e-12 7.8578935762e-12 
1.5498725287e-11 3.1232566041e-11 9.5747308671e-11 9.5747308671e-11 3.5389790258e-11 4.263683972e-11 9.6723170022e-11 9.6723170022e-11 4.1384555709e-11 
4.8359400982e-11 9.527214331e-11 9.527214331e-11 1.1138353365e-11 1.9274456086e-11 5.2932790549e-11 5.2932790549e-11 -5.7064519642e-11 -1.0366574654e-11 
2.3716064296e-11 -5.7064519642e-11 3.8348722292e-12 1.0200859602e-11 1.9192128169e-11 1.9192128169e-11 -9.5524234847e-11 -4.632668259e-11 -3.2788382563e-11 
-9.5524234847e-11 3.4212369273e-11 4.5553690619e-11 1.0789944011e-10 1.0789944011e-10 -7.5640634e-12 1.7657239366e-11 5.8459924034e-11 5.8459924034e-11 
3.5422328535e-11 3.918744061e-11 9.6938630855e-11 9.6938630855e-11 -1.3604633233e-11 5.265393146e-12 3.1411100087e-11 3.1411100087e-11 2.3700582678e-11 
3.318126666e-11 5.9581150662e-11 5.9581150662e-11 -7.5123797262e-11 -8.8807104645e-12 3.6756907727e-11 -7.5123797262e-11 -8.2540921092e-11 -2.8707694572e-11 
5.0520156642e-12 -8.2540921092e-11 6.7932241697e-11 7.7687573046e-11 1.8278308526e-10 1.8278308526e-10 -5.0055043046e-12 8.6594119353e-12 3.4100012369e-11 
3.4100012369e-11 -3.9499982121e-11 9.149825298e-13 6.2760739592e-11 6.2760739592e-11 -1.674575093e-10 -4.8597817611e-11 2.5584269084e-12 -1.674575093e-10 
-7.2258092479e-11 -2.4255035538e-11 9.7454280172e-12 -7.2258092479e-11 1.874757153e-10 1.9001531077e-10 4.8091297393e-10 4.8091297393e-10 -1.5631523993e-10 
-4.4276065424e-11 1.4360505359e-11 -1.5631523993e-10 -1.3125091996e-10 -4.5555280584e-11 -3.5255999451e-11 -1.3125091996e-10 -4.3824365297e-10 -1.9256654138e-10 
-1.7372380565e-10 -4.3824365297e-10 -9.0758825589e-11 -2.4520328813e-11 7.0954544017e-12 -9.0758825589e-11 -3.1092160364e-11 -1.7874710283e-11 4.6538221647e-11 
4.6538221647e-11 -2.7474929433e-10 -1.1756112042e-10 -9.297058525e-11 -2.7474929433e-10 4.8080845334e-11 1.4382106157e-10 4.037700931e-10 4.037700931e-10 
-7.2332543277e-11 -2.1537533696e-11 4.5297856974e-11 -7.2332543277e-11 3.8961175244e-11 7.4822279183e-11 1.6363834557e-10 1.6363834557e-10 -6.6711642206e-11 
-2.3936606705e-11 5.6468489113e-12 -6.6711642206e-11 -8.0252598253e-12 -5.1623585264e-13 5.262864678e-12 -8.0252598253e-12 -3.705898763e-12 -1.8507402945e-12 
5.9035832574e-12 5.9035832574e-12 -1.4503421888e-10 -5.6371324477e-11 -2.5843556645e-11 -1.4503421888e-10 -5.788111544e-11 1.5464702778e-11 9.4307712662e-11 
9.4307712662e-11 3.1987884131e-12 8.5275090367e-12 1.296457255e-11 1.296457255e-11 -3.5372113584e-12 2.5023413736e-11 9.5087197623e-11 9.5087197623e-11 
-8.3561518108e-11 -1.5936822555e-11 6.0134560663e-11 -8.3561518108e-11 1.2427167501e-10 1.4286479623e-10 2.9417652875e-10 2.9417652875e-10 -1.4111649182e-10 
-4.4635839609e-11 -8.4351685758e-12 -1.4111649182e-10 5.4344831474e-11 7.9865495863e-11 1.7561137266e-10 1.7561137266e-10 -2.2361635564e-10 -9.5422881984e-11 
-4.2014762376e-11 -2.2361635564e-10 -5.989526695e-11 -8.4542258207e-12 5.3790927706e-12 -5.989526695e-11 -8.5169766201e-12 1.9258322152e-12 6.2622774405e-11 
6.2622774405e-11 -5.894426379e-11 -2.1590492741e-11 1.4181536531e-11 -5.894426379e-11 2.7973912282e-11 1.0094302778e-10 1.6838635994e-10 1.6838635994e-10 
-1.3257779646e-10 -4.5351278913e-11 2.8916275376e-11 -1.3257779646e-10 -1.7073972808e-12 4.1793057923e-12 3.1427446489e-11 3.1427446489e-11 -1.2001056429e-10 
-2.3541935389e-11 6.4318899682e-11 -1.2001056429e-10 -1.5053027568e-10 -3.9244286112e-11 3.7277961796e-11 -1.5053027568e-10 -6.2757127132e-11 3.5910114939e-12 
4.2469405638e-11 -6.2757127132e-11 -5.1007887371e-11 -1.0501671329e-11 2.91280887e-11 -5.1007887371e-11 -2.1326131575e-10 -1.3759809573e-10 -1.0259658852e-10 
-2.1326131575e-10 -2.0726719459e-10 -8.1617934977e-11 -7.6620870428e-11 -2.0726719459e-10 -1.9132991664e-10 -7.4818882891e-11 -1.6871100469e-11 -1.9132991664e-10 
3.5389823668e-11 1.1756224293e-10 1.654998334e-10 1.654998334e-10 -1.2560348258e-10 -3.3893791961e-11 1.7163274546e-11 -1.2560348258e-10 -9.3152398414e-11 
-2.3122961642e-11 1.2538860056e-11 -9.3152398414e-11 9.1377786825e-12 5.9259599028e-11 1.9308292229e-10 1.9308292229e-10 -4.982747817e-12 3.9269252964e-11 
1.0848119485e-10 1.0848119485e-10 -7.0954464525e-12 2.5955217962e-11 1.2746422849e-10 1.2746422849e-10 -3.192928825e-11 3.1093316192e-11 5.7648192057e-11 
5.7648192057e-11 -1.5785225309e-10 -6.5819912021e-11 -2.7689334889e-11 -1.5785225309e-10 -7.0206871111e-11 -1.5291621358e-11 2.1573892469e-11 -7.0206871111e-11 
-1.2701809646e-10 -5.24479625e-11 -1.9246441038e-11 -1.2701809646e-10 3.5873344588e-11 8.5273508692e-11 1.7245524672e-10 1.7245524672e-10 3.3100644483e-11 
4.9095927589e-11 1.0500902793e-10 1.0500902793e-10 -2.3975518323e-11 2.7609756046e-11 1.4425096228e-10 1.4425096228e-10 1.5051171438e-11 5.4021370717e-11 
1.5531415785e-10 1.5531415785e-10 -5.6801873463e-11 -3.3716649246e-11 -1.6947677291e-11 -5.6801873463e-11 -3.9387052999e-11 1.9712885964e-11 9.0002867035e-11 
9.0002867035e-11 -5.4220154213e-11 -9.5489616936e-12 2.3870485906e-11 -5.4220154213e-11 -3.983348694e-11 -3.0762538194e-12 3.1677370759e-11 -3.983348694e-11 
3.2647321229e-11 3.8616823493e-11 7.9006255278e-11 7.9006255278e-11 6.3317300134e-12 2.7360930154e-11 4.0206539833e-11 4.0206539833e-11 3.274481749e-11 
4.304329935e-11 1.1771998316e-10 1.1771998316e-10 -1.4367491876e-11 4.7635937414e-13 3.6529292502e-11 3.6529292502e-11 2.1472041157e-12 2.4958937185e-11 
3.0269758699e-11 3.0269758699e-11 -3.3319248392e-11 7.6705102994e-12 5.1582838092e-11 5.1582838092e-11 -8.85022709e-11 -4.1252827797e-11 -2.3160801303e-11 
-8.85022709e-11 -9.1775970546e-11 -4.2131475204e-11 -3.5141454251e-11 -9.1775970546e-11 -6.708454344e-11 -4.5923794616e-11 -3.1696561944e-11 -6.708454344e-11 
2.5144501161e-12 1.6214222967e-11 6.0201226916e-11 6.0201226916e-11 -6.9346361124e-11 -2.5378908044e-11 -1.6904130832e-11 -6.9346361124e-11 1.6307013389e-11 
3.0101834847e-11 4.3955851764e-11 4.3955851764e-11 -9.2173467363e-12 8.8582436697e-13 6.4796761369e-11 6.4796761369e-11 -4.3275968977e-11 -1.346567301e-11 
-1.5450380135e-12 -4.3275968977e-11 -1.7624260554e-11 6.752466641e-12 2.5949443913e-11 2.5949443913e-11 -9.5047269964e-11 -3.0897391773e-11 -1.8659038263e-11 
-9.5047269964e-11 -2.8063291685e-11 3.8741912988e-13 5.0747712556e-11 5.0747712556e-11 -2.8502960538e-11 2.1893230609e-12 3.8196537478e-11 3.8196537478e-11 
-8.6218601653e-11 -3.7035785217e-11 -3.106381313e-11 -8.6218601653e-11 -2.9309185109e-11 -1.3528642723e-12 3.3495433381e-11 3.3495433381e-11 1.8515951409e-11 
2.2925552404e-11 4.9024296188e-11 4.9024296188e-11 5.6673107478e-12 9.0403174585e-12 3.5003011794e-11 3.5003011794e-11 -8.4277331092e-11 -4.6461013349e-11 
-2.2061855559e-11 -8.4277331092e-11 -3.5381453993e-11 -2.9790822931e-12 1.9972426286e-11 -3.5381453993e-11 -5.7556110691e-11 -2.5560203058e-11 -1.6630286251e-11 
-5.7556110691e-11 -2.7299643422e-11 -8.3240830721e-12 1.3867386494e-11 -2.7299643422e-11 -6.5625595643e-12 -2.6712202565e-12 4.6801298208e-12 -6.5625595643e-12 
-1.3900391414e-11 5.6517191856e-12 1.8342595228e-11 1.8342595228e-11 1.7964952469e-11 1.8334821593e-11 6.8231725938e-11 6.8231725938e-11 2.6721493278e-11 
3.1218301159e-11 6.9764805564e-11 6.9764805564e-11 1.4435457735e-11 1.7388836045e-11 3.850430622e-11 3.850430622e-11 -1.0981201658e-11 5.0689749834e-12 
8.8612516745e-12 -1.0981201658e-11 6.9538063668e-12 1.0367478899e-11 2.0322174734e-11 2.0322174734e-11 -2.252471423e-12 7.4691743706e-12 3.5115607052e-11 
3.5115607052e-11 -1.4325378699e-11 -5.0863790811e-12 3.0186177802e-12 -1.4325378699e-11 -1.3608515735e-11 -4.5307276006e-13 1.3555626495e-11 -1.3608515735e-11 
-2.0641382927e-12 2.6506062159e-14 1.0711242631e-11 1.0711242631e-11 -8.9991031215e-12 2.8183350664e-13 2.5589996148e-12 -8.9991031215e-12 -4.5317708691e-12 
-3.8444410679e-12 6.381282937e-12 6.381282937e-12 1.967404278e-12 6.4502932344e-12 1.9945032488e-11 1.9945032488e-11 8.4034252142e-12 9.7831228775e-12 
2.0064061908e-11 2.0064061908e-11 2.6827148347e-12 8.8514521124e-12 1.2549563053e-11 1.2549563053e-11 -1.4642242614e-12 3.1905909112e-12 6.7737833502e-12 
6.7737833502e-12 1.4292231116e-12 5.0918558961e-12 8.3541709923e-12 8.3541709923e-12 -3.7445340862e-12 1.65534763e-12 1.0285766456e-11 1.0285766456e-11 
1.9398587579e-12 2.7539333013e-12 3.8930879408e-12 3.8930879408e-12 -9.2080252875e-13 4.1750203417e-13 2.3247624946e-12 2.3247624946e-12 -8.5258597734e-13 
4.2127962951e-13 1.7323493478e-12 1.7323493478e-12 -2.1144905269e-12 -1.5309691091e-13 1.8339074378e-12 -2.1144905269e-12 3.2193005889e-12 6.5680226127e-12 
7.7189167984e-12 7.7189167984e-12 1.1311262372e-12 1.8062602837e-12 4.4496434791e-12 4.4496434791e-12 -4.7098219554e-12 -1.4094752254e-12 4.8144618081e-13 
-4.7098219554e-12 -3.835226085e-12 -1.7424192418e-12 1.7612513268e-12 -3.835226085e-12 -1.3836608583e-10 -5.9143516092e-11 6.2564019235e-12 -1.3836608583e-10 
-9.1220782434e-11 1.4620171415e-11 1.0048198102e-10 1.0048198102e-10 -1.3018058897e-10 -4.3803848297e-11 -1.1284162736e-11 -1.3018058897e-10 -1.2121571751e-10 
-4.0276304271e-11 -9.378278222e-12 -1.2121571751e-10 -1.4371669718e-10 -4.5985885994e-11 2.1521083175e-11 -1.4371669718e-10 -2.7588557308e-11 1.5102234422e-11 
5.2356032886e-11 5.2356032886e-11 -2.5949599651e-11 8.2357655572e-12 3.9419574094e-11 3.9419574094e-11 -1.4705595873e-10 -5.9482989128e-11 -5.6088852137e-11 
-1.4705595873e-10 -1.0437604102e-10 -4.5507746106e-11 -2.5659412878e-11 -1.0437604102e-10 4.470708693e-11 6.1146449005e-11 1.4507456406e-10 1.4507456406e-10 
-5.3301692251e-11 -1.404573138e-11 1.405292363e-11 -5.3301692251e-11 -2.9103790747e-11 -1.9003399318e-12 5.4683080679e-11 5.4683080679e-11 -7.1455536336e-11 
-1.9924612839e-11 4.0175491754e-12 -7.1455536336e-11 -1.488210174e-11 2.1710180424e-11 7.5441191316e-11 7.5441191316e-11 5.3107929698e-11 6.2731146286e-11 
1.7210372402e-10 1.7210372402e-10 1.1441368418e-11 2.8920122577e-11 6.6063809005e-11 6.6063809005e-11 -8.339329147e-11 -1.2736517483e-12 5.9079783218e-11 
-8.339329147e-11 -7.8378012173e-11 -4.4086959827e-11 -1.9271627999e-11 -7.8378012173e-11 -3.3397206195e-11 -7.3010236462e-12 1.0080329841e-11 -3.3397206195e-11 
-3.8173060187e-11 2.2319293139e-12 6.7648000874e-11 6.7648000874e-11 -7.9437620187e-11 -9.5063120103e-12 7.3082032197e-11 -7.9437620187e-11 3.9019806337e-13 
1.8444284258e-11 7.9456817678e-11 7.9456817678e-11 -5.6632906435e-11 -1.6074995053e-11 3.7037701488e-11 -5.6632906435e-11 -7.7755333524e-11 -1.6830234631e-11 
3.4578568154e-11 -7.7755333524e-11 -9.6452934214e-11 -2.6188623211e-11 2.6529574253e-12 -9.6452934214e-11 4.5586051358e-11 7.1432657733e-11 1.5585299091e-10 
1.5585299091e-10 -4.8142167176e-11 -9.5082757221e-12 -5.5608871017e-12 -4.8142167176e-11 3.5058774858e-11 5.0974905043e-11 1.335821201e-10 1.335821201e-10 
-8.5326047632e-11 -3.8310209964e-11 -3.9670424044e-12 -8.5326047632e-11 -2.9099834723e-11 1.2455388025e-11 5.3225406698e-11 5.3225406698e-11 1.6548849818e-11 
3.3657160243e-11 8.4379589939e-11 8.4379589939e-11 5.7835084765e-11 7.274388003e-11 1.813626352e-10 1.813626352e-10 -2.6632816179e-11 1.4924365867e-12 
6.4875169592e-11 6.4875169592e-11 -7.4877351997e-12 6.2634531096e-12 2.807396209e-11 2.807396209e-11 6.1917111087e-12 2.0835405115e-11 7.5061383776e-11 
7.5061383776e-11 -8.7620333198e-11 -2.9572529555e-11 -1.3755372471e-12 -8.7620333198e-11 -2.2863754861e-12 1.1899396402e-11 8.6789369084e-11 8.6789369084e-11 
2.3503392066e-11 3.6224343213e-11 5.6693864721e-11 5.6693864721e-11 1.3912393188e-11 3.8374168072e-11 1.1780313874e-10 1.1780313874e-10 -7.4768747098e-12 
1.1826300971e-11 4.8000703738e-11 4.8000703738e-11 -5.0474822211e-11 -1.7181218439e-11 -7.0237593503e-12 -5.0474822211e-11 4.0888030241e-11 5.5329928729e-11 
1.0023944103e-10 1.0023944103e-10 -1.6054323119e-10 -6.9649563552e-11 -5.7066305258e-11 -1.6054323119e-10 -1.0575165352e-10 -3.8515319559e-11 -2.1865326918e-11 
-1.0575165352e-10 -5.4644618701e-11 -2.3121388141e-11 -7.8425931572e-12 -5.4644618701e-11 -6.3912058795e-11 -1.2462925003e-11 1.5919883798e-11 -6.3912058795e-11 
-3.6454593347e-11 -2.6953877237e-12 3.7632097071e-11 3.7632097071e-11 -9.0477842665e-11 -4.0771270118e-11 -2.8432087218e-11 -9.0477842665e-11 -1.6315570562e-11 
-2.9930863689e-12 5.7489109304e-12 -1.6315570562e-11 1.8154860938e-11 2.7035696832e-11 7.849524223e-11 7.849524223e-11 3.7099977878e-11 4.5081599886e-11 
9.0924522236e-11 9.0924522236e-11 -3.255692849e-11 -1.3091172662e-11 -1.372598848e-12 -3.255692849e-11 1.8387179043e-11 3.3965723453e-11 7.9500497504e-11 
7.9500497504e-11 -6.0419239993e-11 -2.0229936524e-11 -6.260523483e-12 -6.0419239993e-11 -5.802093056e-11 -2.2737968097e-11 -1.7339701343e-11 -5.802093056e-11 
-7.5451852974e-11 -2.5508118957e-11 -1.2442728069e-11 -7.5451852974e-11 -4.633556808e-11 -3.8943048646e-12 2.7461622944e-11 -4.633556808e-11 -1.3396380211e-11 
9.2241412057e-12 1.9958219005e-11 1.9958219005e-11 -6.805158693e-11 -2.5644366431e-11 -2.3619546639e-11 -6.805158693e-11 -7.835798467e-11 -3.3752268354e-11 
-2.5453346975e-11 -7.835798467e-11 -4.311450024e-11 -8.4923503695e-12 1.0493920609e-11 -4.311450024e-11 -4.3143189651e-11 -2.0032117644e-11 -1.6188292705e-11 
-4.3143189651e-11 -2.9538813362e-11 -1.0492203437e-11 -7.7991032002e-12 -2.9538813362e-11 7.6873660166e-12 1.301878088e-11 2.2325813103e-11 2.2325813103e-11 
-1.3994797399e-11 -1.6672682624e-12 1.8900220662e-11 1.8900220662e-11 -3.1689180453e-11 -9.8694688627e-12 -5.0403806847e-12 -3.1689180453e-11 2.3002304561e-11 
2.7227933891e-11 7.5146861548e-11 7.5146861548e-11 1.190254739e-11 1.2734569396e-11 2.8252683214e-11 2.8252683214e-11 1.8248729772e-11 2.1049828372e-11 
5.1504641856e-11 5.1504641856e-11 2.2611861976e-11 2.7435190817e-11 5.5294147207e-11 5.5294147207e-11 -1.2824400734e-11 -1.4105181524e-13 7.5685325496e-12 
-1.2824400734e-11 7.7891219657e-12 1.2306793977e-11 2.4139584057e-11 2.4139584057e-11 -2.2349171893e-11 1.3090047107e-12 1.7483979183e-11 -2.2349171893e-11 
-7.4785498061e-12 -1.7636423914e-12 4.9053841976e-12 -7.4785498061e-12 3.6773663603e-12 3.8895462296e-12 1.071515741e-11 1.071515741e-11 -1.3243249346e-11 
-2.1486027807e-12 5.9809811266e-12 -1.3243249346e-11 5.2384287532e-13 6.5576990982e-12 1.9026038027e-11 1.9026038027e-11 1.1692474934e-12 3.1011564486e-12 
1.0225376058e-11 1.0225376058e-11 -2.8134134179e-12 4.610787761e-13 2.2005465418e-12 -2.8134134179e-12 -3.0599491676e-12 -4.3688946344e-13 1.742839631e-12 
-3.0599491676e-12 6.8820125849e-12 8.4133760771e-12 1.4530981338e-11 1.4530981338e-11 1.3326193128e-13 7.4711798198e-13 1.8855420867e-12 1.8855420867e-12 
-1.0022233938e-12 3.2478334143e-12 4.1728699795e-12 4.1728699795e-12 -2.6702816664e-13 8.4156200552e-13 1.7781861611e-12 1.7781861611e-12 3.4347463913e-14 
1.3341165199e-12 3.8682360162e-12 3.8682360162e-12 -8.0242959282e-13 5.8068745985e-13 2.216674133e-12 2.216674133e-12 -7.3416096712e-13 6.3689912485e-13 
2.3524068423e-12 2.3524068423e-12 -5.7795810882e-13 8.1140825226e-13 4.4503108566e-12 4.4503108566e-12 -9.995291999e-13 1.8359347007e-12 3.2787434992e-12 
3.2787434992e-12 -1.1496814449e-11 -7.0169949157e-12 -4.0267606348e-12 -1.1496814449e-11 -2.3741420397e-12 2.8857820257e-12 9.016000014e-12 9.016000014e-12 
-4.2834584091e-12 1.9053301371e-12 1.0347008272e-11 1.0347008272e-11 5.6471312261e-11 1.1557380502e-10 2.0408648272e-10 2.0408648272e-10 -1.8256260046e-11 
-3.067609215e-12 3.2104692607e-12 -1.8256260046e-11 -7.6797343088e-12 -5.0848621166e-12 7.0826642544e-13 -7.6797343088e-12 -1.9868060771e-10 -9.0148414825e-11 
-4.7230177464e-11 -1.9868060771e-10 -1.5453726402e-10 -7.1998387323e-11 -3.7535148656e-11 -1.5453726402e-10 -1.0501460796e-10 -7.7486718001e-12 4.1119179763e-11 
-1.0501460796e-10 -1.0443800927e-10 -3.8006230727e-11 -1.8711560006e-11 -1.0443800927e-10 -1.9135248881e-10 -1.0762328757e-10 -8.1830623615e-11 -1.9135248881e-10 
-2.4710776656e-10 -8.641368155e-11 -6.6086251893e-11 -2.4710776656e-10 -9.3238251958e-11 -3.2432862815e-11 -2.0936185228e-11 -9.3238251958e-11 -1.8081819572e-10 
-9.3339625139e-11 -6.6502791395e-12 -1.8081819572e-10 1.0183986963e-10 1.3667800607e-10 2.850501243e-10 2.850501243e-10 -1.2785507654e-10 -4.4969851052e-11 
-1.9035072409e-11 -1.2785507654e-10 1.0034997242e-10 1.1753772537e-10 2.2468030221e-10 2.2468030221e-10 -8.4057825096e-11 1.495597791e-12 8.3342851305e-11 
-8.4057825096e-11 -1.4432333485e-10 -4.2424270692e-11 3.6072405541e-11 -1.4432333485e-10 -1.6018730577e-10 -7.0248431085e-11 -1.6979463146e-11 -1.6018730577e-10 
8.5991174389e-13 4.0439923607e-11 1.8082516465e-10 1.8082516465e-10 2.5988038656e-11 4.567687035e-11 1.1707299099e-10 1.1707299099e-10 -1.7681911975e-10 
-3.3261303334e-11 -8.495076919e-12 -1.7681911975e-10 -8.0835910026e-11 -1.610412696e-11 1.7200586987e-11 -8.0835910026e-11 -7.5088745332e-11 -3.3161139082e-11 
-2.6133315586e-11 -7.5088745332e-11 -1.2796841738e-11 2.5403811585e-11 7.9960530153e-11 7.9960530153e-11 9.0296880001e-11 1.0651400946e-10 2.8624011054e-10 
2.8624011054e-10 -1.4943710823e-10 -7.6854658829e-11 -5.461813294e-11 -1.4943710823e-10 -1.9397608714e-10 -6.7367252316e-11 -2.8390260541e-11 -1.9397608714e-10 
-8.2171818814e-11 -4.9198748e-11 -3.7256133186e-11 -8.2171818814e-11 -1.8201518973e-11 1.374581325e-12 1.6422169448e-11 -1.8201518973e-11 3.8193579542e-11 
8.7947682261e-11 2.587939382e-10 2.587939382e-10 6.486725317e-11 7.1186635218e-11 1.6776571161e-10 1.6776571161e-10 -5.4436604194e-11 -2.2003969219e-11 
-1.9229426588e-11 -5.4436604194e-11 -9.2202498254e-11 -2.3091165367e-11 3.0402663621e-11 -9.2202498254e-11 -1.4752005425e-10 -7.295488156e-11 -6.5841364193e-11 
-1.4752005425e-10 -2.9890031479e-10 -1.2796937378e-10 -1.0509731143e-10 -2.9890031479e-10 -5.7136038248e-12 1.96561381e-11 6.1064295725e-11 6.1064295725e-11 
-1.9585348908e-11 -4.0059532256e-12 4.0756121333e-12 -1.9585348908e-11 8.9820954301e-11 9.2980498109e-11 2.2267584759e-10 2.2267584759e-10 -5.8483749295e-11 
-4.0611466185e-11 -8.0672845203e-12 -5.8483749295e-11 -2.0673216796e-11 -1.4561725268e-11 2.168512064e-12 -2.0673216796e-11 -1.424457079e-10 -4.738230542e-11 
-1.4175586676e-11 -1.424457079e-10 -4.4365333744e-11 -1.1204781044e-11 1.9382147882e-12 -4.4365333744e-11 -6.4517859348e-11 -2.5241030358e-11 -3.8361102947e-12 
-6.4517859348e-11 3.2486921759e-12 1.9743219718e-11 6.6519888106e-11 6.6519888106e-11 -4.2704006488e-11 -7.6533587287e-12 1.8987735217e-11 -4.2704006488e-11 
-2.597935557e-11 -1.7037361796e-11 -7.9840826339e-12 -2.597935557e-11 5.4653772221e-12 1.5169783447e-11 5.5866039331e-11 5.5866039331e-11 5.136509899e-12 
1.2924319125e-11 3.6236000976e-11 3.6236000976e-11 6.3360717247e-12 1.8315805186e-11 3.7378923089e-11 3.7378923089e-11 -7.8989469079e-11 -5.6276953877e-11 
-3.5343677044e-11 -7.8989469079e-11 9.9514680775e-12 2.3309208221e-11 7.8253123701e-11 7.8253123701e-11 1.2117623019e-11 2.0281564144e-11 6.4866812836e-11 
6.4866812836e-11 -9.0333658577e-11 -1.9257678483e-11 -1.366086294e-11 -9.0333658577e-11 -8.4087730126e-11 -3.2909193693e-11 -2.4423076181e-11 -8.4087730126e-11 
-4.1077658267e-11 -2.0579127336e-11 -1.4063914397e-11 -4.1077658267e-11 -8.5494761934e-11 -3.7178803443e-11 -2.7799234623e-11 -8.5494761934e-11 -2.7840076593e-11 
-2.8685566336e-12 1.8098573226e-11 -2.7840076593e-11 -7.7917757291e-12 1.8586499145e-13 2.2004110738e-11 2.2004110738e-11 -1.9347886391e-11 8.4240100572e-13 
1.2595865385e-11 -1.9347886391e-11 -1.2351550362e-11 3.0169998522e-11 1.1616005184e-10 1.1616005184e-10 2.7587941118e-11 3.0998538092e-11 6.6082320789e-11 
6.6082320789e-11 1.8952668601e-11 4.5855048357e-11 1.3397428304e-10 1.3397428304e-10 3.264710808e-13 9.6151772475e-12 3.1020971672e-11 3.1020971672e-11 
1.6352466251e-11 3.0742942337e-11 6.1180291412e-11 6.1180291412e-11 -1.3717788383e-11 -2.8214936391e-12 5.3069620217e-12 -1.3717788383e-11 7.5736588606e-13 
6.788711734e-12 1.533888238e-11 1.533888238e-11 1.5566032241e-11 2.3193368819e-11 5.404839894e-11 5.404839894e-11 9.4938282103e-12 2.7488949621e-11 
7.1090522169e-11 7.1090522169e-11 -5.9486613845e-12 3.3400405872e-12 1.0735130797e-11 1.0735130797e-11 -2.8260732203e-11 -7.6951344935e-12 4.7308266963e-12 
-2.8260732203e-11 -5.8434827431e-12 3.2728309288e-12 2.1493551814e-11 2.1493551814e-11 -1.0669724037e-11 3.9717161604e-12 1.3477887876e-11 1.3477887876e-11 
-3.2417748031e-11 -1.893888016e-11 -9.0784718091e-12 -3.2417748031e-11 -1.8199126203e-11 -6.3257928096e-12 7.7848290131e-12 -1.8199126203e-11 -1.0816962403e-11 
3.7996378951e-12 1.8654454507e-11 1.8654454507e-11 1.3037666096e-11 1.5006512963e-11 3.7995420941e-11 3.7995420941e-11 -6.5294185613e-13 1.2318085692e-11 
3.4912166164e-11 3.4912166164e-11 -5.1116804529e-12 5.7713331094e-12 1.6826371343e-11 1.6826371343e-11 -6.5392455937e-12 5.5670377386e-13 4.5658538199e-12 
-6.5392455937e-12 -1.212332762e-11 -3.7933323375e-12 -2.5003200421e-12 -1.212332762e-11 -1.2843341455e-12 7.0760863946e-12 1.6719577751e-11 1.6719577751e-11 
-4.5682882354e-12 5.9911216574e-12 6.383426578e-12 6.383426578e-12 5.0381101326e-12 6.1211965041e-12 1.1102943363e-11 1.1102943363e-11 -1.192923068e-12 
2.2047889499e-12 1.1224604118e-11 1.1224604118e-11 -5.954501329e-13 5.0768580106e-12 6.4473521223e-12 6.4473521223e-12 -1.0189175763e-11 -6.2223808654e-12 
-3.5233033714e-12 -1.0189175763e-11 2.7414439759e-12 4.1811432285e-12 7.6490827956e-12 7.6490827956e-12 2.0011838121e-12 3.0286636671e-12 5.3784825208e-12 
5.3784825208e-12 -3.3073289074e-13 1.9229799677e-12 7.616242923e-12 7.616242923e-12 -1.260412378e-11 -4.7796872198e-12 -3.7264590003e-12 -1.260412378e-11 
-3.3707095488e-12 4.267606209e-13 2.1633249279e-12 -3.3707095488e-12 6.381556115e-12 9.5576093438e-12 1.1888724541e-11 1.1888724541e-11 8.1030766708e-12 
9.8747196307e-12 1.8754993699e-11 1.8754993699e-11 -1.5506011322e-11 -5.9854222595e-12 -3.644666419e-12 -1.5506011322e-11 -1.2585307742e-11 -2.8134389799e-12 
-1.1678632784e-12 -1.2585307742e-11 -8.3547156724e-12 -6.0351525053e-12 -3.2934718223e-12 -8.3547156724e-12 4.6792151365e-14 3.7546743969e-12 6.9249134517e-12 
6.9249134517e-12 2.9386596867e-12 4.3026971577e-12 8.9493931557e-12 8.9493931557e-12 1.506762795e-12 2.1736316947e-12 5.2245155104e-12 5.2245155104e-12 
-1.9231522081e-12 3.5536153665e-14 1.7141429545e-12 -1.9231522081e-12 -1.048733696e-11 -3.3603322505e-12 -9.1083078986e-13 -1.048733696e-11 -1.5654901965e-11 
-8.3540553228e-12 -6.6957227119e-12 -1.5654901965e-11 -6.2227987201e-12 -1.9807650288e-12 -1.2073162511e-12 -6.2227987201e-12 7.5472074096e-12 1.0465557278e-11 
2.0278345313e-11 2.0278345313e-11 -1.4329834085e-11 -1.1032287867e-11 1.7843619517e-12 -1.4329834085e-11 -1.5141794645e-11 -9.0070568537e-12 -2.912828501e-12 
-1.5141794645e-11 8.4298456647e-14 3.0262617737e-12 1.482383977e-11 1.482383977e-11 -8.0443566013e-12 5.7001339731e-13 2.009963204e-12 -8.0443566013e-12 
1.0683920155e-11 1.6264704034e-11 2.1056875811e-11 2.1056875811e-11 -2.4405744114e-11 -8.8060108691e-12 -3.6222450174e-12 -2.4405744114e-11 1.2133342623e-11 
1.4710143728e-11 3.4392213649e-11 3.4392213649e-11 -1.5992401855e-11 -3.37428177e-12 4.8759336247e-12 -1.5992401855e-11 -2.0914079754e-12 9.4171845216e-12 
2.4347363454e-11 2.4347363454e-11 -3.0329210083e-11 -1.529733594e-11 -8.2699539773e-12 -3.0329210083e-11 -2.3416227914e-11 -3.1124122925e-12 6.998560206e-12 
-2.3416227914e-11 5.0232264254e-12 1.4175681402e-11 2.2180882172e-11 2.2180882172e-11 1.301444579e-11 1.4848678899e-11 4.8811675311e-11 4.8811675311e-11 
-2.8474161028e-11 -9.9025151288e-12 -6.0322138435e-12 -2.8474161028e-11 1.7262586723e-11 2.3033494356e-11 3.8727218921e-11 3.8727218921e-11 1.2579283421e-11 
1.6153908554e-11 4.1956808026e-11 4.1956808026e-11 2.3226725857e-12 8.4909731093e-12 3.4289154305e-11 3.4289154305e-11 -4.0862873971e-11 -1.076604371e-11 
7.0900768039e-13 -4.0862873971e-11 -3.3395803544e-11 -5.7283164114e-12 -2.567020045e-12 -3.3395803544e-11 -3.8347752082e-11 3.4550661727e-12 5.3574322909e-11 
5.3574322909e-11 4.5212589574e-11 4.5994178422e-11 1.08749232e-10 1.08749232e-10 -2.0537240032e-11 -6.0710352303e-12 -3.9362547379e-12 -2.0537240032e-11 
1.5216949713e-11 2.6854966778e-11 7.4400283509e-11 7.4400283509e-11 -8.5965474621e-11 -3.2110532648e-11 -1.5798927319e-12 -8.5965474621e-11 7.3639382331e-12 
1.7347441995e-11 3.9646919772e-11 3.9646919772e-11 -3.9070040972e-11 -7.0321278466e-12 2.3941078819e-11 -3.9070040972e-11 5.9022083394e-13 4.3785779073e-12 
4.1268311259e-11 4.1268311259e-11 7.3275282919e-12 1.4427089157e-11 2.0052212551e-11 2.0052212551e-11 -1.0083601006e-11 1.0531270304e-11 2.3636070703e-11 
2.3636070703e-11 -2.991909763e-11 -1.7375063372e-12 1.5142033967e-11 -2.991909763e-11 -4.1648186309e-11 -1.6846685893e-11 -1.4059927798e-11 -4.1648186309e-11 
-6.8802610795e-11 -1.8122084172e-11 8.6485949669e-12 -6.8802610795e-11 2.7253785788e-11 3.2606352503e-11 6.8451661709e-11 6.8451661709e-11 3.333757214e-11 
5.1545590077e-11 1.0707063778e-10 1.0707063778e-10 1.6648896329e-11 3.0313973341e-11 8.064053033e-11 8.064053033e-11 -2.1152350568e-11 1.5080807646e-11 
4.9599742922e-11 4.9599742922e-11 2.6457416622e-11 4.2816196663e-11 7.6544386715e-11 7.6544386715e-11 -4.3033020289e-11 -1.6963294427e-11 -4.361885284e-12 
-4.3033020289e-11 1.8016216818e-11 5.2890446874e-11 1.4810193631e-10 1.4810193631e-10 1.8427969559e-11 2.7643532606e-11 6.8477997835e-11 6.8477997835e-11 
-1.280718972e-11 6.6630250908e-12 3.7062294629e-11 3.7062294629e-11 6.3374654673e-12 1.5746047706e-11 4.3402286827e-11 4.3402286827e-11 -3.396085514e-11 
-5.3173172633e-13 3.1740160866e-11 -3.396085514e-11 -1.267102802e-10 -4.156230402e-11 -1.2659115779e-11 -1.267102802e-10 -5.0998585709e-11 -1.6074650473e-11 
1.4198361817e-12 -5.0998585709e-11 -7.0552398156e-11 -1.9782925777e-11 8.8755239336e-12 -7.0552398156e-11 -1.5167571183e-11 1.5490851447e-11 6.9094619736e-11 
6.9094619736e-11 8.7685873123e-12 2.1604064581e-11 7.6486348106e-11 7.6486348106e-11 9.1265550802e-11 1.0307929695e-10 2.0404915224e-10 2.0404915224e-10 
-1.5164735268e-11 8.879130967e-12 9.9353484302e-11 9.9353484302e-11 2.2683696351e-11 5.965016453e-11 1.7640643912e-10 1.7640643912e-10 7.4064860821e-11 
8.1409913409e-11 1.8357742577e-10 1.8357742577e-10 -6.916026367e-11 -1.3364725937e-11 1.7438189607e-11 -6.916026367e-11 8.2727399925e-13 3.0609753425e-11 
1.0507117258e-10 1.0507117258e-10 -4.6753130843e-11 -4.2978279083e-12 2.3688628751e-11 -4.6753130843e-11 -4.3371046173e-11 1.3107966211e-11 6.1531459962e-11 
6.1531459962e-11 -2.6729627661e-10 -1.0263715936e-10 -8.7940964027e-11 -2.6729627661e-10 -2.6034787439e-10 -9.9789582141e-11 -4.7262843465e-11 -2.6034787439e-10 
-3.7696907965e-11 5.0369083344e-12 5.654133963e-11 5.654133963e-11 3.3275053349e-11 3.9362764921e-11 7.6441681729e-11 7.6441681729e-11 -2.190666077e-11 
-6.79484336e-12 5.382245413e-11 5.382245413e-11 4.0423976753e-12 7.7720770611e-11 1.5767633171e-10 1.5767633171e-10 -1.4624560846e-10 -4.278891102e-11 
7.5970194756e-12 -1.4624560846e-10 -2.4991214786e-10 -8.6892431379e-11 3.0052079244e-11 -2.4991214786e-10 -2.0637125433e-10 -8.339195064e-11 -3.1724795026e-11 
-2.0637125433e-10 -4.4603814124e-11 5.3221813896e-12 8.2716457735e-11 8.2716457735e-11 -5.6910519265e-10 -2.3490924503e-10 -2.0568156232e-10 -5.6910519265e-10 
-1.1773905022e-10 -2.6233211562e-12 2.8261871377e-11 -1.1773905022e-10 -1.8735757572e-10 -7.5910652879e-11 -3.6665871398e-11 -1.8735757572e-10 6.188466718e-11 
7.4989922777e-11 1.7333391004e-10 1.7333391004e-10 -1.1844666158e-11 1.6760272325e-11 6.4198593833e-11 6.4198593833e-11 -9.6252940102e-11 1.6031920042e-11 
1.0581489006e-10 1.0581489006e-10 -3.7928643132e-10 -1.4855868367e-10 -1.2079788501e-10 -3.7928643132e-10 -4.1609414532e-11 5.734476377e-11 2.5991175076e-10 
2.5991175076e-10 -4.6006807003e-11 4.074603863e-11 2.4549136837e-10 2.4549136837e-10 -5.1188679647e-12 7.8833485e-11 1.7428398296e-10 1.7428398296e-10 
-6.1255008869e-12 9.8519112913e-11 2.7938668797e-10 2.7938668797e-10 6.3103922259e-11 8.0384863828e-11 2.0613851391e-10 2.0613851391e-10 -8.2793308296e-11 
-3.1525301669e-12 6.9653858463e-11 -8.2793308296e-11 1.0910000926e-10 1.290266499e-10 2.6510234084e-10 2.6510234084e-10 2.074243712e-11 4.4818799303e-11 
1.0135066358e-10 1.0135066358e-10 -1.2519010234e-11 -3.0440999202e-12 -4.4368984573e-13 -1.2519010234e-11 7.3448000062e-13 7.6774867032e-12 1.5975353296e-11 
1.5975353296e-11 -7.288314912e-11 2.5101348733e-11 1.1189720039e-10 1.1189720039e-10 -1.8430011427e-10 -3.3879467139e-11 3.9302814123e-12 -1.8430011427e-10 
-1.2917117929e-11 -3.7898650204e-12 1.5281429498e-12 -1.2917117929e-11 -7.3642228448e-11 -1.4858514279e-11 1.4254582727e-11 -7.3642228448e-11 -1.567073934e-11 
-3.1003639243e-12 -1.9588567355e-12 -1.567073934e-11 -2.7866481997e-10 -1.6338363839e-10 -1.3148354163e-10 -2.7866481997e-10 -8.1994387728e-12 -6.5088503977e-12 
6.1322461705e-12 -8.1994387728e-12 -1.23079856e-10 -4.8450596188e-11 -3.8646147812e-11 -1.23079856e-10 -7.538374267e-12 -1.2234860709e-12 4.208220338e-12 
-7.538374267e-12 8.8918882686e-13 3.1449815743e-12 8.4825295989e-12 8.4825295989e-12 -2.2965748434e-10 -1.0420794883e-10 -9.5252666837e-11 -2.2965748434e-10 
4.1043980875e-11 6.7103150331e-11 1.4746416879e-10 1.4746416879e-10 6.743726059e-12 7.5999871891e-12 1.8138976752e-11 1.8138976752e-11 -4.9973596586e-13 
1.3842340332e-11 2.1143675634e-11 2.1143675634e-11 4.4905148417e-11 8.4170020851e-11 2.2954973073e-10 2.2954973073e-10 -1.0232932596e-11 -3.1406506342e-12 
-1.34094677e-12 -1.0232932596e-11 -7.1886337093e-11 7.1751747102e-13 3.5525369622e-11 -7.1886337093e-11 2.4611880304e-11 4.5128321016e-11 1.2298759868e-10 
1.2298759868e-10 -1.7937717949e-11 -8.6060684805e-12 -4.8005035705e-12 -1.7937717949e-11 2.9784590916e-12 4.4484485925e-12 1.1840082316e-11 1.1840082316e-11 
-6.3669728024e-11 -1.0135853732e-11 2.4747541756e-11 -6.3669728024e-11 5.8051900021e-11 8.630732618e-11 1.746392738e-10 1.746392738e-10 -4.0347153445e-11 
-2.9010170444e-11 -1.6858376111e-11 -4.0347153445e-11 -3.6949341362e-10 -1.5960572174e-10 -1.4051486464e-10 -3.6949341362e-10 -1.0777003961e-11 3.2638775934e-12 
8.5756423677e-12 -1.0777003961e-11 9.4684453416e-12 1.2358096729e-11 3.171339793e-11 3.171339793e-11 -4.0336371335e-11 1.3130995821e-11 9.6862435515e-11 
9.6862435515e-11 -7.4700691746e-12 2.1954481029e-12 1.0536621072e-11 1.0536621072e-11 -1.4479272268e-11 2.1252578063e-11 9.4013994205e-11 9.4013994205e-11 
-5.7038866634e-11 -9.3803653055e-12 9.9073119395e-12 -5.7038866634e-11 -7.3137151304e-12 1.5004427662e-12 1.8796972364e-11 1.8796972364e-11 8.0467565472e-12 
3.7273631796e-11 1.2476311166e-10 1.2476311166e-10 -4.2775406932e-12 1.0050228276e-12 4.0011018656e-12 -4.2775406932e-12 1.740653029e-11 6.7528315766e-11 
2.0194475394e-10 2.0194475394e-10 5.5273434931e-12 5.9728757678e-12 1.4809730739e-11 1.4809730739e-11 -4.6486803573e-12 7.4492083811e-11 2.1814939655e-10 
2.1814939655e-10 -2.2433747711e-10 -8.3372311368e-11 -4.0329111526e-11 -2.2433747711e-10 -1.9072424289e-11 -8.2770350069e-12 -6.8379707036e-12 -1.9072424289e-11 
2.045316926e-11 8.7367299484e-11 1.6989133126e-10 1.6989133126e-10 4.2234479335e-12 4.9497920745e-12 9.724399992e-12 9.724399992e-12 -1.5341496807e-10 
-4.012005548e-11 2.3863323547e-11 -1.5341496807e-10 -6.9336358473e-12 -3.0909168017e-13 7.0219376275e-12 7.0219376275e-12 6.3425640158e-11 9.658324096e-11 
2.3977801888e-10 2.3977801888e-10 -1.1947282386e-10 -4.7788515193e-12 8.8663135375e-11 -1.1947282386e-10 -1.058740554e-11 -3.0620431364e-12 3.7481786764e-12 
-1.058740554e-11 -2.8546097172e-12 4.0022059818e-12 8.5668637355e-12 8.5668637355e-12 -2.5943023275e-11 1.1163919627e-11 6.3503143648e-11 6.3503143648e-11 
5.769676222e-11 9.6372441576e-11 1.850958962e-10 1.850958962e-10 -1.9100060921e-11 2.6295562038e-11 9.0229198883e-11 9.0229198883e-11 -6.3023963682e-12 
-2.2556942713e-12 4.2068206394e-12 -6.3023963682e-12 6.0008960363e-12 3.0122420783e-11 1.3108651318e-10 1.3108651318e-10 -8.8968563528e-11 -5.1147154783e-11 
-2.1994181689e-11 -8.8968563528e-11 -8.9282519478e-12 -2.4111189396e-12 2.8392238875e-12 -8.9282519478e-12 -2.7255325759e-11 -8.251427118e-12 -3.9115171225e-12 
-2.7255325759e-11 3.7787647467e-11 6.2589489778e-11 1.3584156276e-10 1.3584156276e-10 -1.7897042314e-10 -8.4855280647e-11 -4.8857796217e-11 -1.7897042314e-10 
6.8550031816e-12 1.0214929537e-11 1.7537767282e-11 1.7537767282e-11 -1.3737290262e-11 2.5302679057e-11 6.4935811205e-11 6.4935811205e-11 1.4257392272e-10 
1.461422942e-10 3.4575878308e-10 3.4575878308e-10 5.8834040424e-12 4.573986379e-11 8.8368932168e-11 8.8368932168e-11 -3.1707907185e-11 4.2116696415e-11 
1.0920041077e-10 1.0920041077e-10 -1.9511371759e-10 -1.0293261357e-10 -8.1423868842e-11 -1.9511371759e-10 -5.0287689583e-11 -2.6121643741e-11 -3.127666676e-12 
-5.0287689583e-11 2.1198279267e-11 2.9575807138e-11 6.2763513596e-11 6.2763513596e-11 -3.9521010888e-11 8.4486076739e-12 1.0618598321e-10 1.0618598321e-10 
1.4997057492e-10 2.0852861563e-10 4.5196280946e-10 4.5196280946e-10 5.5855609689e-12 3.8497209458e-11 8.9751129573e-11 8.9751129573e-11 -2.5772642343e-11 
1.0339077262e-11 1.3669066508e-10 1.3669066508e-10 -9.8618357695e-11 -1.1863765953e-11 1.0042072365e-10 1.0042072365e-10 -1.5140399734e-10 -5.0517252679e-11 
-3.747024998e-11 -1.5140399734e-10 2.1132508708e-11 3.7883750052e-11 7.525134124e-11 7.525134124e-11 -2.5762964921e-11 -1.4668063507e-11 1.1721328428e-11 
-2.5762964921e-11 -6.4754080622e-11 -1.5842244672e-11 2.1875895294e-11 -6.4754080622e-11 -3.9309233359e-11 1.7975616761e-11 1.374733166e-10 1.374733166e-10 
-1.8663495658e-11 4.2493234817e-11 1.0115706084e-10 1.0115706084e-10 -2.5006599332e-10 -1.4572964288e-10 -9.2095363797e-11 -2.5006599332e-10 -1.4225467703e-10 
-3.4829777408e-11 5.0970054434e-11 -1.4225467703e-10 -9.8401696469e-11 -2.9297551203e-11 -1.3680652327e-11 -9.8401696469e-11 -1.7836684407e-10 -8.7146069982e-11 
-5.6191785945e-11 -1.7836684407e-10 -2.5659103127e-11 2.3710929497e-11 5.7806273631e-11 5.7806273631e-11 -2.449649503e-10 -9.3468324544e-11 -6.4976425154e-11 
-2.449649503e-10 -1.4844713737e-10 -6.1649654089e-11 -3.5366708543e-11 -1.4844713737e-10 2.5002445647e-11 4.5621772217e-11 1.0996048214e-10 1.0996048214e-10 
-1.0751027085e-10 -4.0760614e-11 -7.5940151519e-12 -1.0751027085e-10 -7.7637237898e-11 -3.1673268882e-11 -2.0533493219e-11 -7.7637237898e-11 1.1781677879e-11 
2.4347977613e-11 7.7408044507e-11 7.7408044507e-11 -1.1937257211e-10 -3.0750594064e-11 9.2636661767e-12 -1.1937257211e-10 -1.4558336297e-11 1.3989191024e-13 
2.1530814387e-11 2.1530814387e-11 7.7874744456e-11 8.4124929212e-11 1.8112832633e-10 1.8112832633e-10 -1.4977020427e-11 1.0517831914e-11 6.5174488513e-11 
6.5174488513e-11 4.0555657513e-11 5.046385816e-11 9.8759284327e-11 9.8759284327e-11 -2.434143268e-11 -2.6224482734e-13 2.0874017508e-11 -2.434143268e-11 
3.0715164458e-11 3.4650886195e-11 7.3845549347e-11 7.3845549347e-11 1.0243451323e-11 1.7468427304e-11 5.4514021373e-11 5.4514021373e-11 -6.1527132236e-11 
-1.6329369253e-11 5.8654014892e-12 -6.1527132236e-11 -4.0856528753e-11 -4.4132269892e-12 2.1504025742e-11 -4.0856528753e-11 2.1293159822e-11 3.1151831516e-11 
5.1725208662e-11 5.1725208662e-11 2.7996234573e-11 3.9273823367e-11 9.9957242061e-11 9.9957242061e-11 -8.2327707557e-11 -3.3974444249e-11 -2.5598248194e-11 
-8.2327707557e-11 -1.8481527281e-10 -8.3620768961e-11 -7.9029558226e-11 -1.8481527281e-10 -5.0254807057e-11 -2.0955473281e-11 -1.7694319662e-11 -5.0254807057e-11 
-9.7530975789e-11 -5.6952662275e-11 -4.5182961936e-11 -9.7530975789e-11 -6.9019825865e-11 -1.6694219049e-11 3.7483449133e-12 -6.9019825865e-11 -1.3130864577e-10 
-5.9509770468e-11 -3.6864383762e-11 -1.3130864577e-10 -1.6291149618e-12 1.5255484537e-11 7.1461830425e-11 7.1461830425e-11 -5.6022859329e-11 -1.8807356993e-11 
-6.3548836776e-12 -5.6022859329e-11 -1.01035847e-10 -3.4819360732e-11 -1.4111592271e-11 -1.01035847e-10 -7.7897693164e-11 -2.0912911386e-11 -3.7115954498e-12 
-7.7897693164e-11 -4.0065142498e-11 -4.3458348863e-12 1.2405367385e-11 -4.0065142498e-11 -5.3577658303e-11 -8.7793073555e-12 1.0575365659e-11 -5.3577658303e-11 
-4.8478186308e-11 -3.3340637889e-11 -2.2958475803e-11 -4.8478186308e-11 -2.3747831378e-11 -2.8666675754e-12 8.3999089529e-12 -2.3747831378e-11 -5.2966372445e-11 
-2.6898860127e-11 -1.7626167428e-11 -5.2966372445e-11 -7.2570368788e-11 -2.96782624e-11 -7.7327688114e-12 -7.2570368788e-11 -4.0126153619e-11 -9.8901398097e-12 
-6.9693265709e-12 -4.0126153619e-11 -2.3276338517e-11 -3.3089995894e-12 2.7328981068e-12 -2.3276338517e-11 -2.6979806765e-11 -1.0156849043e-11 -6.5783441914e-12 
-2.6979806765e-11 -4.2362936474e-11 -2.4979229675e-11 -6.9906338517e-12 -4.2362936474e-11 1.1387809454e-11 2.0127049235e-11 3.8914941311e-11 3.8914941311e-11 
-2.573175924e-11 -9.6048220256e-12 -4.3885987345e-12 -2.573175924e-11 6.678116756e-12 1.2343754483e-11 3.3540228761e-11 3.3540228761e-11 -9.1060785626e-12 
-3.0332738945e-12 5.7208824571e-12 -9.1060785626e-12 -2.0178160023e-12 1.214637049e-11 4.4601945512e-11 4.4601945512e-11 -1.3442599517e-11 1.492589614e-12 
7.5264599027e-12 -1.3442599517e-11 2.5717770436e-13 8.8432950305e-12 2.1517407265e-11 2.1517407265e-11 1.0247082764e-11 1.4094862924e-11 4.2184654313e-11 
4.2184654313e-11 -2.9707774789e-11 -8.0463939402e-12 -2.1444812705e-12 -2.9707774789e-11 3.7716103727e-12 1.0544186781e-11 2.0118432846e-11 2.0118432846e-11 
-1.016722453e-11 -2.4931287682e-12 9.6245922978e-12 -1.016722453e-11 1.6048462069e-11 1.9800478286e-11 5.1234259645e-11 5.1234259645e-11 7.7696349965e-13 
3.9633978481e-12 1.1912988652e-11 1.1912988652e-11 -3.71758556e-12 -3.5517927971e-13 5.2870758397e-12 5.2870758397e-12 -8.8444779247e-12 -7.4509551612e-12 
-2.0058969142e-12 -8.8444779247e-12 -7.393197858e-12 -3.2752496965e-12 -1.4746124455e-12 -7.393197858e-12 -2.64148668e-11 -8.2438932449e-12 -1.4234699553e-12 
-2.64148668e-11 2.4597592927e-12 4.7047575916e-12 1.8162393116e-11 1.8162393116e-11 -4.1924093541e-12 4.0612994435e-13 7.1689934097e-12 7.1689934097e-12 
-6.3866985537e-13 4.5014780544e-13 4.0916540499e-12 4.0916540499e-12 4.1281786945e-12 6.4492333839e-12 1.1540337922e-11 1.1540337922e-11 2.5356141487e-12 
7.7574367199e-12 9.2225891314e-12 9.2225891314e-12 1.3530220725e-12 3.5930634524e-12 4.2479444751e-12 4.2479444751e-12 1.9395865912e-12 2.8119815753e-12 
4.0087818335e-12 4.0087818335e-12 2.0442032032e-12 3.6136242434e-12 5.0974525534e-12 5.0974525534e-12 4.10260041e-12 6.0119806033e-12 9.1408489867e-12 
9.1408489867e-12 -1.898920415e-12 1.2944779343e-12 3.2065314807e-12 3.2065314807e-12 -2.2858690029e-12 -2.8922320575e-13 1.3607842087e-12 -2.2858690029e-12 
-1.1827282524e-12 1.6600575903e-12 5.5942006622e-12 5.5942006622e-12 -2.2417878814e-12 1.3722536828e-12 9.0458741986e-12 9.0458741986e-12 4.6284305794e-12 
8.117799354e-12 1.3187850067e-11 1.3187850067e-11 4.7556351562e-12 5.5857120693e-12 1.2817232774e-11 1.2817232774e-11 1.5325140453e-12 2.0260683053e-12 
3.9007276494e-12 3.9007276494e-12 2.7130691007e-12 4.3113731526e-12 6.0727177467e-12 6.0727177467e-12 1.1495410882e-12 2.3515674812e-12 3.9582014305e-12 
3.9582014305e-12 1.4509203046e-12 2.0908896819e-12 5.3920100135e-12 5.3920100135e-12 4.1937955212e-12 6.3101594995e-12 1.0139254979e-11 1.0139254979e-11 
1.0444143923e-12 3.6103684636e-12 4.3657871441e-12 4.3657871441e-12 -8.9280731339e-13 2.060907642e-12 2.5615596714e-12 2.5615596714e-12 6.5482700242e-13 
2.5409205092e-12 5.3043924884e-12 5.3043924884e-12 4.3897027323e-12 6.9584722574e-12 1.163689501e-11 1.163689501e-11 6.032329689e-12 8.1043580955e-12 
1.4052522216e-11 1.4052522216e-11 -1.0162364811e-11 -2.9644886374e-12 -4.9072455193e-13 -1.0162364811e-11 -2.5567091544e-12 4.7988026798e-13 6.3269028864e-12 
6.3269028864e-12 7.9147243609e-12 8.5937273291e-12 1.861970831e-11 1.861970831e-11 -7.4792675442e-12 -2.3520992418e-13 2.8572450184e-12 -7.4792675442e-12 
-1.7435526823e-12 2.2913859608e-12 4.8298067215e-12 4.8298067215e-12 -8.1490900007e-12 -1.2824990127e-12 7.3499210133e-12 -8.1490900007e-12 -2.2411067169e-12 
9.1218665289e-12 2.8334140188e-11 2.8334140188e-11 1.2256336303e-11 1.3816287122e-11 3.5683476574e-11 3.5683476574e-11 2.2863766762e-12 1.0578566664e-11 
3.058986666e-11 3.058986666e-11 1.392036432e-11 1.8123507262e-11 4.0380828418e-11 4.0380828418e-11 -1.2200038115e-12 3.1315777162e-12 1.0751906095e-11 
1.0751906095e-11 -3.816851526e-12 9.8082052512e-12 2.6187796275e-11 2.6187796275e-11 -6.0147140414e-12 -2.9942393032e-13 9.6101079717e-12 9.6101079717e-12 
2.2056500892e-12 7.1815359279e-12 1.4205053983e-11 1.4205053983e-11 -2.4051795275e-11 -9.8896513949e-12 -1.7070833305e-12 -2.4051795275e-11 -8.1707463339e-12 
1.1419676863e-12 4.0797536475e-12 -8.1707463339e-12 -4.0143973204e-11 -1.4882107775e-11 -1.0373019021e-11 -4.0143973204e-11 -7.3413179957e-11 -2.8053666103e-11 
-1.788215394e-11 -7.3413179957e-11 -5.5780054593e-11 -1.4794309631e-11 1.7926642237e-12 -5.5780054593e-11 -9.7805703839e-12 1.0337534825e-11 3.1275245559e-11 
3.1275245559e-11 -5.6015234703e-11 -1.4195224184e-11 -5.6634111271e-13 -5.6015234703e-11 -1.1008525423e-10 -4.3249295476e-11 -2.1785750294e-11 -1.1008525423e-10 
-5.3108257147e-11 -1.8721109258e-11 -1.0049633595e-11 -5.3108257147e-11 -1.0171661674e-10 -4.4952364953e-11 -3.6864718305e-11 -1.0171661674e-10 -8.0815371621e-11 
-2.6737516474e-11 -2.8622119048e-12 -8.0815371621e-11 1.3745287181e-11 1.6628881497e-11 3.1815631322e-11 3.1815631322e-11 -1.1310441894e-10 -5.0880378462e-11 
-4.4528802603e-11 -1.1310441894e-10 -1.0367704576e-10 -4.9702505861e-11 -2.9547048375e-11 -1.0367704576e-10 -9.3183726484e-11 -3.509898384e-11 -2.4893289675e-11 
-9.3183726484e-11 -9.1947908978e-11 -2.9043821986e-11 -2.0735169036e-11 -9.1947908978e-11 -5.853557708e-11 -2.3048427199e-11 -7.840895721e-12 -5.853557708e-11 
-1.1919482726e-10 -5.0685659682e-11 -4.6612613055e-11 -1.1919482726e-10 -3.1227193114e-11 -1.5314151683e-11 3.7803347969e-12 -3.1227193114e-11 -4.5718237672e-11 
-9.8969288899e-12 8.2571665621e-12 -4.5718237672e-11 -4.3883811195e-11 -1.0303633163e-11 1.2207184359e-11 -4.3883811195e-11 4.4151255653e-12 5.2175466211e-12 
1.2224837814e-11 1.2224837814e-11 -9.1536558627e-11 -4.5192195281e-11 -4.0820146092e-11 -9.1536558627e-11 -6.9571712661e-11 -1.5965455711e-11 1.7449268372e-11 
-6.9571712661e-11 -2.7582383572e-11 -1.0464571724e-11 -2.4588347037e-12 -2.7582383572e-11 -4.103545141e-11 -7.4582798765e-12 1.1457341287e-11 -4.103545141e-11 
-6.0060785307e-11 -1.9329169279e-11 -9.4279454147e-12 -6.0060785307e-11 -4.2093396542e-12 1.3806109527e-11 3.7934630127e-11 3.7934630127e-11 2.1039913078e-11 
2.9004273658e-11 8.2575413264e-11 8.2575413264e-11 3.7104225038e-11 4.1391202399e-11 9.3936072563e-11 9.3936072563e-11 -4.128621113e-11 -1.3362444826e-11 
-2.5534404338e-13 -4.128621113e-11 5.7093349922e-11 6.199332285e-11 1.4840792723e-10 1.4840792723e-10 4.1333395896e-11 4.7815476071e-11 1.3038012803e-10 
1.3038012803e-10 -3.9534264431e-11 -4.3195059991e-12 7.4245604305e-12 -3.9534264431e-11 -4.4059074055e-11 -8.30729814e-12 1.4375842195e-11 -4.4059074055e-11 
-3.3692976336e-11 -8.1598550915e-12 -2.7295485721e-12 -3.3692976336e-11 -2.2325735382e-10 -9.4852486525e-11 -9.4754359657e-11 -2.2325735382e-10 -1.9953832548e-10 
-9.015141278e-11 -7.8592361738e-11 -1.9953832548e-10 -1.6827738389e-10 -4.9193334447e-11 -1.3681081666e-11 -1.6827738389e-10 -1.7907397336e-10 -5.7153552201e-11 
-1.4699974442e-11 -1.7907397336e-10 -6.6891172874e-11 -1.1060274742e-11 4.6379507616e-11 -6.6891172874e-11 -2.797150348e-11 7.2667578834e-12 5.7567565597e-11 
5.7567565597e-11 -1.4095578859e-10 -6.8837767533e-11 -5.9088643879e-11 -1.4095578859e-10 -3.0179416736e-10 -1.3396282776e-10 -1.2108900488e-10 -3.0179416736e-10 
-1.4130427252e-10 -4.8552175275e-11 7.7104477984e-12 -1.4130427252e-10 -4.8650647832e-11 1.0485767404e-12 4.7515335092e-11 -4.8650647832e-11 -4.0624509226e-11 
-1.5011230913e-11 -4.6458598609e-12 -4.0624509226e-11 -4.7002429096e-11 5.2091139896e-12 6.3217145106e-11 6.3217145106e-11 -2.5014779487e-10 -1.0019595838e-10 
-6.269364675e-11 -2.5014779487e-10 -3.3403475873e-10 -1.2684821115e-10 -1.1417803012e-10 -3.3403475873e-10 -2.311400528e-10 -1.3204485754e-10 -1.0328208966e-10 
-2.311400528e-10 -1.4278738057e-10 -6.0412593978e-11 -3.5671225455e-11 -1.4278738057e-10 -2.5825651128e-10 -8.3811498939e-11 -2.630008978e-11 -2.5825651128e-10 
-7.5783466591e-11 -3.1514485637e-11 -8.7551477726e-12 -7.5783466591e-11 -1.8165021943e-10 -5.639331119e-11 -2.3888693764e-12 -1.8165021943e-10 -2.9993804206e-10 
-1.3317044168e-10 -1.0569751626e-10 -2.9993804206e-10 -6.7588341974e-11 -3.3854196672e-11 -6.8041613544e-12 -6.7588341974e-11 3.7404919319e-12 3.2151389452e-11 
8.5885618616e-11 8.5885618616e-11 -1.2811915956e-10 -8.802050449e-11 -5.3610335946e-11 -1.2811915956e-10 2.9391318238e-11 4.3728551782e-11 1.1440372998e-10 
1.1440372998e-10 7.4281556501e-11 1.0247712895e-10 2.2483001455e-10 2.2483001455e-10 1.5668185047e-11 4.9438583155e-11 1.107941318e-10 1.107941318e-10 
5.3983884541e-11 8.3041114734e-11 1.6195450072e-10 1.6195450072e-10 7.5845490233e-11 8.8792896141e-11 1.9540301363e-10 1.9540301363e-10 -1.5422389693e-10 
-3.556839523e-11 5.5409092157e-11 -1.5422389693e-10 2.5845110353e-11 5.7996531876e-11 1.5507365777e-10 1.5507365777e-10 1.8495771281e-12 5.3641534134e-12 
1.6205039458e-11 1.6205039458e-11 -2.2279367954e-11 2.1518489832e-11 1.1267952812e-10 1.1267952812e-10 -2.5578851235e-12 1.5889276084e-12 1.1030354515e-11 
1.1030354515e-11 -8.0406236779e-11 7.1116979583e-12 6.7830178821e-11 -8.0406236779e-11 2.4534078733e-12 9.1754649663e-12 1.002626716e-11 1.002626716e-11 
-4.5150129315e-11 2.8082815916e-11 1.529178134e-10 1.529178134e-10 -5.2166481913e-11 -2.2256410982e-11 8.4213302895e-11 8.4213302895e-11 -4.7073066179e-11 
-2.451717739e-11 -1.5482656431e-11 -4.7073066179e-11 -2.4110425695e-10 -1.0579165016e-10 -8.3254092884e-11 -2.4110425695e-10 -1.07738194e-10 -1.8345838017e-11 
2.9951532017e-11 -1.07738194e-10 -1.0942353182e-10 -1.5748037402e-11 4.3661169224e-11 -1.0942353182e-10 -5.9222944619e-12 3.812880531e-11 1.4115358915e-10 
1.4115358915e-10 -3.0903000153e-10 -1.2050594066e-10 -9.5692057809e-11 -3.0903000153e-10 -1.5626704075e-11 3.6740107617e-11 1.2693069646e-10 1.2693069646e-10 
-2.5230947141e-10 -1.0394497055e-10 -9.8276558047e-11 -2.5230947141e-10 -8.2174110213e-11 -4.4105021828e-11 -3.3080767959e-11 -8.2174110213e-11 -1.6152389058e-11 
3.0411514793e-11 1.3501957426e-10 1.3501957426e-10 -1.7974738908e-10 -6.9593720144e-11 -4.765779078e-11 -1.7974738908e-10 1.34971601e-10 1.6190469218e-10 
3.0541970683e-10 3.0541970683e-10 -1.1233281981e-10 -4.5179479208e-11 -3.5562200985e-11 -1.1233281981e-10 -8.993059737e-11 -2.547510369e-11 4.905250106e-11 
-8.993059737e-11 -1.6519537063e-10 -5.0467031821e-11 -2.8179755119e-13 -1.6519537063e-10 -8.7408829939e-12 5.3292071368e-11 1.5945201163e-10 1.5945201163e-10 
-1.8682867589e-11 2.4071288811e-11 7.5112978777e-11 7.5112978777e-11 -4.369830458e-12 3.927807733e-11 1.6844795313e-10 1.6844795313e-10 2.3432664945e-11 
3.8344770608e-11 1.1743396445e-10 1.1743396445e-10 -1.3257854268e-10 -5.1466948632e-11 -1.1284308683e-11 -1.3257854268e-10 -6.8929823426e-11 -4.1459463179e-11 
-6.5413133948e-12 -6.8929823426e-11 5.5342004963e-11 8.1360460497e-11 1.9584443454e-10 1.9584443454e-10 -1.5594995353e-10 -4.9855409769e-11 -2.7443136699e-11 
-1.5594995353e-10 -8.9654435984e-11 -4.7811481511e-11 -2.2649082505e-11 -8.9654435984e-11 1.5145348305e-11 4.0564967664e-11 1.0950678403e-10 1.0950678403e-10 
-1.165891921e-10 -3.2613024057e-11 2.2485716155e-11 -1.165891921e-10 -1.1265644067e-10 -2.8088977828e-11 4.1273518501e-11 -1.1265644067e-10 -1.2284626299e-10 
-4.339124692e-11 -1.1137890087e-11 -1.2284626299e-10 -1.3871746125e-10 -5.6657937103e-11 -5.2343601651e-11 -1.3871746125e-10 -7.3419276844e-11 -3.7987260218e-12 
8.8227716866e-11 8.8227716866e-11 -2.3181878004e-11 5.7932556436e-12 3.2263872361e-11 3.2263872361e-11 -9.8368126492e-11 -1.6152022601e-11 1.4860249093e-11 
-9.8368126492e-11 -3.7125542626e-11 1.4081723135e-11 5.304434949e-11 5.304434949e-11 -9.5061670185e-11 -8.1538093284e-12 4.2727779513e-11 -9.5061670185e-11 
-1.4288208669e-10 -1.0569593661e-11 8.504575035e-11 -1.4288208669e-10 -3.4556178107e-11 -1.5523048452e-11 -9.4218734406e-12 -3.4556178107e-11 7.0986866206e-11 
7.5184959247e-11 1.8740557455e-10 1.8740557455e-10 -4.5305222476e-11 8.6333969111e-12 2.6957425564e-11 -4.5305222476e-11 -1.3929166506e-10 -7.1301700346e-11 
-4.4917134595e-11 -1.3929166506e-10 -2.3780575788e-11 3.3795842684e-12 3.691551152e-11 3.691551152e-11 -1.062276521e-10 -4.2432206678e-11 1.2657458774e-11 
-1.062276521e-10 -4.1887578338e-12 2.966783882e-11 9.0411219014e-11 9.0411219014e-11 -1.4886307133e-10 -5.498203211e-11 -4.3499396556e-11 -1.4886307133e-10 
-6.7725463373e-11 1.8341006992e-11 1.1689995638e-10 1.1689995638e-10 3.3735436154e-11 6.5518052631e-11 1.8732271121e-10 1.8732271121e-10 -8.7371147873e-11 
-3.4568390654e-11 -1.1634161473e-11 -8.7371147873e-11 -2.1163169353e-10 -9.6338804494e-11 -8.3690501974e-11 -2.1163169353e-10 -4.1336980503e-11 -1.0910728682e-11 
1.5471549185e-11 -4.1336980503e-11 -7.2060311656e-11 -1.2874554465e-11 6.4602661209e-12 -7.2060311656e-11 -1.0122722201e-10 -5.9331667927e-11 -4.7846410062e-11 
-1.0122722201e-10 -1.622625468e-10 -5.1186952243e-11 -2.632950096e-11 -1.622625468e-10 -1.0608124271e-10 -5.1102959061e-11 -3.840589823e-11 -1.0608124271e-10 
-1.9785428098e-10 -7.7449743763e-11 -4.2313175261e-11 -1.9785428098e-10 3.950059655e-11 9.2348731644e-11 1.9517247181e-10 1.9517247181e-10 -3.3291820834e-10 
-1.5127306627e-10 -1.3099472539e-10 -3.3291820834e-10 -2.4788396322e-11 2.5574927055e-12 3.2856063616e-11 3.2856063616e-11 -5.1717882025e-11 7.8121199851e-12 
9.118780204e-11 9.118780204e-11 2.3872539047e-12 6.2774097842e-11 1.0891814825e-10 1.0891814825e-10 -1.7712505771e-10 -6.8484512438e-11 -3.3984729847e-11 
-1.7712505771e-10 -1.1367691434e-11 1.4207789201e-11 7.0261102233e-11 7.0261102233e-11 -2.0562065647e-10 -6.5728853375e-11 -5.5227590151e-11 -2.0562065647e-10 
-1.3912950152e-11 2.8007135331e-11 9.1116914821e-11 9.1116914821e-11 -1.616120685e-10 -5.440526545e-11 -1.3992666049e-11 -1.616120685e-10 -1.7487619524e-12 
3.6856509977e-11 7.6434951975e-11 7.6434951975e-11 -9.1392756973e-11 -3.2738769863e-11 -5.7233731644e-12 -9.1392756973e-11 -2.2486920801e-10 -8.8269274617e-11 
-7.9082317371e-11 -2.2486920801e-10 -9.4861093851e-11 -3.4441429576e-11 -1.6787976572e-11 -9.4861093851e-11 -1.1157268103e-10 -3.9223683978e-11 -3.1673034997e-11 
-1.1157268103e-10 5.1465787474e-13 3.3994306394e-11 1.0809613573e-10 1.0809613573e-10 -1.9550027727e-11 1.5276845628e-11 5.1717882099e-11 5.1717882099e-11 
-1.0184983887e-10 -5.1208750806e-11 -3.4038010323e-11 -1.0184983887e-10 3.2693230165e-12 1.9494221046e-11 8.8779155938e-11 8.8779155938e-11 -1.6530130125e-11 
-4.1096026605e-12 9.0726278504e-13 -1.6530130125e-11 -2.2883343545e-11 -5.6608117529e-12 5.5437652978e-12 -2.2883343545e-11 -6.6276501315e-12 2.8567674436e-11 
9.8182975696e-11 9.8182975696e-11 6.7874904942e-12 1.9017646885e-11 3.445476262e-11 3.445476262e-11 -7.6308918402e-12 2.5053682365e-11 7.8886909475e-11 
7.8886909475e-11 -2.4268597947e-12 2.0033131966e-11 4.9527527829e-11 4.9527527829e-11 -4.3325330411e-11 -1.7384537868e-11 -1.548783172e-11 -4.3325330411e-11 
-1.547961e-11 3.0247141705e-12 2.353544583e-11 2.353544583e-11 3.639644617e-11 4.0568958668e-11 1.0839489516e-10 1.0839489516e-10 -2.6811423054e-11 
1.9546836349e-11 5.5755886704e-11 5.5755886704e-11 3.8925500273e-11 4.3385657275e-11 1.1288904245e-10 1.1288904245e-10 -1.6452194431e-11 1.438795897e-11 
4.9508935461e-11 4.9508935461e-11 -5.6795012259e-11 -1.1911452975e-11 3.3848715234e-11 -5.6795012259e-11 -5.7971453195e-11 -4.96666608e-11 -2.7410086004e-11 
-5.7971453195e-11 -3.3276156715e-11 -5.375531041e-12 9.7507756293e-14 -3.3276156715e-11 -1.685189417e-10 -7.0129797161e-11 -6.2933061135e-11 -1.685189417e-10 
9.08658482e-12 1.2514741291e-11 2.2256573889e-11 2.2256573889e-11 -6.5952831018e-11 -2.0620116891e-11 -1.034385209e-11 -6.5952831018e-11 -5.80948784e-11 
-1.7400594737e-11 1.2452773137e-11 -5.80948784e-11 1.2167141535e-11 2.3114148781e-11 8.0598109684e-11 8.0598109684e-11 -5.6062636108e-11 -2.7203089674e-11 
-2.1950374218e-11 -5.6062636108e-11 2.2960342005e-11 3.7814637927e-11 9.8559420069e-11 9.8559420069e-11 -4.4927464693e-11 -1.1487490371e-11 6.0212550642e-12 
-4.4927464693e-11 -3.8394628743e-11 -4.4434419139e-13 1.4876649935e-11 -3.8394628743e-11 4.1672810752e-11 4.75302673e-11 1.2201482195e-10 1.2201482195e-10 
-1.6355528652e-11 -4.6032268832e-12 1.4540275535e-11 -1.6355528652e-11 1.7905141174e-11 2.4931011287e-11 7.7380147539e-11 7.7380147539e-11 -5.2714468088e-11 
-2.0318727842e-11 -1.0667204071e-11 -5.2714468088e-11 -2.6119504618e-11 -6.2401341844e-12 2.7068728802e-11 2.7068728802e-11 8.9375591068e-12 1.4006631011e-11 
6.6485909882e-11 6.6485909882e-11 -4.1879159324e-11 -1.7025620579e-11 -1.2645920097e-11 -4.1879159324e-11 -8.2274433408e-12 5.7432410341e-12 1.9484452307e-11 
1.9484452307e-11 -3.1640035074e-11 -1.2236810854e-11 -5.9855640713e-12 -3.1640035074e-11 -6.7728943877e-11 -3.8683700167e-11 -2.9589755955e-11 -6.7728943877e-11 
-2.2079283546e-11 -4.9401762499e-12 7.489340796e-12 -2.2079283546e-11 -8.5171429059e-12 1.5658046754e-11 5.0842196152e-11 5.0842196152e-11 6.8664596285e-13 
2.0026812122e-11 6.4430841915e-11 6.4430841915e-11 -1.9254149531e-11 7.8354389223e-12 5.6024240608e-11 5.6024240608e-11 1.9442123067e-11 2.456068262e-11 
6.2046494313e-11 6.2046494313e-11 7.5108794497e-12 2.7162191469e-11 9.0140329081e-11 9.0140329081e-11 1.8731907369e-11 2.1829001606e-11 5.0797791025e-11 
5.0797791025e-11 2.3256737917e-11 4.5038433432e-11 9.2460328651e-11 9.2460328651e-11 4.194743759e-11 4.9033905855e-11 1.0057545655e-10 1.0057545655e-10 
2.3739822746e-11 2.9785698322e-11 5.5588578932e-11 5.5588578932e-11 -7.3704019998e-12 -3.3503918852e-12 6.363583885e-12 -7.3704019998e-12 -3.9910946808e-11 
-1.4980434604e-11 -8.5127185874e-12 -3.9910946808e-11 7.2986898915e-12 1.9310637728e-11 5.2118172381e-11 5.2118172381e-11 -6.5428304274e-12 7.8414383025e-12 
1.9668462125e-11 1.9668462125e-11 8.7063396605e-12 1.1242786655e-11 2.4480173685e-11 2.4480173685e-11 -3.6604860677e-11 -1.902515056e-11 6.8261123718e-13 
-3.6604860677e-11 -3.268160838e-12 1.5724367763e-12 9.2851340618e-12 9.2851340618e-12 6.2770653421e-12 1.4085990873e-11 2.1302853785e-11 2.1302853785e-11 
-3.009280185e-11 -1.1442336426e-11 -3.0471617233e-12 -3.009280185e-11 -1.2300548064e-11 -6.2903402582e-12 2.1572553223e-12 -1.2300548064e-11 -7.4885070216e-12 
-1.9052347748e-12 1.2672247963e-12 -7.4885070216e-12 -2.9959753313e-12 5.9729245219e-12 8.6457008095e-12 8.6457008095e-12 -3.1914555773e-11 -1.3917968684e-11 
-1.2074775543e-11 -3.1914555773e-11 -2.7787660274e-12 9.1562682191e-12 1.9383117808e-11 1.9383117808e-11 1.4146486368e-11 1.6136181918e-11 3.6605331714e-11 
3.6605331714e-11 -1.9927984188e-11 -5.2339400896e-12 9.5494042775e-12 -1.9927984188e-11 5.8683219084e-12 7.3010870276e-12 1.9116881064e-11 1.9116881064e-11 
8.1037180629e-13 5.7644321251e-12 2.0139906069e-11 2.0139906069e-11 1.3553260303e-11 1.715271895e-11 4.3771420747e-11 4.3771420747e-11 -1.6954837164e-11 
6.1307600656e-13 1.9030578158e-11 1.9030578158e-11 -1.3493360605e-12 -3.0851109217e-13 2.6578631527e-12 2.6578631527e-12 -5.171842615e-11 -2.0001352502e-11 
-1.3281621348e-11 -5.171842615e-11 -2.2209625476e-12 -1.2115031669e-12 1.9145827145e-12 -2.2209625476e-12 -5.2935507299e-11 -2.2724319826e-11 -1.5251272876e-11 
-5.2935507299e-11 7.9652601365e-12 1.3174633148e-11 2.8861006716e-11 2.8861006716e-11 5.1704685322e-12 1.0942370355e-11 1.6901171113e-11 1.6901171113e-11 
7.9248023536e-12 1.1633418646e-11 3.5085579e-11 3.5085579e-11 6.7952777666e-13 6.3685682633e-12 2.039522396e-11 2.039522396e-11 -3.1938626024e-12 
5.4029509445e-12 1.6764451658e-11 1.6764451658e-11 -2.8692899956e-11 -9.0977986016e-12 -8.1794814424e-12 -2.8692899956e-11 7.2919059015e-12 7.891337286e-12 
2.2179976813e-11 2.2179976813e-11 -1.1255805599e-11 -7.311827308e-12 -7.7453709332e-13 -1.1255805599e-11 -7.0740864551e-12 6.6857553676e-13 8.4546529183e-12 
8.4546529183e-12 -6.1107683062e-12 -2.3281230405e-12 3.9864313467e-12 -6.1107683062e-12 2.6843608628e-12 4.725478413e-12 1.2859770724e-11 1.2859770724e-11 
-5.0091692127e-12 7.1616203033e-13 2.4715511823e-12 -5.0091692127e-12 7.3168931775e-13 2.2892666746e-12 9.7292640077e-12 9.7292640077e-12 -5.789789281e-12 
7.6209281375e-13 4.3338084673e-12 -5.789789281e-12 -1.6608153709e-12 9.5241135385e-12 1.7535961832e-11 1.7535961832e-11 2.1110376425e-12 2.5679271074e-12 
9.2450852501e-12 9.2450852501e-12 2.6233213379e-12 6.0148457732e-12 1.2790722889e-11 1.2790722889e-11 -2.4251491049e-12 -1.5420117218e-12 2.3733838267e-12 
-2.4251491049e-12 -8.6580709773e-13 5.5001167758e-12 6.0920703219e-12 6.0920703219e-12 3.8760570861e-13 3.3295341388e-12 4.3493201526e-12 4.3493201526e-12 
2.5064097339e-12 4.3274287455e-12 1.3202221521e-11 1.3202221521e-11 -2.6970500844e-12 -1.1493811686e-12 -2.8221174698e-13 -2.6970500844e-12 -2.1836953827e-12 
-5.9372632613e-14 1.8694381154e-12 -2.1836953827e-12 -1.3847628811e-12 3.6154493055e-13 2.2375249505e-12 2.2375249505e-12 4.8140836954e-13 1.1611049443e-12 
4.6566966861e-12 4.6566966861e-12 -3.3356362231e-12 -4.7345315051e-14 3.5564536382e-12 3.5564536382e-12 -2.6988626931e-12 1.8016325433e-14 2.6808463676e-12 
-2.6988626931e-12 -1.236728621e-12 1.0203017371e-12 2.7259918839e-12 2.7259918839e-12 -1.855466623e-13 1.2352688146e-12 2.4503398477e-12 2.4503398477e-12 
1.1910701645e-12 2.9090794328e-12 4.5517804027e-12 4.5517804027e-12 4.3889756981e-12 5.7959000202e-12 1.0255984282e-11 1.0255984282e-11 -1.2726278644e-11 
-6.4522663223e-12 -3.8933250341e-12 -1.2726278644e-11 -1.7290735333e-12 2.9950376752e-12 6.854705858e-12 6.854705858e-12 -1.6639593587e-11 -1.123904509e-11 
-7.7410813224e-12 -1.6639593587e-11 -9.7486171632e-11 5.0624449348e-13 7.5453567139e-11 -9.7486171632e-11 -4.3558712566e-12 -1.1285785045e-12 8.4800476104e-13 
-4.3558712566e-12 1.0198130843e-10 1.2229274422e-10 2.7690294735e-10 2.7690294735e-10 -2.2514678516e-11 -7.4565128466e-12 -1.8215586376e-12 -2.2514678516e-11 
7.8121432468e-13 2.9618918987e-11 7.0614966689e-11 7.0614966689e-11 -2.3005564856e-11 -1.2639849522e-11 -8.145485622e-12 -2.3005564856e-11 -2.6119726311e-12 
1.9977279755e-12 5.7143246556e-12 5.7143246556e-12 -3.4838152358e-11 1.1592553067e-11 8.1532299291e-11 8.1532299291e-11 -4.242973748e-11 6.7307435046e-12 
1.2798629397e-10 1.2798629397e-10 -1.2034551686e-11 -7.1801683219e-12 5.0846100077e-12 -1.2034551686e-11 -2.0770114073e-10 -6.9062320231e-11 -5.4742339036e-11 
-2.0770114073e-10 -4.7736081176e-11 -2.1423398884e-11 5.6686400593e-12 -4.7736081176e-11 -5.9807772649e-11 2.5650782396e-12 8.118192441e-11 8.118192441e-11 
1.9826074669e-11 4.3541232297e-11 1.2254299303e-10 1.2254299303e-10 -1.5977353557e-10 -7.8795293516e-11 -4.573117091e-11 -1.5977353557e-10 -1.1313764872e-10 
-5.1860403569e-11 -1.3869347714e-11 -1.1313764872e-10 8.5138377009e-11 1.2439426425e-10 2.2142505874e-10 2.2142505874e-10 9.7294504662e-11 1.1294242389e-10 
2.2372607145e-10 2.2372607145e-10 5.1082366643e-11 7.7287609343e-11 1.7529362401e-10 1.7529362401e-10 -1.8667003333e-10 -6.6083962424e-11 -3.0483004249e-11 
-1.8667003333e-10 -7.3498069935e-11 1.5511128642e-11 1.0206634129e-10 1.0206634129e-10 -1.8191942651e-10 -4.14726595e-11 -3.1612813987e-11 -1.8191942651e-10 
-9.0603626482e-11 -4.4247951416e-11 -2.4627322103e-11 -9.0603626482e-11 9.1770887629e-12 3.2997821746e-11 1.1773988949e-10 1.1773988949e-10 -1.6674007829e-11 
5.7854884252e-12 5.4907089404e-11 5.4907089404e-11 1.9918840709e-11 4.0000529124e-11 1.2144623017e-10 1.2144623017e-10 -4.2521348357e-11 6.7439612012e-12 
2.6496567156e-11 -4.2521348357e-11 2.8809872374e-11 8.5708437314e-11 1.5536079031e-10 1.5536079031e-10 3.0840809513e-11 5.4951247284e-11 1.422374432e-10 
1.422374432e-10 5.2257426808e-11 6.904566559e-11 1.596065076e-10 1.596065076e-10 2.8233162769e-11 4.9277529038e-11 1.3709820819e-10 1.3709820819e-10 
-9.4051820901e-11 -3.5612557958e-11 3.3764788593e-12 -9.4051820901e-11 -2.7512249498e-11 1.8682603453e-11 6.0437646045e-11 6.0437646045e-11 -2.0885261161e-11 
4.034275742e-11 1.6156060374e-10 1.6156060374e-10 -1.6746808791e-10 -7.0255141006e-11 8.8263289132e-12 -1.6746808791e-10 -3.445050162e-11 2.6194090844e-11 
9.5565010776e-11 9.5565010776e-11 -4.8021840414e-11 -4.5766637089e-12 1.7210184123e-11 -4.8021840414e-11 1.8919621029e-11 6.2068965703e-11 1.1378571327e-10 
1.1378571327e-10 -3.186547027e-11 6.4904786603e-11 9.3942383667e-11 9.3942383667e-11 -9.4490863352e-11 -4.4309850147e-11 -2.3728650108e-13 -9.4490863352e-11 
-1.0838669342e-10 -2.4249729253e-11 4.3247226772e-12 -1.0838669342e-10 -7.6136556837e-11 2.3325192642e-12 7.9788837573e-11 7.9788837573e-11 -7.6336322083e-13 
6.3554457121e-12 5.9899497509e-11 5.9899497509e-11 -3.930131782e-11 3.8985289319e-11 1.347728285e-10 1.347728285e-10 -1.6832287633e-11 3.6178023875e-11 
1.4871436376e-10 1.4871436376e-10 -4.4774126436e-11 2.0372517138e-11 9.0234409298e-11 9.0234409298e-11 1.6068813183e-11 3.9803832829e-11 1.1222195399e-10 
1.1222195399e-10 2.017335038e-11 5.0427745884e-11 1.0450190374e-10 1.0450190374e-10 8.9897222584e-11 1.1703092332e-10 1.8832895409e-10 1.8832895409e-10 
1.2200912636e-11 2.9627495954e-11 8.6786891409e-11 8.6786891409e-11 4.7651683719e-11 7.6440852435e-11 1.5924556385e-10 1.5924556385e-10 -5.1505406155e-11 
-9.4582208275e-12 4.4743994982e-11 -5.1505406155e-11 -5.1018274948e-11 -3.5219245355e-11 -2.3136679697e-11 -5.1018274948e-11 5.5471730623e-11 7.000976121e-11 
1.7597020817e-10 1.7597020817e-10 -1.7566297054e-10 -6.7873440672e-11 -4.9597388786e-11 -1.7566297054e-10 -1.0686933814e-11 6.6160607742e-12 2.7489643039e-11 
2.7489643039e-11 -1.4181449694e-10 -5.8138234786e-11 -4.703716827e-11 -1.4181449694e-10 -7.9559646808e-11 -4.1029262715e-11 -2.4193790477e-11 -7.9559646808e-11 
-9.0598359465e-11 -1.3381315111e-11 5.114874576e-12 -9.0598359465e-11 -6.7405105174e-11 -1.1204498498e-11 2.6047523673e-11 -6.7405105174e-11 2.5918712559e-11 
3.342831311e-11 8.5502374331e-11 8.5502374331e-11 -3.6310746102e-11 -1.8735275737e-11 2.1045471839e-11 -3.6310746102e-11 -5.6132137635e-11 -1.1308490984e-11 
1.6092788619e-11 -5.6132137635e-11 -8.2135519555e-11 -3.3797395276e-11 -3.1605385169e-11 -8.2135519555e-11 -6.5862415146e-11 -4.0797851765e-11 -2.7954233089e-11 
-6.5862415146e-11 -1.4367245022e-10 -5.2750781342e-11 -3.0045368437e-11 -1.4367245022e-10 -3.1789342384e-12 9.8843219876e-12 6.9067362251e-11 6.9067362251e-11 
-4.187407416e-11 3.2659428452e-12 4.6828041315e-11 4.6828041315e-11 7.1030380419e-11 8.8959635669e-11 2.1316678391e-10 2.1316678391e-10 5.2728701845e-11 
8.104687839e-11 1.8350531977e-10 1.8350531977e-10 -1.446443569e-10 -3.1828956936e-11 2.0261413836e-11 -1.446443569e-10 8.4331191216e-11 1.0057194356e-10 
2.3797906522e-10 2.3797906522e-10 -4.0402258193e-11 -3.4022812785e-13 4.6490206321e-11 4.6490206321e-11 3.5633891129e-11 5.1251790848e-11 1.4271151802e-10 
1.4271151802e-10 -2.1780742089e-11 1.0215584892e-12 2.71342936e-11 2.71342936e-11 -5.465495416e-11 -1.5793693229e-11 1.5801473891e-12 -5.465495416e-11 
-1.0532015405e-10 -5.2122187892e-11 -4.066305806e-11 -1.0532015405e-10 -1.3801813876e-10 -6.5857653136e-11 -5.8718308103e-11 -1.3801813876e-10 -1.7518884755e-10 
-5.7946170751e-11 -1.9093481695e-11 -1.7518884755e-10 1.2899103008e-11 2.2265961741e-11 4.9937635251e-11 4.9937635251e-11 -2.0169423421e-11 1.5384009226e-12 
3.0774092498e-11 3.0774092498e-11 -1.0241647957e-11 1.2149309502e-11 6.2544038455e-11 6.2544038455e-11 -1.1826550505e-11 2.1010997903e-11 2.7649567602e-11 
2.7649567602e-11 -2.4716497802e-11 3.5453658286e-12 2.3252796973e-11 -2.4716497802e-11 -1.3938030261e-11 1.4420697783e-11 3.4992392478e-11 3.4992392478e-11 
-2.9091100892e-11 1.7103389349e-11 1.0427501154e-10 1.0427501154e-10 3.0728972073e-11 5.9162009427e-11 9.97837185e-11 9.97837185e-11 5.5749421979e-12 
1.9147257329e-11 5.5753200473e-11 5.5753200473e-11 3.3908620299e-11 6.3118403482e-11 1.6064897622e-10 1.6064897622e-10 -5.0605590127e-12 1.8269433232e-11 
6.794722578e-11 6.794722578e-11 2.8847586686e-11 3.8808713454e-11 1.0304049986e-10 1.0304049986e-10 2.7330950076e-11 3.4812350102e-11 7.2210999822e-11 
7.2210999822e-11 -8.9120972273e-12 1.3646626599e-11 3.8373440628e-11 3.8373440628e-11 -1.3695884906e-10 -5.2475035978e-11 -3.5820314958e-11 -1.3695884906e-10 
-2.5042250368e-11 -1.1336043664e-11 -6.365245968e-12 -2.5042250368e-11 -9.3015322128e-11 -3.8149341374e-11 -3.1552436498e-11 -9.3015322128e-11 -1.0082900547e-11 
1.3730332933e-11 7.1153767614e-11 7.1153767614e-11 -6.4991369628e-11 -2.3497223074e-11 -8.0488072977e-12 -6.4991369628e-11 -6.0497377887e-11 -2.1216520943e-11 
-1.0746901171e-11 -6.0497377887e-11 5.6847172933e-11 7.0952588184e-11 1.5159153888e-10 1.5159153888e-10 -4.2799285399e-11 -1.1629478638e-11 -3.9447359634e-12 
-4.2799285399e-11 -2.4280224111e-11 1.3206419779e-11 6.0658004332e-11 6.0658004332e-11 -2.8641318551e-11 -1.5904985275e-11 1.5251438261e-12 -2.8641318551e-11 
-7.246139495e-11 -3.3612011175e-11 -2.6791893874e-11 -7.246139495e-11 -7.5333498248e-11 -1.1044375895e-11 1.1871524143e-11 -7.5333498248e-11 -5.1931007738e-12 
3.5782906695e-11 1.0217439408e-10 1.0217439408e-10 2.3800814827e-11 3.1071836391e-11 6.0312948781e-11 6.0312948781e-11 -2.1166676087e-11 -2.439049185e-15 
2.5115615136e-11 2.5115615136e-11 4.8706307e-11 6.009840524e-11 1.1503198776e-10 1.1503198776e-10 -5.638929726e-11 -1.6408061537e-11 1.2467187969e-12 
-5.638929726e-11 -1.9626344693e-11 -5.5389039966e-12 8.3673486898e-12 -1.9626344693e-11 -4.2196260212e-11 -1.5627393561e-11 -8.7897462269e-12 -4.2196260212e-11 
3.3410715376e-11 4.7379558053e-11 8.661062657e-11 8.661062657e-11 4.1390389267e-11 5.2641478464e-11 1.0268583227e-10 1.0268583227e-10 2.1472970263e-11 
3.045934718e-11 5.5100182556e-11 5.5100182556e-11 -2.0716790604e-12 2.8966711987e-11 6.6970867074e-11 6.6970867074e-11 -1.0583022547e-11 4.0500513852e-12 
4.5755041162e-11 4.5755041162e-11 1.2041680346e-11 1.8384564869e-11 6.0473254785e-11 6.0473254785e-11 -9.391525972e-11 -4.2333524007e-11 -2.0310016273e-11 
-9.391525972e-11 9.6416997886e-12 1.6079936944e-11 3.8150863268e-11 3.8150863268e-11 -1.2006941879e-10 -4.3001848613e-11 -3.1339032594e-11 -1.2006941879e-10 
-5.4470130187e-11 -1.4264208091e-11 2.4678382775e-12 -5.4470130187e-11 -2.7423308293e-11 1.1286131841e-11 4.7622396452e-11 4.7622396452e-11 -7.2521198662e-11 
-2.965124333e-11 -2.5633258008e-11 -7.2521198662e-11 -1.9960482806e-11 9.7972926939e-12 5.2178160112e-11 5.2178160112e-11 -6.8729786045e-11 -2.5503632511e-11 
-5.860181444e-12 -6.8729786045e-11 2.1852082276e-11 3.2977525787e-11 6.9029691937e-11 6.9029691937e-11 1.6522793654e-11 2.2379369958e-11 6.1231336388e-11 
6.1231336388e-11 2.9300118859e-11 3.9038207899e-11 8.1021373242e-11 8.1021373242e-11 -1.5134220729e-12 1.3836879689e-11 4.1192762384e-11 4.1192762384e-11 
-2.4174678115e-11 -1.340524607e-11 -6.1351758154e-12 -2.4174678115e-11 3.0230912564e-13 2.0544973642e-11 4.4291617233e-11 4.4291617233e-11 -3.4536820799e-11 
-1.1611824864e-11 -9.7093543369e-12 -3.4536820799e-11 -4.5580849741e-12 3.4348834464e-12 1.5321275528e-11 1.5321275528e-11 -1.547136146e-11 -1.641380714e-12 
1.5204546174e-11 -1.547136146e-11 -7.0057605877e-11 -3.030863733e-11 -2.7569656793e-11 -7.0057605877e-11 -3.8998805244e-11 -1.572787508e-11 -9.371419676e-12 
-3.8998805244e-11 1.7991430678e-11 2.2227252019e-11 5.0550717303e-11 5.0550717303e-11 -4.1859170629e-11 -9.8402467995e-12 9.2796374287e-12 -4.1859170629e-11 
-1.1995673386e-11 -1.3256782335e-12 1.107955862e-11 -1.1995673386e-11 5.5046691084e-12 1.5168243211e-11 3.445658768e-11 3.445658768e-11 -3.4901576178e-11 
-7.6871107419e-12 1.3890069196e-12 -3.4901576178e-11 -1.2894249751e-11 1.7656890728e-13 3.5236458438e-12 -1.2894249751e-11 -1.8818654673e-11 -5.1625406125e-12 
-6.0852471409e-13 -1.8818654673e-11 -3.1019356984e-11 -1.7915231165e-11 -1.3081811851e-11 -3.1019356984e-11 1.8822212009e-12 8.6662614166e-12 2.4969987383e-11 
2.4969987383e-11 -4.2598161253e-11 -1.9097178878e-11 -1.7558359869e-11 -4.2598161253e-11 -2.1564426949e-11 1.9185879768e-12 2.3101944972e-11 2.3101944972e-11 
-4.9485289859e-12 1.0038276174e-11 2.2636902811e-11 2.2636902811e-11 -2.5634624642e-11 -9.5396370403e-12 2.561501682e-12 -2.5634624642e-11 -4.3435209931e-12 
5.3374614173e-12 2.1644216576e-11 2.1644216576e-11 -3.5619137352e-11 -1.0544604628e-11 -6.9621580193e-12 -3.5619137352e-11 1.5973491446e-11 1.7367682375e-11 
4.0558026179e-11 4.0558026179e-11 1.8679444312e-12 7.0503132337e-12 2.3260842335e-11 2.3260842335e-11 -2.0512873335e-11 -8.1661288624e-12 -3.9049278023e-12 
-2.0512873335e-11 -3.3738671815e-12 1.7593619474e-12 8.4666622341e-12 8.4666622341e-12 2.1706092787e-12 1.1100888161e-11 2.218626256e-11 2.218626256e-11 
-1.1353280024e-11 -1.7470193652e-13 7.3246129609e-12 -1.1353280024e-11 5.1425503605e-12 6.1903146055e-12 1.1652225034e-11 1.1652225034e-11 -6.0804739062e-12 
-3.3181663321e-12 -1.0096997617e-12 -6.0804739062e-12 3.5541154756e-12 8.6910335098e-12 1.8372721015e-11 1.8372721015e-11 -4.6806347091e-12 -2.1302008755e-13 
3.6793481967e-12 -4.6806347091e-12 -5.9974777025e-13 5.6069520266e-13 3.2772025676e-12 3.2772025676e-12 3.9293321018e-12 5.5004449137e-12 1.5043202985e-11 
1.5043202985e-11 2.1229219782e-13 5.4839310312e-12 6.811136771e-12 6.811136771e-12 -1.3501756759e-12 9.4999673969e-13 5.5609769362e-12 5.5609769362e-12 
-1.2106739552e-13 2.3397079608e-12 7.9294894347e-12 7.9294894347e-12 -8.9381088518e-12 -2.8460087743e-12 -9.6610237395e-13 -8.9381088518e-12 -1.4625727303e-12 
5.9660237695e-14 1.8886354926e-12 1.8886354926e-12 4.732516551e-12 4.9359178762e-12 1.1815455573e-11 1.1815455573e-11 2.9770040895e-12 4.0837351653e-12 
9.3324007452e-12 9.3324007452e-12 -1.5052022207e-12 -4.1135582267e-13 1.7430849434e-12 1.7430849434e-12 2.295163306e-12 5.4469961008e-12 7.1764605932e-12 
7.1764605932e-12 1.007403233e-13 1.5264195785e-12 5.8610600982e-12 5.8610600982e-12 4.3326933351e-13 2.8521132832e-12 3.3528273833e-12 3.3528273833e-12 
1.0268866144e-12 2.5105255261e-12 3.8418278595e-12 3.8418278595e-12 1.6125938934e-12 2.3106812766e-12 3.3625648301e-12 3.3625648301e-12 1.3625712712e-12 
1.7202408132e-12 4.2897579156e-12 4.2897579156e-12 9.1853243696e-13 1.9583458391e-12 2.4140317239e-12 2.4140317239e-12 1.6862722483e-12 3.2940387208e-12 
3.5198290309e-12 3.5198290309e-12 1.0148517267e-12 2.4522901187e-12 4.4663281547e-12 4.4663281547e-12 -1.4677576013e-13 1.2342362062e-12 1.8081895539e-12 
1.8081895539e-12 2.1429689332e-13 1.4070506056e-12 4.4501825011e-12 4.4501825011e-12 4.9070411961e-13 1.4342941167e-12 2.2383417637e-12 2.2383417637e-12 
-3.1396938376e-12 6.1584978019e-13 2.0516130574e-12 -3.1396938376e-12 2.1899758413e-12 3.7538869164e-12 6.1992072424e-12 6.1992072424e-12 -7.0958044039e-12 
4.6538019155e-13 3.7681342123e-12 -7.0958044039e-12 -4.6272745521e-12 -1.6158073693e-12 -6.8560807854e-13 -4.6272745521e-12 -1.7819895217e-10 -4.4748270556e-11 
-2.5118277274e-11 -1.7819895217e-10 -8.1634258671e-13 3.2425071513e-12 6.2763754354e-12 6.2763754354e-12 -9.76784709e-13 1.2690511045e-12 3.5783336045e-12 
3.5783336045e-12 7.16430742e-11 8.195183227e-11 1.7070119353e-10 1.7070119353e-10 -1.3948412429e-10 -3.3699416257e-11 7.2753240544e-11 -1.3948412429e-10 
-7.0669635703e-12 -2.2892922628e-12 9.2753483305e-13 -7.0669635703e-12 4.6147857504e-11 9.7179696558e-11 1.5675804594e-10 1.5675804594e-10 -3.1787986128e-11 
-1.2170753064e-11 4.8950869192e-11 4.8950869192e-11 -2.8673675835e-10 -1.0151291798e-10 -8.6004323666e-11 -2.8673675835e-10 -3.1946617982e-11 7.2016515649e-12 
4.6265136417e-11 4.6265136417e-11 2.2436515123e-11 2.5299349671e-11 8.9210935207e-11 8.9210935207e-11 -4.1497719097e-12 9.6120090298e-12 2.604222288e-11 
2.604222288e-11 -1.2769329289e-10 -5.415260636e-11 -2.4923500745e-11 -1.2769329289e-10 -8.9044581709e-11 -1.3337433206e-11 9.8741491449e-13 -8.9044581709e-11 
2.0735852723e-11 3.7752248296e-11 1.1522479898e-10 1.1522479898e-10 5.3200043984e-11 1.0892602832e-10 1.734273277e-10 1.734273277e-10 3.3606852234e-11 
5.0770930122e-11 1.1928821764e-10 1.1928821764e-10 -7.4599708449e-11 -1.5313952327e-11 4.8020110776e-11 -7.4599708449e-11 -3.004409035e-11 2.5251123709e-11 
9.761986664e-11 9.761986664e-11 8.1399215215e-11 1.1237434046e-10 1.8259444433e-10 1.8259444433e-10 3.8832505086e-12 2.5096411789e-11 7.3291877703e-11 
7.3291877703e-11 -4.0332003821e-12 6.962550122e-11 2.1646359916e-10 2.1646359916e-10 9.9492684443e-11 1.0995528476e-10 2.361350308e-10 2.361350308e-10 
-4.7889713888e-11 1.9000462853e-11 1.1557721103e-10 1.1557721103e-10 -1.2612219281e-10 -2.4848812997e-11 4.2560405808e-11 -1.2612219281e-10 -3.3723952006e-11 
4.4148705098e-11 1.3367294691e-10 1.3367294691e-10 -7.4979464978e-11 -1.4627096572e-11 4.960192155e-11 -7.4979464978e-11 -2.1523001882e-11 7.4748922162e-11 
1.7108347972e-10 1.7108347972e-10 1.2352871866e-10 1.344626006e-10 3.3175668074e-10 3.3175668074e-10 3.369983593e-11 5.9151009205e-11 1.6168135486e-10 
1.6168135486e-10 -3.5650739528e-11 7.5522126701e-12 6.0412516858e-11 6.0412516858e-11 1.5783106266e-11 3.7359543814e-11 1.0714574992e-10 1.0714574992e-10 
-2.3684710894e-11 1.4566736963e-12 5.8657187198e-11 5.8657187198e-11 -1.0198239048e-10 -2.9477939767e-11 7.7359302509e-12 -1.0198239048e-10 3.0832956306e-11 
5.0734142898e-11 1.520516008e-10 1.520516008e-10 8.5488281466e-12 4.7457624491e-11 8.6134747362e-11 8.6134747362e-11 -7.487654409e-11 -1.1870794809e-11 
-7.1590611012e-12 -7.487654409e-11 -5.1611624546e-11 -8.8391510813e-12 2.0715935627e-11 -5.1611624546e-11 -2.4067386984e-10 -1.1312151614e-10 -9.8465614025e-11 
-2.4067386984e-10 -8.902709143e-11 -3.7439886931e-11 -1.3313221639e-11 -8.902709143e-11 1.8950378394e-11 2.9800379487e-11 6.3842342119e-11 6.3842342119e-11 
1.8483665801e-11 2.8447639641e-11 8.8463794557e-11 8.8463794557e-11 -4.4878201913e-11 7.7092168957e-12 7.8590325017e-11 7.8590325017e-11 -3.7260746212e-11 
-6.7852826464e-12 1.2743922859e-11 -3.7260746212e-11 -2.5877151436e-11 -9.5287399399e-12 1.8775313757e-12 -2.5877151436e-11 1.5884317331e-11 2.510048094e-11 
5.9465401729e-11 5.9465401729e-11 5.3852444677e-12 2.3886442523e-11 4.297961301e-11 4.297961301e-11 -1.3364887425e-11 1.156166311e-12 1.3220641114e-11 
-1.3364887425e-11 2.1871632788e-12 1.4098619262e-11 3.768341746e-11 3.768341746e-11 2.8826512415e-11 3.9389237876e-11 8.8969449709e-11 8.8969449709e-11 
-6.2881777093e-12 1.2257792397e-11 2.3915855313e-11 2.3915855313e-11 1.2419318054e-11 3.5083569707e-11 5.7871912239e-11 5.7871912239e-11 -1.4198937808e-11 
-9.6661228527e-12 1.1317233661e-11 -1.4198937808e-11 -3.9036037928e-11 -2.4287896784e-12 7.7341176068e-12 -3.9036037928e-11 6.6927969301e-12 9.8278618966e-12 
2.1527611173e-11 2.1527611173e-11 1.3240137638e-11 2.1147087829e-11 4.1911574533e-11 4.1911574533e-11 -2.1976302022e-11 2.613473636e-12 2.7255819386e-11 
2.7255819386e-11 1.4243392713e-11 2.4946401269e-11 5.0938706018e-11 5.0938706018e-11 -3.2381308751e-12 2.8257824642e-12 2.2472208411e-11 2.2472208411e-11 
3.446356278e-12 1.4839242875e-11 4.7624300847e-11 4.7624300847e-11 -9.0666722973e-12 9.0282248316e-12 5.2725817466e-11 5.2725817466e-11 1.0413824767e-11 
2.583366129e-11 6.8992413943e-11 6.8992413943e-11 -1.6541113307e-11 -1.8462941256e-12 1.0497674329e-12 -1.6541113307e-11 -5.248335072e-11 -1.9819524571e-11 
-9.8653247098e-12 -5.248335072e-11 -3.6324024608e-11 -1.7575829167e-11 -7.8948462249e-12 -3.6324024608e-11 -5.8165111375e-11 -1.77288144e-11 -1.4842742252e-12 
-5.8165111375e-11 -4.4248404338e-11 -9.0326668791e-12 1.3613751217e-11 -4.4248404338e-11 -3.2228645631e-11 9.905953541e-13 1.8555253277e-11 -3.2228645631e-11 
-5.8975711103e-12 -3.2917554916e-13 9.5998186595e-12 9.5998186595e-12 2.2511927004e-12 8.3825371683e-12 2.4176350131e-11 2.4176350131e-11 1.2921149345e-11 
2.787799108e-11 5.1690559575e-11 5.1690559575e-11 1.1720420404e-11 1.8368508718e-11 2.9546970878e-11 2.9546970878e-11 -1.604870892e-11 -1.997381558e-12 
4.4188704779e-12 -1.604870892e-11 -7.4373451142e-12 4.3980397197e-12 2.3682475395e-11 2.3682475395e-11 -1.4974867402e-11 -4.1813927034e-13 1.5865236673e-11 
1.5865236673e-11 9.3931037839e-12 2.1798910267e-11 2.3181885949e-11 2.3181885949e-11 -2.6528939012e-12 1.2782484417e-12 7.1088674595e-12 7.1088674595e-12 
-1.0451269524e-11 4.6868286785e-13 1.2006430656e-11 1.2006430656e-11 3.851530402e-12 1.4671128796e-11 1.8041410802e-11 1.8041410802e-11 -2.6135067072e-12 
7.5642383709e-12 1.2521788336e-11 1.2521788336e-11 -9.0662206108e-12 2.4578778303e-12 1.058857678e-11 1.058857678e-11 -1.2172537015e-11 -1.0997473325e-11 
-4.3543496597e-12 -1.2172537015e-11 -9.2718738484e-12 -4.5989464034e-13 3.5253104887e-12 -9.2718738484e-12 -2.1858932209e-11 -5.98472975e-12 -1.9068080412e-12 
-2.1858932209e-11 -1.3047945619e-11 -7.0275528457e-12 -3.8058415349e-12 -1.3047945619e-11 -3.9883482483e-12 1.8394810514e-12 5.1171701968e-12 5.1171701968e-12 
-8.0184365374e-12 -5.2801411872e-12 -2.7572522755e-12 -8.0184365374e-12 4.6098690169e-12 6.1133420572e-12 1.0796978926e-11 1.0796978926e-11 3.3075988213e-12 
3.9504946762e-12 8.7977365025e-12 8.7977365025e-12 -2.7765572972e-12 -9.5359564675e-13 1.9775944e-14 -2.7765572972e-12 -4.1482845618e-12 -1.7237765796e-12 
-9.4154885857e-13 -4.1482845618e-12 5.1286165944e-13 2.4495299314e-12 4.1210584091e-12 4.1210584091e-12 1.2142873659e-12 2.6364572432e-12 5.7962453909e-12 
5.7962453909e-12 -6.7108823926e-12 -3.2466000531e-12 -9.4287554237e-14 -6.7108823926e-12 -8.2859132654e-12 -2.993267024e-12 1.3112289372e-14 -8.2859132654e-12 
-4.3023281267e-13 3.3655536935e-12 1.1105100119e-11 1.1105100119e-11 2.3684560358e-12 5.8205878144e-12 8.6763261498e-12 8.6763261498e-12 -5.2626923821e-13 
2.1399693872e-13 2.6734202995e-12 2.6734202995e-12 1.4467114879e-12 1.5722020489e-12 3.7272364632e-12 3.7272364632e-12 1.5723021816e-12 2.7916935004e-12 
6.834604318e-12 6.834604318e-12 4.2521125839e-12 6.1617100475e-12 9.0825373685e-12 9.0825373685e-12 -7.4877235658e-13 2.6781780559e-12 7.3128143006e-12 
7.3128143006e-12 -3.0665451618e-12 3.650091231e-13 2.6340780387e-12 -3.0665451618e-12 4.5696548418e-13 1.057748703e-12 3.5448958128e-12 3.5448958128e-12 
2.0129605812e-12 6.5964125448e-12 1.0212376874e-11 1.0212376874e-11 1.9081097313e-12 4.3999362363e-12 5.3627840324e-12 5.3627840324e-12 -1.2762316672e-11 
-2.330753038e-12 8.5874170996e-13 -1.2762316672e-11 -9.0881465135e-12 -1.7558024727e-12 4.3001849863e-12 -9.0881465135e-12 -2.8495285383e-11 -1.1780745084e-11 
-1.0724869533e-11 -2.8495285383e-11 -9.5607081471e-12 -7.486110886e-13 5.6544832357e-12 -9.5607081471e-12 -5.5391794267e-12 2.1435145962e-12 1.2435504831e-11 
1.2435504831e-11 -5.5975211262e-12 9.1040977784e-12 2.2938313348e-11 2.2938313348e-11 4.6891487606e-12 1.518239231e-11 4.1788358929e-11 4.1788358929e-11 
7.4309334421e-12 1.0112565708e-11 1.854837085e-11 1.854837085e-11 4.8130144157e-13 1.1970196983e-11 3.0184101575e-11 3.0184101575e-11 3.6623246401e-12 
9.9400039855e-12 2.9370611374e-11 2.9370611374e-11 1.2840531238e-11 1.3852412849e-11 3.1189055914e-11 3.1189055914e-11 2.3549686705e-11 2.501090261e-11 
5.4655510686e-11 5.4655510686e-11 -3.3628537846e-11 -1.2742598098e-11 -8.6773640559e-12 -3.3628537846e-11 3.6244308303e-13 9.3896669854e-12 1.7434849932e-11 
1.7434849932e-11 4.773628757e-12 9.0846328949e-12 2.6483708348e-11 2.6483708348e-11 -5.9770256502e-11 -2.6079174585e-11 -2.2426168913e-11 -5.9770256502e-11 
-5.6357748855e-12 5.8916462441e-12 2.0994488641e-11 2.0994488641e-11 -7.9720088538e-12 8.6096261668e-12 2.8573242687e-11 2.8573242687e-11 -2.1688755504e-11 
-9.2027140649e-12 -3.4464304315e-12 -2.1688755504e-11 -3.1013439193e-11 -3.1311532428e-12 1.2759342436e-11 -3.1013439193e-11 -8.2549619809e-11 -3.3512172492e-11 
-2.8912907699e-11 -8.2549619809e-11 -2.0392965025e-11 -1.8250120345e-12 9.3328470598e-12 -2.0392965025e-11 -1.6529494755e-11 -4.4850528779e-12 -7.75532367e-13 
-1.6529494755e-11 -3.6174850438e-11 -1.3457781238e-11 -1.1824768324e-11 -3.6174850438e-11 -2.3315681321e-11 -7.5553928451e-12 1.7612416646e-13 -2.3315681321e-11 
1.4070537611e-11 2.0822120289e-11 3.30410421e-11 3.30410421e-11 -3.0336014715e-11 -8.3666580994e-12 1.2257762814e-11 -3.0336014715e-11 -8.5782772138e-12 
-3.2494208156e-12 5.4188680294e-12 -8.5782772138e-12 2.6616520009e-11 3.6121428268e-11 7.4276251723e-11 7.4276251723e-11 -5.5558711928e-11 -1.6001333753e-11 
-7.8420543191e-12 -5.5558711928e-11 3.6745985587e-13 1.0555533039e-11 2.8541907105e-11 2.8541907105e-11 9.6355609012e-12 1.6636199425e-11 4.8880339674e-11 
4.8880339674e-11 -3.1496248469e-11 -5.0549276137e-12 1.1253136083e-11 -3.1496248469e-11 -1.3096674146e-11 1.8433282068e-12 7.8802739394e-12 -1.3096674146e-11 
-3.8134277663e-11 -1.1044471675e-11 1.5509793381e-12 -3.8134277663e-11 -2.1703509514e-11 1.8602304566e-12 3.5850490576e-12 -2.1703509514e-11 8.4901814134e-12 
1.1129730698e-11 2.9694387888e-11 2.9694387888e-11 -1.4592271692e-11 2.603402026e-12 2.5211309666e-11 2.5211309666e-11 2.9278511009e-11 3.387791558e-11 
7.527457341e-11 7.527457341e-11 -5.5646785712e-12 1.9054619837e-11 5.4173858734e-11 5.4173858734e-11 -3.2140403301e-11 -2.7617578846e-12 2.5120231186e-11 
-3.2140403301e-11 -9.1531668718e-11 -3.3951184622e-11 -1.3285346659e-11 -9.1531668718e-11 -1.4610458737e-10 -6.1906070911e-11 -5.6842941714e-11 -1.4610458737e-10 
-1.2170644331e-10 -4.6630879599e-11 -4.2210377087e-11 -1.2170644331e-10 -9.510034727e-12 3.1376222086e-11 1.0050891264e-10 1.0050891264e-10 -1.5843696881e-12 
2.9367570343e-11 1.1044539935e-10 1.1044539935e-10 -2.9785215245e-11 5.8958609421e-12 5.3504944303e-11 5.3504944303e-11 2.1451226529e-11 4.2496519351e-11 
6.024875412e-11 6.024875412e-11 -5.83822876e-11 -2.411710127e-11 -1.343081113e-11 -5.83822876e-11 -1.4152796393e-11 1.0319737763e-11 4.430989863e-11 
4.430989863e-11 -7.4191854566e-11 -1.314857005e-11 1.6033644616e-11 -7.4191854566e-11 -1.2768979457e-10 -4.6937769814e-11 -3.0320835613e-11 -1.2768979457e-10 
3.0224785663e-11 3.3542278257e-11 9.382293608e-11 9.382293608e-11 -2.8284219799e-11 7.6093148308e-12 5.1167514969e-11 5.1167514969e-11 -9.2984454647e-11 
-1.0001392411e-11 1.0428707058e-11 -9.2984454647e-11 -1.053120772e-10 -4.007248902e-11 -3.6019033783e-11 -1.053120772e-10 -9.5719033843e-11 -4.0145376129e-11 
-2.3816890028e-11 -9.5719033843e-11 -5.6359237487e-11 1.5227691256e-11 9.7934046231e-11 9.7934046231e-11 -5.6217453914e-12 5.5206837855e-11 1.8322430754e-10 
1.8322430754e-10 7.5789712358e-11 9.1226037123e-11 2.4766985052e-10 2.4766985052e-10 9.4443477071e-11 1.1605209197e-10 2.8305243096e-10 2.8305243096e-10 
1.2126659324e-11 6.5811033823e-11 1.7747100685e-10 1.7747100685e-10 1.0976763877e-10 1.247519641e-10 2.9835839713e-10 2.9835839713e-10 -2.8119739098e-11 
2.5485894175e-11 9.5190944923e-11 9.5190944923e-11 4.5290790989e-11 7.2633934831e-11 1.9482657418e-10 1.9482657418e-10 -3.7447948363e-11 -2.0334283936e-11 
3.0035322992e-12 -3.7447948363e-11 -2.0272804248e-10 -6.8934045202e-11 -4.6890812316e-11 -2.0272804248e-10 -1.5678582803e-11 2.7066809323e-11 1.2036407348e-10 
1.2036407348e-10 1.7165059531e-12 4.8750173481e-11 1.4800442057e-10 1.4800442057e-10 -4.0510964089e-11 6.9312057109e-12 7.0143848378e-11 7.0143848378e-11 
-2.6888265017e-11 -1.508343559e-11 2.4971460606e-11 -2.6888265017e-11 1.0227528494e-11 7.6917231588e-11 2.2601093992e-10 2.2601093992e-10 4.0548987796e-11 
5.438757837e-11 1.5190503383e-10 1.5190503383e-10 -1.1317446622e-10 -1.1359867219e-11 7.5220033438e-11 -1.1317446622e-10 -9.6396458465e-11 -3.0750166388e-11 
-6.8317751468e-12 -9.6396458465e-11 -8.9470027303e-11 -1.4324462037e-11 3.815443934e-11 -8.9470027303e-11 -1.3120201543e-10 -3.7191211087e-11 -3.7007734841e-12 
-1.3120201543e-10 6.5699074799e-11 1.0171225243e-10 2.0214337277e-10 2.0214337277e-10 -4.6390697818e-11 -3.3096801206e-12 2.6156377938e-11 -4.6390697818e-11 
-1.2099435198e-11 -4.3919847195e-12 -2.070120082e-12 -1.2099435198e-11 3.4624093361e-11 5.0777835917e-11 1.3733667072e-10 1.3733667072e-10 -4.1475821262e-12 
-6.3874679564e-13 1.4903509219e-12 -4.1475821262e-12 1.1770783805e-12 2.5861082589e-12 8.8858433606e-12 8.8858433606e-12 8.6188734228e-11 1.1859919512e-10 
2.5948107065e-10 2.5948107065e-10 -3.0870033768e-12 -1.0815550501e-12 6.0659142696e-13 -3.0870033768e-12 1.1924565643e-11 4.0302306017e-11 1.3283302834e-10 
1.3283302834e-10 3.6094555167e-12 6.9158095989e-12 1.4570384884e-11 1.4570384884e-11 -1.1717849519e-10 -5.9641882279e-12 4.1784143415e-11 -1.1717849519e-10 
-4.4779654135e-12 5.4410145691e-12 1.0407270844e-11 1.0407270844e-11 -3.3462705732e-11 2.82834671e-11 6.1210828632e-11 6.1210828632e-11 -5.0198622374e-12 
-3.62652116e-12 5.8343023975e-12 5.8343023975e-12 -7.0971119484e-11 -2.2876599913e-11 -5.796780603e-12 -7.0971119484e-11 -1.958315271e-10 -8.7625108625e-11 
-8.091156427e-11 -1.958315271e-10 -2.9065363006e-11 4.1858726855e-11 9.6342436151e-11 9.6342436151e-11 1.5462996508e-11 4.2030795642e-11 4.761120785e-11 
4.761120785e-11 -1.8234180584e-10 -9.4580176262e-11 -2.0843317902e-11 -1.8234180584e-10 -1.8597990225e-10 -6.4573713555e-11 -3.0937684197e-11 -1.8597990225e-10 
3.9785967892e-11 7.3878500693e-11 1.1792113141e-10 1.1792113141e-10 9.017665302e-11 1.0152013724e-10 2.0651930974e-10 2.0651930974e-10 -1.0309214182e-10 
-9.2882871248e-11 -5.8248986933e-11 -1.0309214182e-10 -3.3570431498e-11 8.4350897306e-12 1.5454572177e-10 1.5454572177e-10 4.5367825253e-11 8.531809562e-11 
2.4739737913e-10 2.4739737913e-10 4.2023684494e-11 6.908607259e-11 1.8001974292e-10 1.8001974292e-10 -9.0879918953e-12 2.7175916736e-11 9.3801775159e-11 
9.3801775159e-11 8.5617063907e-11 1.2790680121e-10 3.1591313488e-10 3.1591313488e-10 -1.1425279821e-10 -4.375001486e-11 -1.0872486927e-11 -1.1425279821e-10 
1.2959626329e-11 2.6209551073e-11 6.3287822598e-11 6.3287822598e-11 -9.6876365893e-12 -5.8409187513e-12 -7.7785465937e-13 -9.6876365893e-12 -5.6921093524e-11 
-1.8357590534e-12 1.2082012578e-11 -5.6921093524e-11 -1.3242808246e-10 -3.4217657781e-11 -1.0903559756e-11 -1.3242808246e-10 2.9867596642e-11 3.7877288871e-11 
1.2931991449e-10 1.2931991449e-10 -2.0847587527e-10 -7.3964023959e-11 -5.5213200776e-11 -2.0847587527e-10 -9.0207060781e-12 2.1739394679e-11 7.86145114e-11 
7.86145114e-11 3.557802018e-11 4.9692223848e-11 1.0583145597e-10 1.0583145597e-10 4.9994084527e-11 6.5929082405e-11 1.5608193307e-10 1.5608193307e-10 
1.5715731883e-10 1.9647204307e-10 3.971906381e-10 3.971906381e-10 -1.7552910224e-11 1.4182559287e-11 6.7555150937e-11 6.7555150937e-11 5.8653548567e-11 
9.2572039545e-11 2.4030141189e-10 2.4030141189e-10 -3.7965335995e-11 -1.7452293502e-11 5.1973194966e-12 -3.7965335995e-11 -1.6831484696e-11 1.7023623675e-11 
8.0559161021e-11 8.0559161021e-11 2.620721994e-11 8.516100429e-11 1.9099437577e-10 1.9099437577e-10 3.1398746463e-11 4.2580944579e-11 9.8798808958e-11 
9.8798808958e-11 -1.3140917148e-10 -5.0640224737e-11 -4.3984903786e-11 -1.3140917148e-10 3.2756244044e-11 5.24953781e-11 1.1860017786e-10 1.1860017786e-10 
-8.8521743594e-11 1.5071039418e-12 6.8713259652e-11 -8.8521743594e-11 -9.9424528286e-11 -3.1106421731e-11 -9.0275499828e-12 -9.9424528286e-11 -2.3836156306e-10 
-1.0616204743e-10 -1.0112638951e-10 -2.3836156306e-10 -1.250430098e-10 -3.6690612103e-11 -2.20823781e-11 -1.250430098e-10 -1.2861115714e-11 1.4353181592e-11 
3.3896334122e-11 3.3896334122e-11 -1.2917677514e-11 6.1880924137e-12 2.23420751e-11 2.23420751e-11 -1.3516555239e-11 5.2108964777e-12 3.9270428761e-11 
3.9270428761e-11 -5.016750711e-11 -6.2326418214e-12 1.2771818932e-11 -5.016750711e-11 -2.1959169813e-11 6.7775448265e-12 5.6988424987e-11 5.6988424987e-11 
2.692864225e-11 3.418115824e-11 9.648979951e-11 9.648979951e-11 2.9583624208e-14 2.1021756077e-11 4.7253360299e-11 4.7253360299e-11 -7.6345675634e-11 
-1.3783250794e-11 2.7939026428e-11 -7.6345675634e-11 -7.1211981011e-11 -2.7585913822e-11 5.3829948327e-12 -7.1211981011e-11 -3.634440773e-11 2.5064157085e-12 
4.3812632021e-11 4.3812632021e-11 -9.3368439978e-12 1.7388466718e-12 1.1772179326e-11 1.1772179326e-11 -4.445243322e-11 -2.7763315034e-11 -1.8510351746e-11 
-4.445243322e-11 7.038510242e-12 2.3978943445e-11 4.8606246313e-11 4.8606246313e-11 -4.5384916488e-13 2.0063146947e-11 2.2891462218e-11 2.2891462218e-11 
-2.366005673e-13 5.9346913349e-12 1.7113569232e-11 1.7113569232e-11 -4.8512956095e-11 -4.6039072165e-12 1.2697813312e-11 -4.8512956095e-11 -6.5927026416e-11 
-1.8085614148e-11 1.3203440564e-11 -6.5927026416e-11 -1.4859964774e-11 -4.6863995187e-12 8.0971842931e-12 -1.4859964774e-11 1.3668340574e-11 3.2787243745e-11 
4.1581615681e-11 4.1581615681e-11 -3.068412038e-11 3.6451142473e-12 3.8488186133e-11 3.8488186133e-11 -6.4051428393e-11 -2.0319352707e-11 -5.4120188999e-12 
-6.4051428393e-11 -3.4570438416e-11 -1.2052196467e-11 4.789948825e-13 -3.4570438416e-11 -4.2684126602e-11 -1.0890422132e-11 1.7524778734e-11 -4.2684126602e-11 
-1.5815116617e-11 -5.5316435821e-12 4.5199142989e-12 -1.5815116617e-11 -1.3639217611e-11 -7.9935352537e-12 6.1069828645e-12 -1.3639217611e-11 -3.1972567821e-11 
-9.1559686668e-12 4.1680364882e-12 -3.1972567821e-11 -3.4918383525e-11 -1.591747213e-11 -2.5069543446e-12 -3.4918383525e-11 -3.89292313e-11 -1.7752009716e-11 
2.9048410164e-12 -3.89292313e-11 2.3222278416e-11 3.4874365564e-11 4.6106056021e-11 4.6106056021e-11 -8.4176272069e-12 3.2501405292e-12 4.4372256678e-11 
4.4372256678e-11 2.0089611586e-11 3.9231799902e-11 5.8032588511e-11 5.8032588511e-11 1.4820235913e-11 2.1072187491e-11 3.3843476596e-11 3.3843476596e-11 
-2.9056496094e-11 -1.9308182423e-11 -9.0113214824e-12 -2.9056496094e-11 -1.2560851072e-11 -2.3724323317e-12 1.1984248404e-11 -1.2560851072e-11 -7.8816153993e-12 
-1.6299659315e-12 2.5991431331e-11 2.5991431331e-11 -1.0310232984e-11 3.3552784955e-12 1.8111394488e-11 1.8111394488e-11 -1.0925071775e-12 1.2467456832e-12 
1.4157223494e-11 1.4157223494e-11 -4.9284792524e-12 6.3450956445e-12 2.1655243608e-11 2.1655243608e-11 2.3162238877e-11 3.3261050473e-11 4.852741065e-11 
4.852741065e-11 -1.1576723892e-11 -5.2746458777e-12 -4.5724602304e-12 -1.1576723892e-11 -1.3397922364e-11 -1.160557943e-11 -2.6219982065e-12 -1.3397922364e-11 
2.1782602605e-11 3.1909741391e-11 4.1717356004e-11 4.1717356004e-11 -5.4500820179e-12 1.3303662285e-12 8.1095837893e-12 8.1095837893e-12 -2.0176203684e-11 
-1.1279758961e-11 -6.7947073551e-12 -2.0176203684e-11 7.2162956086e-13 3.176121603e-12 6.5105788361e-12 6.5105788361e-12 -1.6488167299e-12 2.0957123222e-12 
6.7522044077e-12 6.7522044077e-12 8.6759023139e-13 3.3798541504e-12 5.8464756182e-12 5.8464756182e-12 1.9512771236e-12 4.0171369106e-12 6.2613859658e-12 
6.2613859658e-12 6.7761614455e-12 9.3597234874e-12 1.4048345067e-11 1.4048345067e-11 2.5159584595e-12 9.157293867e-12 1.4130757673e-11 1.4130757673e-11 
-2.4648082873e-12 2.580639496e-12 6.9097987913e-12 6.9097987913e-12 4.1967770026e-12 6.8050011371e-12 1.470107186e-11 1.470107186e-11 1.116898911e-12 
4.0169623444e-12 9.9690687446e-12 9.9690687446e-12 5.2384172835e-12 7.3017485732e-12 1.9031824143e-11 1.9031824143e-11 -9.1121590823e-12 -3.242991537e-12 
-1.8695793807e-12 -9.1121590823e-12 -2.8561984342e-12 6.2652375254e-14 2.793546059e-12 -2.8561984342e-12 -6.7349663414e-12 -1.8908276003e-12 7.3280294174e-13 
-6.7349663414e-12 -1.6031703067e-11 -8.4081695734e-12 -4.2698373593e-12 -1.6031703067e-11 1.6366932619e-12 4.5797106596e-12 1.0328526079e-11 1.0328526079e-11 
-1.0167200057e-11 -4.0685965735e-12 2.3963066302e-12 -1.0167200057e-11 -3.0571391516e-12 2.5096291625e-12 8.7874499892e-12 8.7874499892e-12 -4.1430888803e-12 
-1.8220715223e-12 -1.2339395974e-12 -4.1430888803e-12 -2.65822527e-12 2.4248700155e-14 6.5371015698e-12 6.5371015698e-12 -4.3321628876e-12 3.6771404697e-12 
5.3387824179e-12 5.3387824179e-12 -2.9205725917e-12 -1.9281330658e-13 1.6713888983e-12 -2.9205725917e-12 -6.1078307018e-12 -1.5679807233e-12 3.0787914251e-12 
-6.1078307018e-12 -1.0050162614e-11 -1.9071245103e-12 -7.9293287618e-13 -1.0050162614e-11 7.3777628979e-12 1.0092140309e-11 2.6649896793e-11 2.6649896793e-11 
1.3440220421e-11 1.5044367962e-11 3.0756211617e-11 3.0756211617e-11 -1.4060811486e-12 1.3041025182e-11 4.8906855967e-11 4.8906855967e-11 -1.5758395594e-11 
-6.3395037883e-12 1.4547293819e-12 -1.5758395594e-11 -3.7147569527e-11 -1.33113717e-11 -7.1447387737e-12 -3.7147569527e-11 5.0673746262e-12 1.0214072381e-11 
2.0887532992e-11 2.0887532992e-11 -2.4355113981e-13 3.2868888324e-12 1.1983731307e-11 1.1983731307e-11 -8.4029743735e-12 4.0261129443e-12 1.3787740429e-11 
1.3787740429e-11 -9.9191945211e-12 2.0483181111e-12 2.261598641e-11 2.261598641e-11 -9.6183810252e-12 -3.2687071015e-12 4.7338881266e-12 -9.6183810252e-12 
-8.2213751908e-12 -4.6882778506e-12 -9.5367695868e-13 -8.2213751908e-12 -3.5193390946e-11 -9.4778907224e-12 -6.8499683319e-12 -3.5193390946e-11 -6.1009624297e-11 
-2.5291739543e-11 -1.908313616e-11 -6.1009624297e-11 2.1477667709e-11 3.072163834e-11 8.0940693951e-11 8.0940693951e-11 6.3853086346e-12 3.6997519124e-11 
1.0458907224e-10 1.0458907224e-10 -8.2268430092e-12 8.5492486506e-12 3.3417994359e-11 3.3417994359e-11 -1.831591614e-11 6.6491136618e-12 2.8363522479e-11 
2.8363522479e-11 -4.6367236189e-11 -1.4113898524e-11 5.3169347123e-12 -4.6367236189e-11 -3.5011922683e-11 -9.3549312884e-12 1.519213971e-12 -3.5011922683e-11 
1.7511810181e-11 2.9774049706e-11 5.4614640113e-11 5.4614640113e-11 -7.6172473354e-11 -2.9618516379e-11 -2.2665410267e-11 -7.6172473354e-11 -6.0091092122e-11 
-9.4209044572e-12 2.8832716579e-11 -6.0091092122e-11 -2.6527487416e-11 -1.0898831323e-11 -9.628061261e-12 -2.6527487416e-11 -6.9857674804e-11 -2.7398486703e-11 
-2.0184538493e-11 -6.9857674804e-11 -1.0421848345e-10 -3.4240563744e-11 -1.7351552802e-11 -1.0421848345e-10 -4.1454321778e-11 -1.1161290419e-11 1.1676142198e-11 
-4.1454321778e-11 -6.2072948e-11 -1.6104166439e-11 9.1681443886e-13 -6.2072948e-11 2.4681019742e-12 2.3844642555e-11 5.2010055471e-11 5.2010055471e-11 
-5.0084598543e-11 -1.3371097211e-11 2.2499575447e-13 -5.0084598543e-11 2.138587958e-11 2.9416856325e-11 8.3291364094e-11 8.3291364094e-11 -3.4744751533e-11 
-6.7275796544e-12 1.3315621187e-11 -3.4744751533e-11 3.1212621985e-11 3.9191445856e-11 8.3639432159e-11 8.3639432159e-11 1.8854127736e-11 2.3385676744e-11 
7.199169552e-11 7.199169552e-11 -1.9419072391e-12 2.4985264023e-11 5.2952043216e-11 5.2952043216e-11 1.6050050413e-11 2.6910903648e-11 7.1097045939e-11 
7.1097045939e-11 -3.9102355671e-12 3.9638898624e-11 1.2114453694e-10 1.2114453694e-10 -2.160806295e-11 -4.0639259498e-12 8.4114688995e-12 -2.160806295e-11 
-1.5362978466e-10 -5.7235521667e-11 -2.9491493672e-11 -1.5362978466e-10 -4.5062287755e-11 -6.6235483268e-12 3.6680514082e-11 -4.5062287755e-11 -2.3168565985e-11 
1.5112479811e-11 6.5583786173e-11 6.5583786173e-11 -2.8948678143e-11 1.4329390861e-11 8.9299187282e-11 8.9299187282e-11 2.118924154e-11 3.3182201814e-11 
9.2386156646e-11 9.2386156646e-11 -5.7774308549e-11 -1.1439888941e-11 1.054804749e-11 -5.7774308549e-11 5.5003852351e-11 7.0032403233e-11 1.6032584442e-10 
1.6032584442e-10 -1.6271155693e-10 -5.2382543613e-11 -3.6354399453e-11 -1.6271155693e-10 -4.1778213168e-11 -1.0541715145e-12 2.1050764683e-11 -4.1778213168e-11 
-9.179547246e-11 -2.1047218186e-11 1.1881790646e-11 -9.179547246e-11 -1.0939492937e-10 -3.0761700214e-11 2.5101029579e-11 -1.0939492937e-10 1.3693563838e-11 
3.5125238879e-11 6.3417897283e-11 6.3417897283e-11 2.3577129157e-11 4.2824734407e-11 1.1688253644e-10 1.1688253644e-10 -8.7193506871e-11 -1.4367170258e-11 
5.1340477129e-11 -8.7193506871e-11 1.4194711847e-11 5.2125029422e-11 1.4846045873e-10 1.4846045873e-10 1.7931465487e-12 3.689368321e-11 1.3060747024e-10 
1.3060747024e-10 1.0859197389e-11 2.5494330954e-11 6.5041071657e-11 6.5041071657e-11 -5.4956903241e-11 -1.3543468072e-11 1.4387871312e-11 -5.4956903241e-11 
-5.8591835021e-11 -1.3471356083e-11 1.8633691105e-11 -5.8591835021e-11 -5.3583204247e-11 7.1050227785e-12 9.1027981469e-11 9.1027981469e-11 6.4310147242e-11 
7.897710366e-11 1.580346491e-10 1.580346491e-10 -3.9819486542e-11 -1.0743639564e-11 2.6739161057e-12 -3.9819486542e-11 -1.5062065668e-10 -5.8289098991e-11 
-3.351764433e-11 -1.5062065668e-10 -3.4366582186e-10 -1.453078914e-10 -1.4178228674e-10 -3.4366582186e-10 4.799065929e-11 6.8352625056e-11 1.9920271565e-10 
1.9920271565e-10 7.1312786831e-11 1.0503681326e-10 2.3104969991e-10 2.3104969991e-10 -1.5307357514e-11 1.9536607865e-11 7.1751649649e-11 7.1751649649e-11 
-6.5730124931e-11 -2.748851332e-11 -2.526296175e-11 -6.5730124931e-11 -1.3384470075e-10 -2.4859006962e-11 4.8722257715e-11 -1.3384470075e-10 -3.7163235427e-10 
-1.6408278291e-10 -1.2782686282e-10 -3.7163235427e-10 -1.9933408231e-10 -8.6067390374e-11 -4.7231427313e-11 -1.9933408231e-10 9.0114044507e-12 4.0533273502e-11 
1.5732072205e-10 1.5732072205e-10 -1.1600964309e-10 -3.1855004427e-11 9.6938875216e-12 -1.1600964309e-10 1.0228057433e-12 9.1040390028e-12 1.0083041525e-10 
1.0083041525e-10 -9.4426714463e-11 -3.075175941e-11 -6.1943261262e-12 -9.4426714463e-11 -2.3859877378e-10 -9.8943666915e-11 -8.3518459306e-11 -2.3859877378e-10 
-2.0784784178e-12 1.7017489203e-12 7.4348894975e-12 7.4348894975e-12 1.1644950531e-10 1.4900791653e-10 2.4509157816e-10 2.4509157816e-10 -9.1981852831e-12 
-4.929652788e-12 -3.412151929e-12 -9.1981852831e-12 4.9283882191e-12 4.0148574431e-11 1.2848783735e-10 1.2848783735e-10 3.5491196469e-12 5.6733070445e-12 
1.3195563309e-11 1.3195563309e-11 9.6554602516e-11 1.6285750965e-10 3.0827688783e-10 3.0827688783e-10 -2.2942721638e-11 -4.2446269179e-12 -2.0427914442e-12 
-2.2942721638e-11 -1.5671019375e-11 -3.6847176227e-12 9.8935699736e-13 -1.5671019375e-11 1.2925809756e-10 1.3643749415e-10 3.2825240829e-10 3.2825240829e-10 
-2.668473378e-10 -8.7325686881e-11 -5.3226275315e-11 -2.668473378e-10 5.7682252048e-12 6.8878500744e-12 1.5186274721e-11 1.5186274721e-11 3.0636985832e-11 
4.837962274e-11 1.0359639143e-10 1.0359639143e-10 -4.6955162797e-12 -8.3178410522e-13 9.8635384927e-14 -4.6955162797e-12 4.3541044712e-11 7.6605960511e-11 
2.5717139478e-10 2.5717139478e-10 1.2038469827e-11 4.1530615412e-11 1.3515431476e-10 1.3515431476e-10 2.5662203949e-12 7.7132230277e-12 1.5662556577e-11 
1.5662556577e-11 -1.8498637785e-10 -6.7911670492e-11 -5.0678751657e-11 -1.8498637785e-10 9.5192384318e-12 1.4308027359e-11 2.3089234209e-11 2.3089234209e-11 
-1.3359544991e-11 -1.0304261924e-11 -6.0399130848e-12 -1.3359544991e-11 -2.3002619506e-11 -8.2049554921e-12 -3.7865450022e-12 -2.3002619506e-11 1.1817545126e-10 
1.3005758354e-10 3.5549896521e-10 3.5549896521e-10 -1.5728982953e-11 -1.412718061e-11 -6.1682664378e-12 -1.5728982953e-11 5.6099252169e-14 3.8268979893e-12 
1.2943771759e-11 1.2943771759e-11 5.7607716847e-11 6.4318242825e-11 1.3134344033e-10 1.3134344033e-10 -9.9921768346e-12 9.4183530919e-12 4.2293893743e-11 
4.2293893743e-11 6.7005567004e-11 9.0945349029e-11 1.9976388397e-10 1.9976388397e-10 8.0602966118e-11 9.5022948394e-11 2.4513108549e-10 2.4513108549e-10 
8.9400450077e-12 5.182435356e-11 1.5811480143e-10 1.5811480143e-10 5.2544964151e-11 6.1197164813e-11 1.2335157104e-10 1.2335157104e-10 -7.965105415e-11 
7.6620490006e-12 1.0943016515e-10 1.0943016515e-10 -4.2472102532e-11 9.8063700932e-12 4.4403994439e-11 4.4403994439e-11 1.3476784801e-11 2.3917883653e-11 
7.3714331546e-11 7.3714331546e-11 5.2348765932e-11 8.7006972719e-11 1.9063226135e-10 1.9063226135e-10 1.2598357028e-10 1.3480373126e-10 3.3958569846e-10 
3.3958569846e-10 1.4336286026e-10 1.6131551558e-10 3.4740462415e-10 3.4740462415e-10 1.0108266542e-10 1.2504503806e-10 3.0381629652e-10 3.0381629652e-10 
-2.3663685448e-11 1.5766213756e-11 4.5642201692e-11 4.5642201692e-11 4.480134094e-11 5.6111433272e-11 1.8151432579e-10 1.8151432579e-10 6.5652019436e-11 
9.7546460977e-11 2.2375971959e-10 2.2375971959e-10 1.7359153681e-10 1.9168734302e-10 3.9002012018e-10 3.9002012018e-10 9.3114870744e-11 1.3813316738e-10 
3.6143496187e-10 3.6143496187e-10 5.2352824919e-11 7.7721893537e-11 2.0709718154e-10 2.0709718154e-10 3.3147272111e-11 4.88373905e-11 1.6188823739e-10 
1.6188823739e-10 4.0398260929e-11 7.4802743848e-11 1.3595839522e-10 1.3595839522e-10 4.3271756385e-11 6.6494361109e-11 2.0979918251e-10 2.0979918251e-10 
-3.6105034395e-11 1.0171307012e-11 8.8369227383e-11 8.8369227383e-11 5.2694959336e-11 7.6118800241e-11 1.6767894042e-10 1.6767894042e-10 6.1270975979e-11 
7.7344269669e-11 1.7366345435e-10 1.7366345435e-10 8.685810449e-11 9.4685973368e-11 2.0521242214e-10 2.0521242214e-10 8.3034523388e-11 9.6511918525e-11 
2.3615075809e-10 2.3615075809e-10 1.0700965765e-10 1.1759504335e-10 2.73160299e-10 2.73160299e-10 5.0299096865e-11 6.3148501105e-11 1.6078280203e-10 
1.6078280203e-10 3.4619777676e-11 5.5871728102e-11 1.4741139422e-10 1.4741139422e-10 8.6011228075e-11 9.2612183475e-11 2.2837208845e-10 2.2837208845e-10 
2.0115336429e-11 4.5060704383e-11 1.2982175919e-10 1.2982175919e-10 -1.0999257223e-11 8.8004379525e-12 3.7008919271e-11 3.7008919271e-11 3.1994945221e-13 
1.9543519837e-11 3.9536430711e-11 3.9536430711e-11 7.1959118091e-11 9.2313171601e-11 2.2835381031e-10 2.2835381031e-10 1.2208237436e-11 1.9581929242e-11 
8.8223733322e-11 8.8223733322e-11 -5.1475067456e-12 4.6636268971e-12 1.5460319848e-11 1.5460319848e-11 -1.0130426933e-10 -4.8290442513e-11 -5.6340881569e-12 
-1.0130426933e-10 -2.113184173e-12 7.9881345255e-12 5.3626089647e-11 5.3626089647e-11 -3.6855349007e-12 1.7823497697e-11 5.7101237203e-11 5.7101237203e-11 
-1.0985672872e-10 -5.0975521363e-11 -4.5599749913e-11 -1.0985672872e-10 -1.6870776019e-11 1.8063494748e-12 3.1154036544e-11 3.1154036544e-11 -4.7150493925e-11 
-1.267537532e-11 -9.7944307553e-12 -4.7150493925e-11 -1.2665803938e-10 -4.8235587346e-11 -2.9514573278e-11 -1.2665803938e-10 -2.4205069765e-11 1.6587872007e-12 
7.5698425648e-12 -2.4205069765e-11 -1.9282621794e-11 -5.0728358038e-12 1.6057691597e-11 -1.9282621794e-11 -7.5216959975e-11 -3.1549274637e-11 -2.6301465388e-11 
-7.5216959975e-11 -1.6508020591e-11 -7.0501119093e-12 -4.8768974994e-12 -1.6508020591e-11 -1.4378421032e-11 1.0315786519e-12 3.115671238e-11 3.115671238e-11 
-5.9976249663e-11 -3.5714501809e-11 -2.3412548528e-11 -5.9976249663e-11 -8.513465465e-12 1.1344502153e-11 4.3312563312e-11 4.3312563312e-11 -1.0204076616e-11 
1.0261464735e-11 2.8984791881e-11 2.8984791881e-11 -1.2336221415e-11 1.0810497205e-11 4.645512421e-11 4.645512421e-11 -7.7838364152e-11 -3.5177212024e-11 
-3.1284523825e-11 -7.7838364152e-11 -1.0049206373e-10 -4.9839442625e-11 -4.4159893644e-11 -1.0049206373e-10 -7.4921298374e-11 -2.0101230676e-11 1.487837905e-11 
-7.4921298374e-11 -1.9043443918e-10 -8.878866218e-11 -8.1931498642e-11 -1.9043443918e-10 -1.1062365304e-10 -5.029939732e-11 -3.9842549644e-11 -1.1062365304e-10 
-1.557720383e-11 -6.4643622254e-13 1.2681918052e-11 -1.557720383e-11 -7.6392189443e-12 1.8463337964e-13 1.1502277565e-11 1.1502277565e-11 2.3124409344e-11 
2.4448259364e-11 5.7566031292e-11 5.7566031292e-11 -1.9494530979e-11 2.7585669257e-12 6.6167540529e-12 -1.9494530979e-11 -3.1753460404e-11 -8.7107472332e-12 
7.8803576374e-12 -3.1753460404e-11 -3.2097768771e-12 1.1657763679e-11 3.4153953198e-11 3.4153953198e-11 -2.6363772325e-12 2.0874385225e-12 2.675768871e-11 
2.675768871e-11 -1.7740753742e-12 2.4117851167e-12 9.7850902575e-12 9.7850902575e-12 -5.7728613727e-12 5.5157142763e-13 4.6141379451e-12 -5.7728613727e-12 
-1.0405738448e-11 -2.3840141372e-12 2.7717225857e-12 -1.0405738448e-11 4.5552046037e-12 1.1768282707e-11 4.3379912689e-11 4.3379912689e-11 -2.4945941263e-11 
-3.2906731171e-12 1.062916438e-11 -2.4945941263e-11 1.0069836639e-11 1.147339498e-11 2.3183768381e-11 2.3183768381e-11 -2.4554999864e-12 7.5828709118e-12 
2.2498082075e-11 2.2498082075e-11 -4.0101265876e-11 -2.1026142601e-11 -1.5778691523e-11 -4.0101265876e-11 -1.7611301108e-11 -4.92961851e-12 4.8103961829e-13 
-1.7611301108e-11 -1.0373018549e-11 6.9517392961e-12 1.3641659253e-11 1.3641659253e-11 1.3190960327e-12 3.4095358323e-12 1.1158548135e-11 1.1158548135e-11 
-1.8254054179e-11 -1.1214586713e-11 -7.3654091078e-12 -1.8254054179e-11 -3.8932987454e-12 1.4404488282e-13 5.0647528625e-12 5.0647528625e-12 1.0909633332e-11 
1.7046213613e-11 2.1628253055e-11 2.1628253055e-11 -8.4244013391e-12 -5.8979972582e-12 -3.8922014027e-12 -8.4244013391e-12 -5.0775972779e-12 -2.1671642254e-12 
7.9531055033e-12 7.9531055033e-12 -4.8024523137e-12 -2.0130629597e-12 1.0475552734e-12 -4.8024523137e-12 -1.0045599293e-12 1.4339204119e-12 5.6421725174e-12 
5.6421725174e-12 -1.4302204426e-12 2.6030933876e-13 2.3842181039e-12 2.3842181039e-12 -2.2357264853e-12 1.9381344427e-12 3.2321640426e-12 3.2321640426e-12 
-4.7207682898e-12 -1.0243991362e-12 3.1141644261e-12 -4.7207682898e-12 6.4070233314e-12 1.0459524389e-11 1.460414228e-11 1.460414228e-11 -6.3288781044e-12 
-2.0017341963e-12 2.0993630071e-13 -6.3288781044e-12 2.3031799023e-12 4.255343478e-12 8.7215066197e-12 8.7215066197e-12 1.497688061e-12 2.1202040607e-12 
5.1858378784e-12 5.1858378784e-12 6.0778818746e-13 2.2121438292e-12 4.3647179833e-12 4.3647179833e-12 -1.2718932858e-12 4.3982237354e-13 2.7547239122e-12 
2.7547239122e-12 5.3106158062e-12 5.6362833978e-12 1.2226110796e-11 1.2226110796e-11 2.2656441349e-12 5.1790439555e-12 6.1150619096e-12 6.1150619096e-12 
-1.4685073893e-12 1.8786921346e-12 5.5601552547e-12 5.5601552547e-12 -1.1105274319e-12 1.3473448528e-12 6.2394855791e-12 6.2394855791e-12 2.9719018263e-12 
5.7128730964e-12 1.0744125077e-11 1.0744125077e-11 -5.938543098e-12 3.7821008304e-12 5.2933952676e-12 -5.938543098e-12 6.6600926296e-12 1.2145153615e-11 
3.1790853755e-11 3.1790853755e-11 -9.008013748e-13 2.8503697159e-12 1.7378181659e-11 1.7378181659e-11 -1.3456262603e-11 -1.2449271728e-11 -5.9700556688e-12 
-1.3456262603e-11 -1.8442169799e-11 -4.1431943888e-12 1.9421841873e-12 -1.8442169799e-11 -2.315088618e-11 -9.9340435989e-12 -6.3799902209e-12 -2.315088618e-11 
-6.7526283595e-11 -2.7171946078e-11 -2.5012170327e-11 -6.7526283595e-11 -6.2810121754e-11 -2.2490389356e-11 -1.032618889e-11 -6.2810121754e-11 -3.7634443479e-11 
-1.4395183461e-11 -6.66187306e-12 -3.7634443479e-11 -5.2964145784e-11 -2.6464730098e-11 -2.1662224119e-11 -5.2964145784e-11 -3.1344102764e-11 -1.1044570658e-11 
1.9154342182e-13 -3.1344102764e-11 -3.7460656015e-11 -1.4890550382e-11 -1.2411793603e-11 -3.7460656015e-11 6.3734007224e-12 9.4083341397e-12 1.8320035138e-11 
1.8320035138e-11 -4.1032295957e-12 7.2114710459e-13 7.7333424911e-12 7.7333424911e-12 -1.3232157032e-11 1.9398327586e-12 1.7262664274e-11 1.7262664274e-11 
-1.1848334686e-11 -3.1883842303e-12 1.5340305016e-11 1.5340305016e-11 8.7165281505e-12 2.9954645352e-11 7.4562926498e-11 7.4562926498e-11 -2.1841411098e-11 
-2.6413895623e-12 2.792333066e-11 2.792333066e-11 -9.6065688162e-12 9.341009871e-12 3.9022188945e-11 3.9022188945e-11 -1.7006401675e-11 -1.2848289697e-12 
1.6570966655e-11 -1.7006401675e-11 -9.157771728e-11 -3.7867735394e-11 -3.1854947326e-11 -9.157771728e-11 -1.0229728819e-10 -4.4887443261e-11 -2.9092068551e-11 
-1.0229728819e-10 -2.5805311783e-11 2.1484582583e-12 2.9424813524e-11 2.9424813524e-11 -8.6663771179e-11 -3.9402932334e-11 -3.6043196486e-11 -8.6663771179e-11 
-7.2604823218e-11 -2.5204673811e-11 -1.0466202971e-11 -7.2604823218e-11 1.2127490228e-11 1.8342798947e-11 4.9168010825e-11 4.9168010825e-11 -3.7739477189e-11 
-1.085754385e-11 4.295210392e-13 -3.7739477189e-11 1.6299920141e-11 1.7297374719e-11 5.403520514e-11 5.403520514e-11 -1.4158652891e-10 -5.3747751981e-11 
-4.4693419109e-11 -1.4158652891e-10 -1.3266673241e-10 -5.2962885675e-11 -3.790428191e-11 -1.3266673241e-10 -3.5305211536e-12 2.610742365e-12 4.0283528789e-11 
4.0283528789e-11 -9.0987511132e-11 -3.3357332586e-11 -2.3901656282e-11 -9.0987511132e-11 -1.8215718917e-11 4.8949781432e-12 2.9410260773e-11 2.9410260773e-11 
-1.1833723576e-10 -5.2218373137e-11 -3.8507491104e-11 -1.1833723576e-10 -4.5016071196e-11 -1.8140256517e-11 -2.4161722877e-12 -4.5016071196e-11 -9.0201644971e-11 
-4.1742657785e-11 -2.1463097243e-11 -9.0201644971e-11 -1.5969551483e-11 7.3931656831e-12 8.981154e-12 -1.5969551483e-11 -3.2004922362e-11 -1.9250634987e-11 
-8.9538426516e-12 -3.2004922362e-11 -1.317717884e-10 -5.5246046238e-11 -4.3396665361e-11 -1.317717884e-10 -2.3114919333e-11 4.6040819699e-13 9.8030811361e-12 
-2.3114919333e-11 -5.3427266532e-12 1.4695350526e-11 5.7535476128e-11 5.7535476128e-11 -9.8122849065e-12 -6.026851975e-13 4.2189352104e-11 4.2189352104e-11 
2.3555838887e-11 5.6890025572e-11 1.6535003554e-10 1.6535003554e-10 -1.4420841776e-11 1.0672439969e-11 4.8981401807e-11 4.8981401807e-11 -2.9213793375e-11 
3.652248644e-12 4.1246344731e-11 4.1246344731e-11 5.4064787596e-11 5.7858894119e-11 1.5178291829e-10 1.5178291829e-10 2.5554951818e-11 4.9877655863e-11 
1.4263689232e-10 1.4263689232e-10 3.3375839665e-11 3.509920935e-11 8.3212050985e-11 8.3212050985e-11 6.4680445723e-11 6.8829456897e-11 1.5640589738e-10 
1.5640589738e-10 9.2462242326e-11 1.1023882768e-10 2.7543092999e-10 2.7543092999e-10 3.2467006415e-11 5.0868191775e-11 1.5446680181e-10 1.5446680181e-10 
4.872318105e-11 8.13158104e-11 2.3374730855e-10 2.3374730855e-10 -5.6217552957e-11 5.508468772e-12 8.7441874185e-11 8.7441874185e-11 -8.0420364708e-11 
-2.1346610823e-11 2.8402675531e-11 -8.0420364708e-11 -1.4355861346e-10 -3.7221771896e-11 1.867038536e-11 -1.4355861346e-10 -1.8662117707e-11 1.3737403304e-11 
3.4675234403e-11 3.4675234403e-11 -2.2324518747e-11 1.7512033907e-12 4.0204575356e-11 4.0204575356e-11 -4.0668105144e-11 -4.1480751579e-12 2.5589690302e-11 
-4.0668105144e-11 2.9555597853e-11 3.914677538e-11 6.9627326766e-11 6.9627326766e-11 -1.3517726567e-10 -2.0293749624e-11 -1.0382584706e-11 -1.3517726567e-10 
1.0794512385e-11 3.3202603693e-11 6.5391783922e-11 6.5391783922e-11 7.8161607047e-11 9.5149942933e-11 2.2579025002e-10 2.2579025002e-10 -1.4868069727e-11 
2.2931469486e-11 7.2687900242e-11 7.2687900242e-11 -2.5767043654e-10 -9.8424122832e-11 -7.4073540625e-11 -2.5767043654e-10 3.1742427204e-11 9.5353163734e-11 
2.3517250906e-10 2.3517250906e-10 -1.7210290413e-10 -7.5033969051e-11 -6.5952026816e-11 -1.7210290413e-10 -1.2777096973e-10 -5.9646831336e-11 -4.9371698932e-11 
-1.2777096973e-10 -2.1589990334e-11 3.6047260716e-11 6.9329829618e-11 6.9329829618e-11 -3.3900058034e-12 3.5380220826e-11 4.9874284978e-11 4.9874284978e-11 
-2.1654448371e-10 -1.0887395258e-10 -8.7040463711e-11 -2.1654448371e-10 -2.6862934864e-10 -1.2072550579e-10 -8.6451145571e-11 -2.6862934864e-10 -3.3151596578e-11 
-1.239617398e-11 6.8923505582e-12 -3.3151596578e-11 -2.0129000829e-10 -6.0036395557e-11 -1.2196296152e-11 -2.0129000829e-10 -7.6614815851e-11 -2.7155785171e-11 
1.8700010223e-12 -7.6614815851e-11 7.9184752525e-11 1.1290128022e-10 1.9163496726e-10 1.9163496726e-10 5.2563564959e-11 8.0266803392e-11 2.1051463165e-10 
2.1051463165e-10 9.0707349294e-11 1.0504008607e-10 2.6882556463e-10 2.6882556463e-10 -1.5473940376e-10 -4.4819299346e-11 4.8360031101e-12 -1.5473940376e-10 
-3.8431280403e-11 9.5481466627e-12 1.825799374e-11 -3.8431280403e-11 -2.8513460004e-11 2.4124005695e-11 1.0899325431e-10 1.0899325431e-10 3.5631217611e-12 
8.691692836e-12 1.3346775403e-11 1.3346775403e-11 -8.7211381833e-11 -3.6871279356e-11 -2.6390138811e-11 -8.7211381833e-11 -1.5965679378e-10 2.8607276232e-12 
5.560394616e-11 -1.5965679378e-10 -9.0930203452e-11 -4.0998902461e-11 -3.8167194087e-11 -9.0930203452e-11 5.9041820118e-12 8.8198802938e-12 1.9837057694e-11 
1.9837057694e-11 1.6525111291e-11 5.4116799336e-11 1.1293918937e-10 1.1293918937e-10 -2.0658051017e-10 -1.1122372318e-10 -8.4792966651e-11 -2.0658051017e-10 
-1.8521434639e-10 -6.0949010422e-11 -2.1996243188e-11 -1.8521434639e-10 -1.9015234031e-10 -4.455043573e-11 5.5525076041e-11 -1.9015234031e-10 -1.0618624829e-10 
-1.4854100913e-11 8.3261969204e-11 -1.0618624829e-10 -7.1369475685e-11 -1.4998847673e-11 7.0336113583e-12 -7.1369475685e-11 -1.1367306688e-11 4.7774986039e-11 
1.3219402065e-10 1.3219402065e-10 -6.2149891039e-11 -2.1032922709e-12 4.0775333096e-12 -6.2149891039e-11 -3.1941181255e-11 5.3837222741e-11 2.1199785851e-10 
2.1199785851e-10 -2.6363237259e-11 1.113427765e-13 2.5138783482e-11 -2.6363237259e-11 4.2847886076e-11 5.9695100955e-11 1.6169061297e-10 1.6169061297e-10 
-2.9983264101e-11 1.1016332075e-11 7.8094342026e-11 7.8094342026e-11 -1.5584321733e-11 4.9033584501e-11 1.5432633723e-10 1.5432633723e-10 -1.0525298248e-10 
-3.0384873348e-11 7.6417055827e-11 -1.0525298248e-10 -3.7282922451e-11 -3.7123730092e-12 1.812583546e-11 -3.7282922451e-11 -7.7297155232e-11 2.7290457167e-11 
5.9113978066e-11 -7.7297155232e-11 -2.3712930461e-10 -5.3745789917e-11 -1.2608205471e-11 -2.3712930461e-10 -1.1764294769e-10 -2.4053617214e-11 1.9382764906e-11 
-1.1764294769e-10 -2.5397829924e-10 -1.1202930459e-10 -1.0495639617e-10 -2.5397829924e-10 -1.2830075278e-10 -4.6906397189e-11 -1.9082150034e-11 -1.2830075278e-10 
1.1370150668e-10 1.6518738886e-10 4.0766210446e-10 4.0766210446e-10 9.2290658355e-11 1.0309013707e-10 2.0704060457e-10 2.0704060457e-10 1.3063244266e-11 
1.9965154091e-11 1.1552170164e-10 1.1552170164e-10 4.692169778e-11 6.144380154e-11 2.1276360068e-10 2.1276360068e-10 -6.6502270556e-11 -9.742273648e-13 
7.3437657921e-11 7.3437657921e-11 -3.9697845719e-11 3.9264880375e-11 1.7330616534e-10 1.7330616534e-10 -7.9170090976e-11 -2.928662335e-11 -1.6790385674e-11 
-7.9170090976e-11 -1.2689383208e-10 -2.5079661828e-11 4.9198993906e-11 -1.2689383208e-10 4.5690522279e-11 7.731165441e-11 1.8084402331e-10 1.8084402331e-10 
3.0417312024e-11 5.7513675426e-11 1.5472771255e-10 1.5472771255e-10 -7.5333703173e-11 8.2097836507e-12 3.3123329523e-11 -7.5333703173e-11 -8.6109259198e-11 
-2.269524232e-11 3.7822801518e-11 -8.6109259198e-11 -1.1979698666e-10 -5.048031368e-11 2.192950034e-11 -1.1979698666e-10 -3.0568119036e-10 -1.4859462117e-10 
-1.1051218847e-10 -3.0568119036e-10 2.4458911595e-11 2.5525238651e-11 5.9965849753e-11 5.9965849753e-11 -2.8979841154e-10 -1.2685913445e-10 -1.0063745401e-10 
-2.8979841154e-10 -1.1236996296e-10 -4.2778896e-11 -3.4282941044e-11 -1.1236996296e-10 -3.6355043209e-11 3.1577904785e-12 2.834005273e-11 -3.6355043209e-11 
-8.5220126031e-11 -1.0515115046e-11 7.6306361077e-11 -8.5220126031e-11 -1.3542211641e-10 -5.6918483626e-11 4.8315000339e-12 -1.3542211641e-10 -5.4184648578e-11 
-1.3471127715e-11 2.5596616293e-11 -5.4184648578e-11 1.0711026498e-11 3.6975405302e-11 1.209807682e-10 1.209807682e-10 3.1650606787e-12 1.2624398628e-11 
3.5037940693e-11 3.5037940693e-11 -1.8989913579e-11 1.4519781856e-11 5.8672431723e-11 5.8672431723e-11 -1.0141295176e-10 -4.9113148948e-11 -3.2282099292e-11 
-1.0141295176e-10 -2.4564768841e-10 -1.0993792086e-10 -9.5893390733e-11 -2.4564768841e-10 -6.4941471645e-11 -2.1132967745e-11 -5.3297606096e-12 -6.4941471645e-11 
2.0261820707e-11 2.361450559e-11 6.0333273703e-11 6.0333273703e-11 4.666050257e-11 5.7052471845e-11 1.1435622559e-10 1.1435622559e-10 -3.2093784388e-12 
4.0234805783e-12 7.5511178605e-12 7.5511178605e-12 -2.6435745008e-11 9.8327276924e-12 6.9546767316e-11 6.9546767316e-11 -5.7250596812e-13 9.4839459786e-12 
5.2208639989e-11 5.2208639989e-11 -2.5034930467e-11 8.8710136859e-12 5.5561376781e-11 5.5561376781e-11 -6.3044235705e-11 -2.3331606598e-11 -1.5532457697e-11 
-6.3044235705e-11 -1.0134748006e-10 -6.7549789617e-11 -5.0082230318e-11 -1.0134748006e-10 -7.6251073623e-11 -3.8810074332e-11 -2.6405652045e-11 -7.6251073623e-11 
3.7663901849e-11 3.8997342627e-11 9.0539455523e-11 9.0539455523e-11 3.5990355298e-11 4.5520565183e-11 1.2565017952e-10 1.2565017952e-10 2.9815550723e-11 
4.1534014981e-11 7.0825434296e-11 7.0825434296e-11 -1.8775745232e-11 7.3879250812e-12 4.2679540151e-11 4.2679540151e-11 -9.7864144637e-11 -5.6623291245e-11 
-3.8890864118e-11 -9.7864144637e-11 -1.9732817747e-11 8.2987435664e-12 4.6648884181e-11 4.6648884181e-11 -1.9867428978e-11 9.9262891985e-13 3.7369640058e-11 
3.7369640058e-11 -5.3963484878e-11 -1.8821563319e-11 -8.3306518027e-12 -5.3963484878e-11 -1.086939255e-11 6.320328728e-12 3.3225363822e-11 3.3225363822e-11 
1.7781771258e-12 2.5876269372e-11 4.5203953503e-11 4.5203953503e-11 3.9431803079e-12 1.8421061051e-11 6.2376958641e-11 6.2376958641e-11 4.3094107933e-13 
4.8991871067e-12 1.0083494381e-10 1.0083494381e-10 -2.7960185721e-11 1.6286354394e-11 8.2643331326e-11 8.2643331326e-11 -1.8007567523e-11 1.6388677471e-11 
6.8102190052e-11 6.8102190052e-11 -1.725506319e-11 9.303245363e-12 8.0116317827e-11 8.0116317827e-11 -7.0106163197e-11 -1.9728823439e-11 1.7509866364e-12 
-7.0106163197e-11 -2.0107284052e-11 1.6413263908e-11 7.5068247143e-11 7.5068247143e-11 -1.354040644e-11 1.1130077987e-11 2.4267878453e-11 2.4267878453e-11 
-1.7535938439e-11 -5.1591603946e-12 3.8733488336e-12 -1.7535938439e-11 -1.2775960535e-12 2.103696509e-12 1.8492379544e-11 1.8492379544e-11 1.4101908652e-11 
2.4373269315e-11 4.2696522033e-11 4.2696522033e-11 2.9749082492e-12 1.5506292226e-11 4.8427099525e-11 4.8427099525e-11 -5.2501346086e-11 -2.1019864788e-11 
-1.5012789126e-11 -5.2501346086e-11 -3.3402752324e-11 -1.6641443985e-12 2.5892146722e-11 -3.3402752324e-11 2.2224843049e-11 2.6966254215e-11 6.9507402736e-11 
6.9507402736e-11 1.4744787736e-12 1.0063700248e-11 3.5414940979e-11 3.5414940979e-11 2.2686204365e-11 2.6838584926e-11 4.9606810709e-11 4.9606810709e-11 
-1.495133385e-11 -9.4604941123e-12 1.6154497962e-11 1.6154497962e-11 -1.8468882881e-12 6.9373719579e-12 2.486236633e-11 2.486236633e-11 5.2979759382e-12 
1.6932064985e-11 2.8770759077e-11 2.8770759077e-11 1.0816309288e-11 1.6061095963e-11 2.094749475e-11 2.094749475e-11 -5.7487636929e-12 7.6698157983e-12 
3.0136607895e-11 3.0136607895e-11 2.3423207255e-11 3.232088193e-11 5.4353010816e-11 5.4353010816e-11 -2.3330343842e-11 1.0689957925e-12 6.8489950497e-12 
-2.3330343842e-11 -4.4170117198e-12 3.5494514661e-12 1.7000490254e-11 1.7000490254e-11 -1.4047427467e-11 -8.0107722128e-12 -4.7669303201e-12 -1.4047427467e-11 
-6.1994664959e-12 7.4496172185e-12 1.4434669777e-11 1.4434669777e-11 -1.4477803883e-12 3.2350711009e-12 6.1057092874e-12 6.1057092874e-12 6.3137452238e-12 
1.4702354032e-11 1.6958590744e-11 1.6958590744e-11 -6.8082292816e-12 9.7315373426e-14 1.2672053908e-11 1.2672053908e-11 7.4610783311e-12 1.6937161035e-11 
2.2838260634e-11 2.2838260634e-11 -1.2728782223e-11 -6.3412498228e-12 1.8489420463e-12 -1.2728782223e-11 -5.3584010441e-12 3.5658554759e-12 8.9434555682e-12 
8.9434555682e-12 -9.429004463e-12 -1.6311921866e-12 2.7335166495e-12 -9.429004463e-12 -4.5690403415e-12 -2.3316322168e-12 4.6484255828e-13 -4.5690403415e-12 
3.7425134979e-12 1.235517243e-11 1.5754524072e-11 1.5754524072e-11 -9.0988905159e-12 -4.2647741474e-12 -2.6921553367e-12 -9.0988905159e-12 -1.8168861349e-12 
4.1743635782e-12 1.0392742357e-11 1.0392742357e-11 -1.0768451468e-14 1.9853547342e-12 3.4897937173e-12 3.4897937173e-12 -1.8123945431e-12 9.1221126162e-14 
9.0070134169e-12 9.0070134169e-12 7.2917128288e-12 8.2454852487e-12 1.7653841922e-11 1.7653841922e-11 2.7061501109e-12 3.8257855279e-12 8.3866843612e-12 
8.3866843612e-12 -6.5575832059e-12 -4.9542619381e-13 3.0053263997e-12 -6.5575832059e-12 -3.3948780375e-13 1.2874385112e-12 5.9331192925e-12 5.9331192925e-12 
7.6547500818e-12 1.0808648373e-11 1.5780031546e-11 1.5780031546e-11 -4.6367675076e-12 4.7320218922e-13 6.3493193184e-12 6.3493193184e-12 6.4356544861e-12 
1.0211682908e-11 1.2900862606e-11 1.2900862606e-11 1.3514834861e-12 6.4322738925e-11 1.6288477759e-10 1.6288477759e-10 -8.8181143842e-11 -1.2602777931e-12 
8.4117141635e-11 -8.8181143842e-11 -4.1407659219e-12 4.6799305068e-12 1.1935075415e-11 1.1935075415e-11 -3.3420003918e-12 7.31281473e-12 1.0711255662e-11 
1.0711255662e-11 -3.2449396307e-11 2.0985434011e-11 6.5272962295e-11 6.5272962295e-11 6.2957905111e-11 8.6155047155e-11 1.4216884773e-10 1.4216884773e-10 
-2.7017163644e-10 -1.1074083472e-10 -6.8912528844e-11 -2.7017163644e-10 8.5016368647e-11 1.0692832505e-10 2.1446900631e-10 2.1446900631e-10 -1.9904212357e-10 
-7.5463161466e-11 -5.0473614961e-11 -1.9904212357e-10 -2.6389309436e-11 -2.4405140763e-12 1.6686753513e-11 -2.6389309436e-11 -1.2500974636e-10 -7.2480704607e-11 
-5.8803949037e-11 -1.2500974636e-10 -9.0955831611e-12 1.2006896274e-11 4.9303986887e-11 4.9303986887e-11 -1.3722521156e-11 9.6182819161e-13 1.7693762965e-11 
1.7693762965e-11 2.2999805666e-11 3.1076218738e-11 7.9801275597e-11 7.9801275597e-11 -2.065943811e-11 -2.1790805295e-13 1.9587147163e-11 -2.065943811e-11 
2.9142515721e-11 3.3302283541e-11 7.5910300738e-11 7.5910300738e-11 3.0589761165e-13 3.4534191192e-12 1.5441903269e-11 1.5441903269e-11 -2.2724572466e-11 
-3.6941553653e-12 1.7539157831e-11 -2.2724572466e-11 1.2525294149e-11 2.7359122147e-11 7.8130983703e-11 7.8130983703e-11 5.7648919547e-11 6.5629020636e-11 
1.6709265982e-10 1.6709265982e-10 -3.1039496383e-11 -3.1085542732e-12 8.5148870656e-11 8.5148870656e-11 -3.2122505477e-11 -1.148342963e-11 -4.2832848928e-12 
-3.2122505477e-11 -4.8115453134e-11 -2.3418340395e-12 4.6434899174e-11 -4.8115453134e-11 8.680436383e-11 1.1998303789e-10 2.0668409828e-10 2.0668409828e-10 
-9.584725734e-11 -2.9523669563e-11 9.176926902e-12 -9.584725734e-11 9.4367883603e-11 1.2058695254e-10 3.0621116386e-10 3.0621116386e-10 -1.5089630472e-10 
-6.3176457829e-11 -4.9204437455e-11 -1.5089630472e-10 -3.7574996495e-11 -1.2276866669e-11 -5.095536836e-12 -3.7574996495e-11 -3.802370988e-11 -4.8872817946e-12 
2.7580371675e-11 -3.802370988e-11 2.0363058096e-12 1.7392494225e-11 5.7679659965e-11 5.7679659965e-11 6.860343646e-11 7.6513693958e-11 1.6172336958e-10 
1.6172336958e-10 -1.0591490036e-11 4.6029357073e-12 1.9194134329e-11 1.9194134329e-11 -1.635849476e-11 -5.4129302052e-12 -3.0459550352e-12 -1.635849476e-11 
-1.2816379359e-11 -5.7289867626e-12 -1.2461387828e-13 -1.2816379359e-11 1.5336112943e-12 4.0748135329e-11 1.9185205338e-10 1.9185205338e-10 -2.8241443569e-10 
-1.453823907e-10 -1.2812717362e-10 -2.8241443569e-10 2.4929233457e-11 5.6220998466e-11 1.5852306808e-10 1.5852306808e-10 -1.4676683968e-10 -4.7490215321e-11 
-3.5550544997e-11 -1.4676683968e-10 -7.2762526218e-12 1.0812084711e-12 1.7123794151e-11 1.7123794151e-11 -1.4295880712e-10 -3.9908843144e-11 -3.3430949732e-11 
-1.4295880712e-10 -3.4508167108e-11 -4.0290366856e-13 2.4134070777e-11 -3.4508167108e-11 -6.0842532369e-11 -2.566614367e-11 -1.3595623961e-11 -6.0842532369e-11 
-7.7327598693e-12 8.348623044e-12 3.4826690825e-11 3.4826690825e-11 -1.0653967091e-11 -3.5092408891e-12 -2.3058220199e-12 -1.0653967091e-11 -1.9025911038e-11 
-1.0702153172e-11 -2.8304857899e-12 -1.9025911038e-11 2.2230572893e-11 2.7274615992e-11 6.1376111115e-11 6.1376111115e-11 -1.858749842e-11 -6.802874877e-12 
6.340943297e-12 -1.858749842e-11 -7.460914824e-11 -2.6969039901e-11 -2.1522211859e-11 -7.460914824e-11 -7.6943130092e-12 2.7967863821e-12 3.1688176627e-11 
3.1688176627e-11 -1.0169407872e-10 -3.134918385e-11 -1.5405737428e-11 -1.0169407872e-10 8.674580393e-12 1.1206767453e-11 2.2088112154e-11 2.2088112154e-11 
1.2197301053e-11 1.428389652e-11 3.4689502427e-11 3.4689502427e-11 -5.6583819995e-12 1.3392171167e-12 5.3816848828e-12 -5.6583819995e-12 6.4733898774e-12 
6.6944529118e-12 1.5671957211e-11 1.5671957211e-11 -1.3782530497e-11 -5.6203008375e-12 -7.8497866509e-13 -1.3782530497e-11 -9.6351799743e-12 -4.7906764243e-12 
5.9663985639e-15 -9.6351799743e-12 -1.0987779587e-10 -4.38735986e-11 -3.2720505528e-11 -1.0987779587e-10 -6.7233844792e-11 -1.525335674e-11 2.2910301532e-11 
-6.7233844792e-11 -3.5895939523e-12 5.2280366922e-13 3.2185793831e-12 -3.5895939523e-12 1.1089246766e-12 3.0460689194e-11 7.050808613e-11 7.050808613e-11 
5.3875919376e-11 1.0851545156e-10 2.5441972906e-10 2.5441972906e-10 2.2263771082e-11 2.6826661439e-11 6.4371367479e-11 6.4371367479e-11 -1.3947509786e-11 
-6.2758290937e-12 1.179910888e-11 -1.3947509786e-11 -1.9242181894e-11 -7.6904632998e-12 -3.9562848062e-12 -1.9242181894e-11 5.3829361838e-11 7.1660600104e-11 
1.8491743806e-10 1.8491743806e-10 4.4653915064e-11 4.8584611063e-11 1.0347957387e-10 1.0347957387e-10 -3.1535208062e-12 8.2820173051e-13 2.4012130757e-12 
-3.1535208062e-12 -2.8339988602e-11 2.2309864924e-11 7.5072123678e-11 7.5072123678e-11 -1.765072792e-11 3.1441515124e-11 1.316225128e-10 1.316225128e-10 
-1.9909204106e-10 -7.3373067388e-11 -5.1374991556e-11 -1.9909204106e-10 -1.8442665152e-10 -8.0235983966e-11 -3.610576451e-11 -1.8442665152e-10 -8.4068336384e-12 
8.5265527532e-12 3.3197840885e-11 3.3197840885e-11 -1.8448305226e-10 -8.0264862596e-11 -5.1730285141e-11 -1.8448305226e-10 3.777442287e-11 4.6901385412e-11 
9.4206691718e-11 9.4206691718e-11 5.6510190325e-11 7.4903593417e-11 1.7026511626e-10 1.7026511626e-10 -6.0021044955e-11 -1.6895311143e-11 8.7034209803e-13 
-6.0021044955e-11 -9.9655283136e-11 -3.7036463096e-11 -3.1489653768e-11 -9.9655283136e-11 -1.5976392536e-11 -3.8118993177e-12 3.6788591854e-11 3.6788591854e-11 
-5.3863541265e-11 -7.2368029976e-12 2.9604312262e-11 -5.3863541265e-11 4.506940815e-11 5.7657479037e-11 1.0636161281e-10 1.0636161281e-10 -1.3838433903e-11 
3.6393276363e-11 4.795082754e-11 4.795082754e-11 -3.6646112186e-12 4.1060256135e-12 1.6331185605e-11 1.6331185605e-11 6.3001193276e-12 2.3642728021e-11 
8.3898452651e-11 8.3898452651e-11 1.0582480536e-11 3.4810309528e-11 1.1466790994e-10 1.1466790994e-10 3.2707677007e-11 3.9647424797e-11 7.9888598196e-11 
7.9888598196e-11 -3.9079079658e-11 1.5894830105e-12 1.9426806647e-11 -3.9079079658e-11 2.9385686407e-11 5.1422601336e-11 1.4065121226e-10 1.4065121226e-10 
-2.6644457049e-11 4.0762876876e-12 3.6229098562e-11 3.6229098562e-11 -9.286950828e-11 -3.6611176474e-11 2.1331484754e-11 -9.286950828e-11 -3.3413770111e-11 
-6.3101082477e-12 2.5987038358e-11 -3.3413770111e-11 -3.5285760031e-11 -2.302290763e-11 -1.401853234e-11 -3.5285760031e-11 4.6789440935e-11 5.9730716176e-11 
1.2176934289e-10 1.2176934289e-10 -3.6783152474e-11 1.874442547e-11 6.3878827004e-11 6.3878827004e-11 1.064868106e-10 1.4606735003e-10 2.8120983938e-10 
2.8120983938e-10 -2.5926330223e-11 -6.7522435846e-12 -3.2952761922e-12 -2.5926330223e-11 2.3438348782e-11 2.7101851642e-11 7.8024499576e-11 7.8024499576e-11 
-2.2395361407e-10 -5.9645622914e-11 2.3661336987e-11 -2.2395361407e-10 1.3982138851e-11 1.5581359927e-11 3.6236701222e-11 3.6236701222e-11 -1.9927400437e-12 
7.0932903856e-12 1.6605209658e-11 1.6605209658e-11 4.7922926679e-11 7.1981236791e-11 1.4921623653e-10 1.4921623653e-10 -6.6625112104e-11 -1.0963422522e-11 
2.5601034625e-11 -6.6625112104e-11 -1.2858338177e-10 -1.5527898551e-11 7.1480580324e-11 -1.2858338177e-10 -1.0069905378e-11 -3.204435313e-12 -3.8661930945e-13 
-1.0069905378e-11 -2.8682014385e-11 -1.4337777592e-11 1.9340821977e-11 -2.8682014385e-11 -2.0031411526e-11 -7.0974652716e-12 -9.5195320282e-13 -2.0031411526e-11 
-2.8579515033e-11 -5.5479079598e-12 1.1283312993e-11 -2.8579515033e-11 -1.1489669597e-11 1.4630572597e-11 5.9851197e-11 5.9851197e-11 -1.1432314933e-11 
-3.8398678881e-12 1.4594528208e-12 -1.1432314933e-11 -5.279495568e-12 5.0465439483e-12 2.239400162e-11 2.239400162e-11 4.4831053973e-11 5.3046950788e-11 
1.3526859524e-10 1.3526859524e-10 -1.0262999305e-10 -1.612993585e-11 2.7914628897e-11 -1.0262999305e-10 1.906109525e-12 8.2846602942e-12 1.3032840181e-11 
1.3032840181e-11 -7.3213891148e-12 6.5020915853e-12 1.986872753e-11 1.986872753e-11 9.8869897855e-14 3.1521320466e-12 4.7598078056e-11 4.7598078056e-11 
7.8566842967e-11 8.1594275612e-11 1.8591568142e-10 1.8591568142e-10 -4.7596144567e-12 -2.9617399782e-12 4.5338054349e-12 -4.7596144567e-12 -3.1083387301e-11 
-4.8504165354e-12 1.5745963836e-11 -3.1083387301e-11 -1.7523292781e-12 1.4943114819e-12 3.7491477962e-12 3.7491477962e-12 -2.0125437666e-12 9.8303764206e-13 
5.2795791245e-12 5.2795791245e-12 3.8092853832e-12 5.3376673131e-12 1.2786487304e-11 1.2786487304e-11 -4.6056802042e-13 2.8575210279e-12 6.7862369925e-12 
6.7862369925e-12 -6.7683938793e-11 -2.4755076671e-11 1.1991115464e-11 -6.7683938793e-11 -1.163111791e-11 -5.3306407203e-12 -3.22608137e-12 -1.163111791e-11 
1.4627331083e-11 5.814674239e-11 7.6357926527e-11 7.6357926527e-11 6.4902315599e-11 8.1663901776e-11 1.8524278263e-10 1.8524278263e-10 -6.3760617301e-11 
-1.2705610393e-11 2.7818097694e-11 -6.3760617301e-11 1.5336894335e-11 4.3143311571e-11 7.4410494095e-11 7.4410494095e-11 -2.1019255977e-11 -7.6252535788e-12 
3.9789495561e-12 -2.1019255977e-11 -1.1822349496e-10 -5.8224722478e-11 -5.0778382562e-11 -1.1822349496e-10 -3.8383106644e-11 -3.0894670981e-12 1.0583613742e-11 
-3.8383106644e-11 3.756311549e-12 5.014814666e-12 1.0050623785e-11 1.0050623785e-11 6.0134041e-11 7.3591305047e-11 1.7106575395e-10 1.7106575395e-10 
-2.5498309991e-12 1.0062005713e-11 3.5899225286e-11 3.5899225286e-11 -6.3538986377e-11 -2.4893471165e-11 -1.8502442458e-11 -6.3538986377e-11 1.1065946843e-12 
1.8033746977e-11 6.5178058338e-11 6.5178058338e-11 7.5214035988e-11 1.1387033992e-10 2.6757062409e-10 2.6757062409e-10 -1.5026347419e-12 8.6844805311e-12 
3.0613404211e-11 3.0613404211e-11 -1.9451131619e-10 -7.350555843e-11 -5.0131525381e-11 -1.9451131619e-10 -2.4571653066e-11 -1.6009228678e-11 -6.3217182562e-12 
-2.4571653066e-11 1.6604999334e-11 1.7039332263e-11 4.2249868403e-11 4.2249868403e-11 1.6244471015e-11 3.3220438287e-11 6.3086090698e-11 6.3086090698e-11 
1.9798869609e-11 2.8717649208e-11 4.1342081183e-11 4.1342081183e-11 -1.7288859801e-12 6.3284707065e-12 2.4619615274e-11 2.4619615274e-11 -2.9221716664e-11 
4.3638650692e-12 1.7116671595e-11 -2.9221716664e-11 6.2096886172e-11 7.2908881787e-11 1.6492833204e-10 1.6492833204e-10 -1.0705366631e-12 2.2984850253e-12 
8.8659816378e-12 8.8659816378e-12 1.2775447328e-12 3.1924496432e-12 8.052545624e-12 8.052545624e-12 -4.1939723052e-13 1.4058746832e-12 5.6163125473e-12 
5.6163125473e-12 -3.9424035146e-11 -1.5178988217e-11 -1.4764276638e-11 -3.9424035146e-11 -2.6583087073e-12 2.2433150014e-12 4.5891677058e-12 4.5891677058e-12 
-8.2371167588e-11 -3.2751567712e-11 -2.64199647e-11 -8.2371167588e-11 -2.811920956e-11 -5.1413582839e-12 1.0416437844e-11 -2.811920956e-11 1.0522247057e-11 
2.9517760708e-11 5.1108892235e-11 5.1108892235e-11 -7.8449393364e-11 -3.8623736424e-11 -3.3728570213e-11 -7.8449393364e-11 -8.6964114088e-12 -2.4886886513e-12 
1.4706500601e-12 -8.6964114088e-12 3.1944458305e-12 2.4855165964e-11 8.1313818206e-11 8.1313818206e-11 -1.2606832568e-10 2.1618497564e-12 1.6359911592e-10 
1.6359911592e-10 -1.6900696774e-11 -9.9019968104e-12 4.6741358419e-13 -1.6900696774e-11 -8.8130158149e-11 -3.4205585838e-11 -2.6189056013e-11 -8.8130158149e-11 
-9.2079024535e-11 -3.3059168041e-11 -1.7087507424e-11 -9.2079024535e-11 1.5764367069e-11 5.5176048098e-11 1.9195668483e-10 1.9195668483e-10 -2.6867425492e-11 
-7.5844828129e-12 1.9121288305e-11 -2.6867425492e-11 -3.3408892215e-11 5.4203554721e-11 1.6780233749e-10 1.6780233749e-10 -1.5341448261e-11 -5.2946065316e-12 
-2.8910952076e-12 -1.5341448261e-11 2.1397479592e-11 4.75488208e-11 1.1843639961e-10 1.1843639961e-10 -3.623657128e-11 -6.3147840602e-12 2.911809534e-11 
-3.623657128e-11 -3.1045639326e-11 1.3446093917e-11 9.9033945409e-11 9.9033945409e-11 -1.0501564672e-10 -3.1178803819e-11 -1.8569494638e-12 -1.0501564672e-10 
-8.0395428734e-11 -4.6815763971e-11 -3.6037107294e-11 -8.0395428734e-11 -2.3106589269e-11 1.162576095e-11 4.1762628319e-11 4.1762628319e-11 1.0782884422e-11 
1.4081186849e-11 2.3859928729e-11 2.3859928729e-11 -6.6521560006e-11 -6.4990147609e-12 2.1867914766e-11 -6.6521560006e-11 -1.4209181958e-12 1.6612865207e-11 
6.8063952989e-11 6.8063952989e-11 -4.917953364e-13 6.7403857379e-13 2.7017297626e-12 2.7017297626e-12 -2.6445892248e-12 1.5436156825e-13 4.1382126566e-12 
4.1382126566e-12 -1.6873407057e-10 -7.7510072993e-11 -5.9923156439e-11 -1.6873407057e-10 -9.9908056382e-11 -1.6071865416e-11 3.6321421798e-11 -9.9908056382e-11 
1.021457968e-11 1.6212810802e-11 1.8688709518e-11 1.8688709518e-11 3.0422543329e-12 6.2819242801e-12 1.1319001387e-11 1.1319001387e-11 -2.2552272024e-11 
-1.5897929475e-11 -9.7909985013e-12 -2.2552272024e-11 -3.1580134882e-11 3.2106817643e-11 9.1098217238e-11 9.1098217238e-11 -9.966611709e-12 -3.4558253349e-12 
-1.9899229562e-12 -9.966611709e-12 7.9231837839e-11 8.742705117e-11 2.1382381099e-10 2.1382381099e-10 0 0 0 
0 0 0 0 0 0 0 0 0 
0 0 0 0 0 0 0 0 0 
0 0 0 0 0 0 0 0 0 
0 0 0 0 0 0 0 0 0 
0 0 0 0 0 0 0 0 0 
0 0 0 0 0 0 0 0 0 
0 0 0 0 0 0 0 0 0 
0 0 0 0 0 0 0 0 0 
0 0 0 0 0 0 0 0 0 
0 0 0 0 0 0 0 0 0 
0 0 0 0 0 0 0 0 0 
0 0 0 0 0 0 0 0 0 
0 0 0 0 0 0 0 0 0 
0 0 0 0 0 0 0 0 0 
0 0 0 0 0 0 0 0 0 
0 0 0 0 0 0 0 0 0 
0 0 0 0 0 0 0 0 0 
0 0 0 0 0 0 0 0 0 
0 0 0 0 0 0 0 0 0 
0 0 0 0 0 0 0 0 0 
0 0 0 0 0 0 0 0 0 
0 0 0 0 0 0 0 0 0 
0 0 0 0 0 0 0 0 0 
0 0 0 0 0 0 0 0 0 
0 0 0 0 0 0 0 0 0 
0 0 0 0 0 0 0 0 0 
0 0 0 0 0 0 0 0 0 
0 0 0 0 0 0 0 0 0 
0 0 0 0 0 0 0 0 0 
0 0 0 0 0 0 0 0 0 
0 0 0 0 0 0 0 0 0 
0 0 0 0 0 0 0 0 0 
0 0 0 0 0 0 0 0 0 
0 0 0 0 0 0 0 0 0 
0 0 0 0 0 0 0 0 0 
0 0 0 0 0 0 0 0 0 
0 0 0 0 0 0 0 0 0 
0 0 0 0 0 0 0 0 0 
0 0 0 0 0 0 0 0 0 
0 0 0 0 0 0 0 0 0 
0 0 0 0 0 0 0 0 0 
0 0 0 0 0 0 0 0 0 
0 0 0 0 0 0 0 0 0 
0 0 0 0 0 0 0 0 0 
0 0 0 0 0 0 0 0 0 
0 0 0 0 0 0 0 0 0 
0 0 0 0 0 0 0 0 0 
0 0 0 0 0 0 0 0 0 
0 0 0 0 0 0 0 0 0 
0 0 0 0 0 0 0 0 0 
0 0 0 0 0 0 0 0 0 
0 0 0 0 0 0 0 0 0 
0 0 0 0 0 0 0 0 0 
0 0 0 0 0 0 0 0 0 
0 0 0 0 0 0 0 0 0 
0 0 0 0 0 0 0 0 0 
0 0 0 0 0 0 0 0 0 
0 0 0 0 0 0 0 0 0 
0 0 0 0 0 0 0 0 0 
0 0 0 0 0 0 0 0 0 
0 0 0 0 0 0 0 0 0 
0 0 0 0 0 0 0 0 0 
0 0 0 0 0 0 0 0 0 
0 0 0 0 0 0 0 0 0 
0 0 0 0 0 0 0 0 0 
0 0 0 0 0 0 0 0 0 
0 0 0 0 0 0 0 0 0 
0 0 0 0 0 0 0 0 0 
0 0 0 0 0 0 0 0 0 
0 0 0 0 0 0 0 0 0 
0 0 0 0 0 0 0 0 0 
0 0 0 0 0 0 0 0 0 
0 0 0 0 0 0 0 0 0 
0 0 0 0 0 0 0 0 0 
0 0 0 0 0 0 0 0 0 
0 0 0 0 0 0 0 0 0 
0 0 0 0 0 0 0 0 0 
0 0 0 0 0 0 0 0 0 
0 0 0 0 0 0 0 0 0 
0 0 0 0 0 0 0 0 0 
0 0 0 0 0 0 0 0 0 
0 0 0 0 0 0 0 0 0 
0 0 0 0 0 0 0 0 0 
0 0 0 0 0 0 0 0 0 
0 0 0 0 0 0 0 0 0 
0 0 0 0 0 0 0 0 0 
0 0 0 0 0 0 0 0 0 
0 0 0 0 0 0 0 0 0 
0 0 0 0 0 0 0 0 0 
0 0 0 0 0 0 0 0 0 
0 0 0 0 0 0 0 0 0 
0 0 0 0 0 0 0 0 0 
0 0 0 0 0 0 0 0 0 
0 0 0 0 0 0 0 0 0 
0 0 0 0 0 0 0 0 0 
0 0 0 0 0 0 0 0 0 
0 0 0 0 0 0 0 0 0 
0 0 0 0 0 0 0 0 0 
0 0 0 0 0 0 0 0 0 
0 0 0 0 0 0 0 0 0 
0 0 0 0 0 0 0 0 0 
0 0 0 0 0 0 0 0 0 
0 0 0 0 0 0 0 0 0 
0 0 0 0 0 0 0 0 0 
0 0 0 0 0 0 0 0 0 
0 0 0 0 0 0 0 0 0 
0 0 0 0 0 0 0 0 0 
0 0 0 0 0 0 0 0 0 
0 0 0 0 0 0 0 0 0 
0 0 0 0 0 0 0 0 0 
0 0 0 0 0 0 0 0 0 
0 0 0 0 0 0 0 0 0 
0 0 0 0 0 0 0 0 0 
0 0 0 0 0 0 0 0 0 
0 0 0 0 0 0 0 0 0 
0 0 0 0 0 0 0 0 0 
0 0 0 0 0 0 0 0 0 
0 0 0 0 0 0 0 0 0 
0 0 0 0 0 0 0 0 0 
0 0 0 0 0 0 0 0 0 
0 0 0 0 0 0 0 0 0 
0 0 0 0 0 0 0 0 0 
0 0 0 0 0 0 0 0 0 
0 0 0 0 0 0 0 0 0 
0 0 0 0 0 0 0 0 0 
0 0 0 0 0 0 0 0 0 
0 0 0 0 0 0 0 0 0 
0 0 0 0 0 0 0 0 0 
0 0 0 0 0 0 0 0 0 
0 0 0 0 0 0 0 0 0 
0 0 0 0 0 0 0 0 0 
0 0 0 0 0 0 0 0 0 
0 0 0 0 0 0 0 0 0 
0 0 0 0 0 0 0 0 0 
0 0 0 0 0 0 0 0 0 
0 0 0 0 0 0 0 0 0 
0 0 0 0 0 0 0 0 0 
0 0 0 0 0 0 0 0 0 
0 0 0 0 0 0 0 0 0 
0 0 0 0 0 0 0 0 0 
0 0 0 0 0 0 0 0 0 
0 0 0 0 0 0 0 0 0 
0 0 0 0 0 0 0 0 0 
0 0 0 0 0 0 0 0 0 
0 0 0 0 0 0 0 0 0 
0 0 0 0 0 0 0 0 0 
0 0 0 0 0 0 0 0 0 
0 0 0 0 0 0 0 0 0 
0 0 0 0 0 0 0 0 0 
0 0 0 0 0 0 0 0 0 
0 0 0 0 0 0 0 0 0 
0 0 0 0 0 0 0 0 0 
0 0 0 0 0 0 0 0 0 
0 0 0 0 0 0 0 0 0 
0 0 0 0 0 0 0 0 0 
0 0 0 0 0 0 0 0 0 
0 0 0 0 0 0 0 0 0 
0 0 0 0 0 0 0 0 0 
0 0 0 0 0 0 0 0 0 
0 0 0 0 0 0 0 0 0 
0 0 0 0 0 0 0 0 0 
0 0 0 0 0 0 0 0 0 
0 0 0 0 0 0 0 0 0 
0 0 0 0 0 0 0 0 0 
0 0 0 0 0 0 0 0 0 
0 0 0 0 0 0 0 0 0 
0 0 0 0 0 0 0 0 0 
0 0 0 0 0 0 0 0 0 
0 0 0 0 0 0 0 0 0 
0 0 0 0 0 0 0 0 0 
0 0 0 0 0 0 0 0 0 
0 0 0 0 0 0 0 0 0 
0 0 0 0 0 0 0 0 0 
0 0 0 0 0 0 0 0 0 
0 0 0 0 0 0 0 0 0 
0 0 0 0 0 0 0 0 0 
0 0 0 0 0 0 0 0 0 
0 0 0 0 0 0 0 0 0 
0 0 0 0 0 0 0 0 0 
0 0 0 0 0 0 0 0 0 
0 0 0 0 0 0 0 0 0 
0 0 0 0 0 0 0 0 0 
0 0 0 0 0 0 0 0 0 
0 0 0 0 0 0 0 0 0 
0 0 0 0 0 0 0 0 0 
0 0 0 0 0 0 0 0 0 
0 0 0 0 0 0 0 0 0 
0 0 0 0 0 0 0 0 0 
0 0 0 0 0 0 0 0 0 
0 0 0 0 0 0 0 0 0 
0 0 0 0 0 0 0 0 0 
0 0 0 0 0 0 0 0 0 
0 0 0 0 0 0 0 0 0 
0 0 0 0 0 0 0 0 0 
0 0 0 0 0 0 0 0 0 
0 0 0 0 0 0 0 0 0 
0 0 0 0 0 0 0 0 0 
0 0 0 0 0 0 0 0 0 
0 0 0 0 0 0 0 0 0 
0 0 0 0 0 0 0 0 0 
0 0 0 0 0 0 0 0 0 
0 0 0 0 0 0 0 0 0 
0 0 0 0 0 0 0 0 0 
0 0 0 0 0 0 0 0 0 
0 0 0 0 0 0 0 0 0 
0 0 0 0 0 0 0 0 0 
0 0 0 0 0 0 0 0 0 
0 0 0 0 0 0 0 0 0 
0 0 0 0 0 0 0 0 0 
0 0 0 0 0 0 0 0 0 
0 0 0 0 0 0 0 0 0 
0 0 0 0 0 0 0 0 0 
0 0 0 0 0 0 0 0 0 
0 0 0 0 0 0 0 0 0 
0 0 0 0 0 0 0 0 0 
0 0 0 0 0 0 0 0 0 
0 0 0 0 0 0 0 0 0 
0 0 0 0 0 0 0 0 0 
0 0 0 0 0 0 0 0 0 
0 0 0 0 0 0 0 0 0 
0 0 0 0 0 0 0 0 0 
0 0 0 0 0 0 0 0 0 
0 0 0 0 0 0 0 0 0 
0 0 0 0 0 0 0 0 0 
0 0 0 0 0 0 0 0 0 
0 0 0 0 0 0 0 0 0 
0 0 0 0 0 0 0 0 0 
0 0 0 0 0 0 0 0 0 
0 0 0 0 0 0 0 0 0 
0 0 0 0 0 0 0 0 0 
0 0 0 0 0 0 0 0 0 
0 0 0 0 0 0 0 0 0 
0 0 0 0 0 0 0 0 0 
0 0 0 0 0 0 0 0 0 
0 0 0 0 0 0 0 0 0 
0 0 0 0 0 0 0 0 0 
0 0 0 0 0 0 0 0 0 
0 0 0 0 0 0 0 0 0 
0 0 0 0 0 0 0 0 0 
0 0 0 0 0 0 0 0 0 
0 0 0 0 0 0 0 0 0 
0 0 0 0 0 0 0 0 0 
0 0 0 0 0 0 0 0 0 
0 0 0 0 0 0 0 0 0 
0 0 0 0 0 0 0 0 0 
0 0 0 0 0 0 0 0 0 
0 0 0 0 0 0 0 0 0 
0 0 0 0 0 0 0 0 0 
0 0 0 0 0 0 0 0 0 
0 0 0 0 0 0 0 0 0 
0 0 0 0 0 0 0 0 0 
0 0 0 0 0 0 0 0 0 
0 0 0 0 0 0 0 0 0 
0 0 0 0 0 0 0 0 0 
0 0 0 0 0 0 0 0 0 
0 0 0 0 0 0 0 0 0 
0 0 0 0 0 0 0 0 0 
0 0 0 0 0 0 0 0 0 
0 0 0 0 0 0 0 0 0 
0 0 0 0 0 0 0 0 0 
0 0 0 0 0 0 0 0 0 
0 0 0 0 0 0 0 0 0 
0 0 0 0 0 0 0 0 0 
0 0 0 0 0 0 0 0 0 
0 0 0 0 0 0 0 0 0 
0 0 0 0 0 0 0 0 0 
0 0 0 0 0 0 0 0 0 
0 0 0 0 0 0 0 0 0 
0 0 0 0 0 0 0 0 0 
0 0 0 0 0 0 0 0 0 
0 0 0 0 0 0 0 0 0 
0 0 0 0 0 0 0 0 0 
0 0 0 0 0 0 0 0 0 
0 0 0 0 0 0 0 0 0 
0 0 0 0 0 0 0 0 0 
0 0 0 0 0 0 0 0 0 
0 0 0 0 0 0 0 0 0 
0 0 0 0 0 0 0 0 0 
0 0 0 0 0 0 0 0 0 
0 0 0 0 0 0 0 0 0 
0 0 0 0 0 0 0 0 0 
0 0 0 0 0 0 0 0 0 
0 0 0 0 0 0 0 0 0 
0 0 0 0 0 0 0 0 0 
0 0 0 0 0 0 0 0 0 
0 0 0 0 0 0 0 0 0 
0 0 0 0 0 0 0 0 0 
0 0 0 0 0 0 0 0 0 
0 0 0 0 0 0 0 0 0 
0 0 0 0 0 0 0 0 0 
0 0 0 0 0 0 0 0 0 
0 0 0 0 0 0 0 0 0 
0 0 0 0 0 0 0 0 0 
0 0 0 0 0 0 0 0 0 
0 0 0 0 0 0 0 0 0 
0 0 0 0 0 0 0 0 0 
0 0 0 0 0 0 0 0 0 
0 0 0 0 0 0 0 0 0 
0 0 0 0 0 0 0 0 0 
0 0 0 0 0 0 0 0 0 
0 0 0 0 0 0 0 0 0 
0 0 0 0 0 0 0 0 0 
0 0 0 0 0 0 0 0 0 
0 0 0 0 0 0 0 0 0 
0 0 0 0 0 0 0 0 0 
0 0 0 0 0 0 0 0 0 
0 0 0 0 0 0 0 0 0 
0 0 0 0 0 0 0 0 0 
0 0 0 0 0 0 0 0 0 
0 0 0 0 0 0 0 0 0 
0 0 0 0 0 0 0 0 0 
0 0 0 0 0 0 0 0 0 
0 0 0 0 0 0 0 0 0 
0 0 0 0 0 0 0 0 0 
0 0 0 0 0 0 0 0 0 
0 0 0 0 0 0 0 0 0 
0 0 0 0 0 0 0 0 0 
0 0 0 0 0 0 0 0 0 
0 0 0 0 0 0 0 0 0 
0 0 0 0 0 0 0 0 0 
0 0 0 0 0 0 0 0 0 
0 0 0 0 0 0 0 0 0 
0 0 0 0 0 0 0 0 0 
0 0 0 0 0 0 0 0 0 
0 0 0 0 0 0 0 0 0 
0 0 0 0 0 0 0 0 0 
0 0 0 0 0 0 0 0 0 
0 0 0 0 0 0 0 0 0 
0 0 0 0 0 0 0 0 0 
0 0 0 0 0 0 0 0 0 
0 0 0 0 0 0 0 0 0 
0 0 0 0 0 0 0 0 0 
0 0 0 0 0 0 0 0 0 
0 0 0 0 0 0 0 0 0 
0 0 0 0 0 0 0 0 0 
0 0 0 0 0 0 0 0 0 
0 0 0 0 0 0 0 0 0 
0 0 0 0 0 0 0 0 0 
0 0 0 0 0 0 0 0 0 
0 0 0 0 0 0 0 0 0 
0 0 0 0 0 0 0 0 0 
0 0 0 0 0 0 0 0 0 
0 0 0 0 0 0 0 0 0 
0 0 0 0 0 0 0 0 0 
0 0 0 0 0 0 0 0 0 
0 0 0 0 0 0 0 0 0 
0 0 0 0 0 0 0 0 0 
0 0 0 0 0 0 0 0 0 
0 0 0 0 0 0 0 0 0 
0 0 0 0 0 0 0 0 0 
0 0 0 0 0 0 0 0 0 
0 0 0 0 0 0 0 0 0 
0 0 0 0 0 0 0 0 0 
0 0 0 0 0 0 0 0 0 
0 0 0 0 0 0 0 0 0 
0 0 0 0 0 0 0 0 0 
0 0 0 0 0 0 0 0 0 
0 0 0 0 0 0 0 0 0 
0 0 0 0 0 0 0 0 0 
0 0 0 0 0 0 0 0 0 
0 0 0 0 0 0 0 0 0 
0 0 0 0 0 0 0 0 0 
0 0 0 0 0 0 0 0 0 
0 0 0 0 0 0 0 0 0 
0 0 0 0 0 0 0 0 0 
0 0 0 0 0 0 0 0 0 
0 0 0 0 0 0 0 0 0 
0 0 0 0 0 0 0 0 0 
0 0 0 0 0 0 0 0 0 
0 0 0 0 0 0 0 0 0 
0 0 0 0 0 0 0 0 0 
0 0 0 0 0 0 0 0 0 
0 0 0 0 0 0 0 0 0 
0 0 0 0 0 0 0 0 0 
0 0 0 0 0 0 0 0 0 
0 0 0 0 0 0 0 0 0 
0 0 0 0 0 0 0 0 0 
0 0 0 0 0 0 0 0 0 
0 0 0 0 0 0 0 0 0 
0 0 0 0 0 0 0 0 0 
0 0 0 0 0 0 0 0 0 
0 0 0 0 0 0 0 0 0 
0 0 0 0 0 0 0 0 0 
0 0 0 0 0 0 0 0 0 
0 0 0 0 0 0 0 0 0 
0 0 0 0 0 0 0 0 0 
0 0 0 0 0 0 0 0 0 
0 0 0 0 0 0 0 0 0 
0 0 0 0 0 0 0 0 0 
0 0 0 0 0 0 0 0 0 
0 0 0 0 0 0 0 0 0 
0 0 0 0 0 0 0 0 0 
0 0 0 0 0 0 0 0 0 
0 0 0 0 0 0 0 0 0 
0 0 0 0 0 0 0 0 0 
0 0 0 0 0 0 0 0 0 
0 0 0 0 0 0 0 0 0 
0 0 0 0 0 0 0 0 0 
0 0 0 0 0 0 0 0 0 
0 0 0 0 0 0 0 0 0 
0 0 0 0 0 0 0 0 0 
0 0 0 0 0 0 0 0 0 
0 0 0 0 0 0 0 0 0 
0 0 0 0 0 0 0 0 0 
0 0 0 0 0 0 0 0 0 
0 0 0 0 0 0 0 0 0 
0 0 0 0 0 0 0 0 0 
0 0 0 0 0 0 0 0 0 
0 0 0 0 0 0 0 0 0 
0 0 0 0 0 0 0 0 0 
0 0 0 0 0 0 0 0 0 
0 0 0 0 0 0 0 0 0 
0 5.2344846002e-12 1.6869730099e-10 3.3165321441e-10 3.3165321441e-10 -6.7842010895e-10 -3.420348337e-10 -1.6479505735e-10 -6.7842010895e-10 
-1.8605110885e-10 -9.2063676787e-12 1.4690647653e-10 -1.8605110885e-10 -1.8241932264e-10 6.9207172641e-11 7.2897139999e-11 -1.8241932264e-10 -4.3866869421e-10 
-2.7092199558e-10 -5.5421310206e-11 -4.3866869421e-10 -2.3990620193e-10 -7.1221924867e-11 1.3314558679e-10 -2.3990620193e-10 -9.9808505082e-11 -3.7378781358e-11 
-1.376621356e-11 -9.9808505082e-11 -2.1445069762e-11 7.7162197604e-11 3.3893217216e-10 3.3893217216e-10 -1.0412383215e-10 4.8006383651e-11 1.232078485e-10 
1.232078485e-10 7.5892769313e-11 1.7663149739e-10 2.295557333e-10 2.295557333e-10 2.0120463171e-10 3.6545913693e-10 7.8030623136e-10 7.8030623136e-10 
-1.4065902471e-10 -3.4501041114e-12 3.1987982882e-10 3.1987982882e-10 -2.771831853e-10 9.2616942733e-11 2.2645977257e-10 -2.771831853e-10 -2.9856371253e-10 
-2.308653708e-11 2.8699049611e-11 -2.9856371253e-10 -1.7962407964e-10 -6.567535296e-11 1.266008326e-10 -1.7962407964e-10 -2.0935665209e-10 -6.2225901878e-11 
2.5883229397e-10 2.5883229397e-10 2.0187872128e-10 3.22744789e-10 4.6382148972e-10 4.6382148972e-10 2.0358493018e-10 4.4555002958e-10 5.9431404024e-10 
5.9431404024e-10 -2.0284142214e-10 -1.8916711038e-11 5.6705513318e-10 5.6705513318e-10 -5.7792760504e-10 -1.3310038805e-10 3.7744089309e-10 -5.7792760504e-10 
-5.3708562662e-11 4.2104284914e-11 3.8251958775e-10 3.8251958775e-10 -1.7869913379e-10 -2.7114195612e-11 4.319779294e-10 4.319779294e-10 -3.0258653618e-10 
1.6949098321e-10 4.5343005297e-10 4.5343005297e-10 9.6904502072e-11 3.1709095906e-10 6.2721753887e-10 6.2721753887e-10 -3.1019553701e-10 -4.3401218248e-11 
1.2149055526e-10 -3.1019553701e-10 -4.7235453682e-10 -1.3652228716e-10 4.8127023971e-11 -4.7235453682e-10 -8.5850146937e-11 2.8760893223e-11 1.8293555371e-10 
1.8293555371e-10 -4.2347476678e-10 -1.606327859e-10 3.0956355268e-10 -4.2347476678e-10 -2.5494843091e-10 1.1323854706e-10 3.4161478385e-10 3.4161478385e-10 
-3.8806694582e-10 1.3769944493e-12 2.7854115137e-10 -3.8806694582e-10 -6.8284821789e-11 9.8067412286e-11 2.659011095e-10 2.659011095e-10 -2.4159513937e-10 
-9.645765376e-11 1.7542204313e-10 -2.4159513937e-10 7.5209130292e-11 1.4414406054e-10 5.8482180917e-10 5.8482180917e-10 -5.7675230104e-10 -4.2373107611e-10 
-1.1190762285e-10 -5.7675230104e-10 -1.4593396803e-10 1.1933555858e-10 4.3258170945e-10 4.3258170945e-10 -2.5222050644e-10 1.110927883e-10 2.2455051814e-10 
-2.5222050644e-10 -1.5247481164e-09 -5.1099801528e-10 4.3879131679e-11 -1.5247481164e-09 2.0937768768e-10 7.5039339483e-10 1.2135949175e-09 1.2135949175e-09 
1.3598603668e-10 1.8837086197e-10 7.0659010135e-10 7.0659010135e-10 -1.4580846474e-10 5.2686305197e-11 2.7860795954e-10 2.7860795954e-10 -3.4441054931e-10 
-9.5574551331e-11 9.6990700642e-11 -3.4441054931e-10 1.1167253893e-10 1.6953813719e-10 5.8398232387e-10 5.8398232387e-10 -7.9509983805e-10 -2.4823370821e-10 
-7.8354653745e-11 -7.9509983805e-10 -4.1109572057e-10 -7.1051955112e-11 2.7996675682e-11 -4.1109572057e-10 -2.756341712e-11 4.1885579989e-11 6.4000612131e-11 
6.4000612131e-11 4.7526214862e-11 2.8307413347e-10 5.4612865166e-10 5.4612865166e-10 -8.6472077588e-11 -5.4261558473e-11 4.8932036061e-11 -8.6472077588e-11 
1.7624158077e-11 8.9489176e-11 2.3362086592e-10 2.3362086592e-10 4.0861439661e-10 6.4743963015e-10 1.0098449732e-09 1.0098449732e-09 1.0122059845e-10 
1.4842962753e-10 3.8713277403e-10 3.8713277403e-10 2.1637619353e-10 4.6910110556e-10 7.7533370091e-10 7.7533370091e-10 -4.279354672e-10 -2.3119914697e-10 
-1.9367338584e-10 -4.279354672e-10 -8.3995863047e-11 3.3686954674e-11 1.4113880837e-10 1.4113880837e-10 -6.5754221186e-10 -2.6873574058e-10 -1.8918404755e-10 
-6.5754221186e-10 2.1938303066e-12 7.2898967044e-11 1.5295410265e-10 1.5295410265e-10 3.2583114433e-10 5.2261744005e-10 7.1254241562e-10 7.1254241562e-10 
3.8309758243e-10 6.115398028e-10 8.0617961478e-10 8.0617961478e-10 -3.2818078139e-10 2.8094370645e-11 7.0097310742e-11 -3.2818078139e-10 -6.7071094537e-10 
-5.7938216138e-10 -1.8813189325e-10 -6.7071094537e-10 -9.8824253366e-10 -2.8577382948e-10 -1.4890763686e-10 -9.8824253366e-10 -4.2347348369e-10 -6.0766900548e-11 
2.4380788424e-10 -4.2347348369e-10 -2.7511410322e-10 1.9528141877e-11 1.7143476134e-10 -2.7511410322e-10 4.1717794108e-10 6.3464125249e-10 8.2161180644e-10 
8.2161180644e-10 1.5808669525e-10 3.1444024828e-10 6.0262005647e-10 6.0262005647e-10 -1.8054237037e-10 -5.3700379301e-11 1.8542774967e-10 1.8542774967e-10 
-1.8172988633e-10 3.1900572939e-11 1.0150001339e-10 -1.8172988633e-10 -1.2544898715e-10 -7.0113967404e-11 1.8718440456e-10 1.8718440456e-10 -4.8721980318e-10 
-4.0338179595e-10 -2.6112040088e-10 -4.8721980318e-10 -7.7527469649e-10 -2.9572395539e-10 -2.3707034812e-10 -7.7527469649e-10 -6.7665203241e-10 -2.1141606094e-10 
8.2701993351e-11 -6.7665203241e-10 5.8748981106e-11 1.4036154261e-10 5.6173947628e-10 5.6173947628e-10 -1.7932782827e-09 -7.7628076529e-10 -6.3334795198e-10 
-1.7932782827e-09 1.3372720477e-10 2.3940854628e-10 5.2202924895e-10 5.2202924895e-10 -6.0086717634e-10 -5.0937962732e-10 -3.0725319635e-10 -6.0086717634e-10 
1.7163763583e-10 2.0506158414e-10 4.5410078003e-10 4.5410078003e-10 -1.545949429e-11 2.2336291427e-10 5.2341158002e-10 5.2341158002e-10 -5.0478588794e-11 
2.5175328367e-10 8.7450730512e-10 8.7450730512e-10 -7.7979979058e-10 -3.7164973582e-10 -2.692894736e-10 -7.7979979058e-10 -4.7556859884e-10 -2.3325031367e-10 
-1.4570608749e-10 -4.7556859884e-10 -8.3212086562e-10 -1.5929166442e-10 2.3441383004e-10 -8.3212086562e-10 2.8119780892e-10 3.2966930069e-10 8.5085389039e-10 
8.5085389039e-10 1.0648800642e-10 2.2513474139e-10 6.6835925218e-10 6.6835925218e-10 5.375096805e-11 2.7162597409e-10 6.0721005786e-10 6.0721005786e-10 
-6.1635523398e-10 -2.9761001026e-10 7.755024424e-11 -6.1635523398e-10 -7.1386008541e-10 -2.1551768111e-10 -2.1667233488e-11 -7.1386008541e-10 -2.2585506302e-10 
-7.4292655383e-11 1.940171184e-10 -2.2585506302e-10 6.2485694632e-10 6.9456892131e-10 1.6502841324e-09 1.6502841324e-09 8.5133255114e-11 2.2234970581e-10 
3.2009203907e-10 3.2009203907e-10 2.0860488427e-10 3.7924953792e-10 7.8708757781e-10 7.8708757781e-10 -2.1276037279e-10 -2.7565642693e-11 3.9236565484e-11 
-2.1276037279e-10 -7.1366065031e-11 5.64022203e-11 1.8592084473e-10 1.8592084473e-10 -6.1988585391e-10 -3.3785365306e-10 -2.2863749303e-10 -6.1988585391e-10 
1.1268752834e-10 2.114576696e-10 5.6509080206e-10 5.6509080206e-10 6.526268716e-11 9.2118404824e-11 2.3539180802e-10 2.3539180802e-10 -3.8609956956e-10 
-1.3520651258e-10 -1.1204191786e-10 -3.8609956956e-10 -8.8201547603e-11 1.855288219e-10 5.824416257e-10 5.824416257e-10 -1.5999224592e-10 1.4436563671e-11 
1.8042313225e-10 1.8042313225e-10 2.7248102082e-11 1.7498341572e-10 4.7413718219e-10 4.7413718219e-10 2.0946082871e-10 3.9659344268e-10 4.5257872861e-10 
4.5257872861e-10 -5.9942537842e-10 -2.5283232479e-10 -1.6520929679e-10 -5.9942537842e-10 -2.5236679241e-10 -9.8032619424e-11 -8.2379388162e-11 -2.5236679241e-10 
-3.1785652367e-10 -1.3732300745e-10 -9.5387468878e-11 -3.1785652367e-10 -5.9385946793e-10 -2.1472037096e-10 1.309976389e-10 -5.9385946793e-10 -1.0081472095e-12 
2.0548420739e-10 2.6602093982e-10 2.6602093982e-10 -3.5584771226e-10 -1.0818593246e-10 1.387340472e-11 -3.5584771226e-10 -5.425554629e-10 -2.0467628449e-10 
-9.596425261e-11 -5.425554629e-10 -1.7174371183e-10 -5.1245344749e-11 -2.5570043422e-11 -1.7174371183e-10 -3.8603077784e-10 -2.7800386294e-10 -1.6681135923e-10 
-3.8603077784e-10 -7.4429585744e-12 1.1712823554e-10 1.9033522303e-10 1.9033522303e-10 -2.4225459885e-10 -9.8894606029e-11 3.4715604883e-11 -2.4225459885e-10 
-2.2421043259e-10 -6.9842311873e-11 3.5295444675e-12 -2.2421043259e-10 -2.5260179503e-10 -5.7023006355e-11 -3.1248398619e-11 -2.5260179503e-10 -1.0403941787e-09 
-5.0411679798e-10 -4.6091502335e-10 -1.0403941787e-09 -5.5035005607e-10 -2.203081363e-10 -1.4995880763e-10 -5.5035005607e-10 1.2142859694e-10 2.759043422e-10 
2.9482206086e-10 2.9482206086e-10 -4.9627074989e-10 -4.523366223e-10 -1.6976862781e-10 -4.9627074989e-10 3.2980893334e-10 4.2861821503e-10 9.1569585164e-10 
9.1569585164e-10 -3.3346746649e-11 9.9419254819e-11 3.8424849183e-10 3.8424849183e-10 -3.4324051894e-10 -1.9001989524e-11 9.3507408462e-11 -3.4324051894e-10 
-1.3442316555e-10 -3.8672854754e-11 4.1554973022e-12 -1.3442316555e-10 -1.9271705847e-10 -6.0337383353e-11 1.0800541822e-11 -1.9271705847e-10 -4.1117900345e-11 
7.4754257641e-11 3.171551427e-10 3.171551427e-10 -6.2604173949e-10 -1.4414149892e-10 -3.768806159e-11 -6.2604173949e-10 4.4957974483e-11 2.2204218849e-10 
3.6894983703e-10 3.6894983703e-10 -4.998178854e-10 -2.1088368664e-10 -7.7730427958e-11 -4.998178854e-10 -1.3694336947e-10 -3.6613135587e-11 8.551920506e-11 
-1.3694336947e-10 2.9962348602e-11 7.0807680741e-11 3.3759487066e-10 3.3759487066e-10 3.5757421267e-11 1.3731033046e-10 2.9995054827e-10 2.9995054827e-10 
-4.7261286498e-10 -2.3892221195e-10 -1.5996292306e-10 -4.7261286498e-10 -2.2877705826e-11 1.5756810268e-10 2.5510250315e-10 2.5510250315e-10 -3.4145867937e-10 
-9.7110066086e-11 1.3647745454e-11 -3.4145867937e-10 2.0267836211e-11 1.2787623676e-10 4.8852592703e-10 4.8852592703e-10 -7.9889522513e-10 -6.0998973174e-11 
6.04131983e-11 -7.9889522513e-10 -3.068513868e-11 2.4988681467e-10 4.1539532401e-10 4.1539532401e-10 8.7428557498e-11 1.9229474573e-10 3.1115869677e-10 
3.1115869677e-10 1.3666041909e-10 1.89841824e-10 4.881107569e-10 4.881107569e-10 -1.7781919052e-10 2.9161909624e-11 2.3718023089e-10 2.3718023089e-10 
4.0839896858e-10 5.2778421987e-10 1.3582998116e-09 1.3582998116e-09 -5.4087401538e-10 -2.6838900689e-10 -1.6339697773e-10 -5.4087401538e-10 -9.3479895706e-11 
1.0845175945e-10 2.2586523625e-10 2.2586523625e-10 -3.2999344791e-10 1.3509967135e-10 2.9530177655e-10 -3.2999344791e-10 -2.9264218426e-10 -1.0803247671e-10 
-7.0627339029e-11 -2.9264218426e-10 -3.5866811757e-11 1.668399644e-10 2.8773474736e-10 2.8773474736e-10 1.7110992409e-10 1.973020788e-10 6.1912299711e-10 
6.1912299711e-10 1.919198011e-11 1.5830735847e-10 2.7270366142e-10 2.7270366142e-10 -2.0882861591e-11 1.1613612866e-11 1.3980714873e-10 1.3980714873e-10 
-3.248019033e-10 4.6744157707e-11 1.7818099559e-10 -3.248019033e-10 -8.4798217191e-11 -1.2151655297e-12 3.2081598272e-10 3.2081598272e-10 2.2014792062e-10 
3.9868809353e-10 9.9298998585e-10 9.9298998585e-10 -2.0661149016e-10 -1.2030214963e-10 2.7894863979e-10 2.7894863979e-10 8.3147932194e-11 3.1652398096e-10 
9.3181508685e-10 9.3181508685e-10 -2.5635433898e-10 -2.9036093073e-11 4.0221732051e-11 -2.5635433898e-10 -4.0436757972e-10 -2.0599029633e-10 -9.2442395009e-13 
-4.0436757972e-10 8.8426765805e-11 1.8988779227e-10 2.7996244192e-10 2.7996244192e-10 -4.0060883292e-10 -1.3529317764e-10 8.1144410561e-11 -4.0060883292e-10 
-1.2393816967e-11 8.622035174e-11 2.8291936523e-10 2.8291936523e-10 -1.4222891664e-10 -2.4889601593e-11 5.6530218235e-11 -1.4222891664e-10 -1.2792655223e-11 
2.5248504411e-10 3.9781861111e-10 3.9781861111e-10 2.5536206053e-10 4.986072283e-10 8.1096771117e-10 8.1096771117e-10 -2.497364637e-11 -8.4422059809e-12 
4.5295845235e-10 4.5295845235e-10 -3.849363138e-10 -1.8409943883e-10 -1.1114924737e-10 -3.849363138e-10 2.5055472426e-10 3.637685367e-10 6.3652273904e-10 
6.3652273904e-10 -1.3771905746e-09 -7.8297949683e-10 -4.1941892862e-10 -1.3771905746e-09 1.6696894999e-10 2.7549550652e-10 3.1864554348e-10 3.1864554348e-10 
-1.5876325656e-10 3.6169246159e-11 2.737752104e-10 2.737752104e-10 -4.077990215e-10 -1.0510121952e-10 -4.3947589851e-12 -4.077990215e-10 -9.4581580819e-10 
-3.3209112638e-10 3.7233934568e-11 -9.4581580819e-10 -4.6140219501e-10 -1.7769538383e-10 -5.8824821165e-11 -4.6140219501e-10 3.5287631565e-10 4.5874512312e-10 
8.5562156123e-10 8.5562156123e-10 1.5729912888e-10 3.3252695505e-10 8.4414391607e-10 8.4414391607e-10 6.7491189908e-11 2.6913806867e-10 4.0622274143e-10 
4.0622274143e-10 -5.3583129307e-10 -1.6898596541e-10 -1.143674152e-11 -5.3583129307e-10 -6.4706702351e-10 -3.4320681807e-10 -9.3354158421e-11 -6.4706702351e-10 
-6.6386253778e-11 1.4956809469e-10 3.2454495909e-10 3.2454495909e-10 -6.8499727075e-10 -4.5065700394e-10 -2.8732572531e-10 -6.8499727075e-10 -4.405546728e-10 
-1.571663659e-10 -5.0414613068e-12 -4.405546728e-10 -5.761910495e-10 -2.816239498e-10 -2.0969000702e-11 -5.761910495e-10 -3.4336147167e-11 4.8860804855e-11 
2.0377084231e-10 2.0377084231e-10 -3.3408486292e-10 1.1920568689e-10 1.5182807603e-10 -3.3408486292e-10 1.9172172588e-11 2.438939405e-10 4.6803988691e-10 
4.6803988691e-10 -1.3323312474e-10 4.9536026678e-11 3.3701969806e-10 3.3701969806e-10 -4.0650564265e-10 -3.256281634e-10 -6.5946193956e-11 -4.0650564265e-10 
8.4820626357e-11 2.4398975198e-10 3.7336262166e-10 3.7336262166e-10 -9.6189640898e-10 -3.3718351582e-10 1.100869248e-10 -9.6189640898e-10 -5.3502246975e-11 
8.192170314e-11 7.0877534384e-10 7.0877534384e-10 -3.3186261856e-11 3.2405257569e-11 2.8518870429e-10 2.8518870429e-10 -3.4588322467e-10 -1.7998668537e-10 
-8.4815089959e-11 -3.4588322467e-10 2.7072560183e-10 4.6320043798e-10 5.3229096019e-10 5.3229096019e-10 4.6758846211e-10 5.6749670219e-10 1.5771648357e-09 
1.5771648357e-09 2.4050135851e-10 3.8612675229e-10 9.860648892e-10 9.860648892e-10 -1.9504616662e-10 -1.2127008492e-10 8.0690515403e-12 -1.9504616662e-10 
-4.7876340937e-10 -1.7413573681e-10 -2.1040953829e-11 -4.7876340937e-10 -1.0819533793e-09 -5.4956768527e-10 -4.6764093538e-10 -1.0819533793e-09 -4.9720283617e-10 
-2.0250659427e-10 -1.0649656956e-10 -4.9720283617e-10 -5.0674159637e-12 2.9593068376e-11 9.2327947588e-11 9.2327947588e-11 8.8227762514e-11 2.7031241568e-10 
5.0959582181e-10 5.0959582181e-10 -1.1380859963e-10 1.1974940221e-11 1.3181764941e-10 1.3181764941e-10 -3.069753342e-10 -2.2721685244e-10 -1.3927813361e-11 
-3.069753342e-10 -4.9814339496e-10 -2.7951655415e-10 -8.2069050889e-11 -4.9814339496e-10 1.1259045626e-10 1.7413043449e-10 3.2043210925e-10 3.2043210925e-10 
1.831655224e-10 2.420516774e-10 3.762248002e-10 3.762248002e-10 -5.389483035e-10 -2.4898587782e-10 -1.5558181868e-10 -5.389483035e-10 -1.7520100973e-10 
3.3365082288e-11 7.8865527443e-11 -1.7520100973e-10 -3.7560441199e-10 -1.814236995e-10 -7.6579888518e-11 -3.7560441199e-10 -9.28294503e-10 -3.66478377e-10 
-2.8625312e-10 -9.28294503e-10 -5.1266438614e-10 -1.8114158126e-10 3.2919567396e-11 -5.1266438614e-10 9.9334610514e-11 1.884836835e-10 3.5929670598e-10 
3.5929670598e-10 -2.956656804e-11 6.8420763831e-11 3.8538010421e-10 3.8538010421e-10 -2.1669869762e-10 7.4965081338e-11 1.2120077629e-10 -2.1669869762e-10 
-6.1861475181e-10 -4.0903564887e-10 -1.7086959932e-10 -6.1861475181e-10 -1.976704209e-11 5.2514754478e-11 2.3278058761e-10 2.3278058761e-10 1.0824173143e-10 
1.9035697132e-10 3.5215929725e-10 3.5215929725e-10 -8.6301437067e-10 -8.1194266236e-11 8.3669636906e-11 -8.6301437067e-10 4.2440216117e-10 7.4773983243e-10 
1.2139650064e-09 1.2139650064e-09 -5.6350640668e-10 -4.6512065923e-10 -1.0027193409e-10 -5.6350640668e-10 -4.0537784614e-10 -2.5551199895e-10 -1.1008415491e-10 
-4.0537784614e-10 -2.0628585602e-10 2.1768331736e-11 1.9875799429e-10 -2.0628585602e-10 -1.1250709454e-11 2.5563754414e-11 2.1033379504e-10 2.1033379504e-10 
4.1026466549e-10 7.5733671169e-10 1.0068166228e-09 1.0068166228e-09 -5.97840711e-10 -1.3805597037e-10 -4.5675318625e-11 -5.97840711e-10 -3.8373301563e-11 
1.8542079335e-10 5.9367850822e-10 5.9367850822e-10 -6.2783784295e-10 -1.808819671e-10 2.3151991005e-10 -6.2783784295e-10 3.0626588703e-10 3.8884567689e-10 
7.1502843607e-10 7.1502843607e-10 -1.5376252485e-10 -8.4329229875e-11 -2.0555145279e-11 -1.5376252485e-10 -2.7434932984e-10 3.2263760134e-11 2.279192797e-10 
-2.7434932984e-10 -4.8671870762e-10 5.6123939364e-12 2.3743531369e-10 -4.8671870762e-10 -4.1172471285e-10 1.5412303809e-12 9.8106482465e-11 -4.1172471285e-10 
5.6891888371e-10 6.488248051e-10 1.5525303112e-09 1.5525303112e-09 -1.0716776797e-09 -3.1775011095e-10 -8.2717209328e-11 -1.0716776797e-09 -6.5828821591e-11 
4.678487928e-11 6.2903024231e-10 6.2903024231e-10 -1.4557123819e-10 1.6021925393e-10 6.8803078426e-10 6.8803078426e-10 3.9582304505e-10 7.2861543925e-10 
1.2386025157e-09 1.2386025157e-09 -6.5795711061e-10 -1.861505098e-10 -1.2703437959e-10 -6.5795711061e-10 1.0467085246e-10 4.4154706592e-10 6.0018108162e-10 
6.0018108162e-10 1.122628373e-10 3.0733759488e-10 4.7935956782e-10 4.7935956782e-10 1.2239445419e-10 2.2083094543e-10 2.9988960038e-10 2.9988960038e-10 
-6.3621915294e-10 -2.1270619074e-10 -6.2533656325e-11 -6.3621915294e-10 -6.9984088553e-10 -3.7480966318e-10 -2.8331745129e-10 -6.9984088553e-10 -2.6853378532e-10 
-2.2492421988e-10 -1.0478994805e-11 -2.6853378532e-10 -1.5594054011e-10 9.7485011187e-11 4.0420212893e-10 4.0420212893e-10 3.7414281083e-11 9.5503021722e-11 
2.4776779719e-10 2.4776779719e-10 -7.7459417553e-11 1.0219631197e-10 2.5775510558e-10 2.5775510558e-10 -2.1422085425e-10 9.4439170095e-11 4.3047118415e-10 
4.3047118415e-10 -1.6225130544e-10 -3.969558682e-11 2.7844815226e-10 2.7844815226e-10 -3.158711916e-10 -1.1494855507e-10 2.4137946662e-11 -3.158711916e-10 
-3.5070856916e-10 7.9645609274e-11 3.0616699989e-10 -3.5070856916e-10 -7.4998763771e-11 2.7420119757e-11 1.0505584401e-10 1.0505584401e-10 -5.3910464142e-10 
-1.9525738437e-10 6.5880257942e-12 -5.3910464142e-10 -5.3908136978e-10 -4.6549461776e-10 -1.4989801246e-10 -5.3908136978e-10 -1.3875446944e-10 1.9782747919e-10 
6.0658799025e-10 6.0658799025e-10 -1.8250790217e-10 3.971304847e-11 1.060344937e-10 -1.8250790217e-10 1.024325901e-10 1.7634314058e-10 2.1699226932e-10 
2.1699226932e-10 2.8525251925e-10 5.9289093193e-10 1.0314085488e-09 1.0314085488e-09 -3.2905656664e-10 -1.7037460626e-10 4.3734172905e-11 -3.2905656664e-10 
5.0177771901e-10 7.1535104246e-10 1.3321012385e-09 1.3321012385e-09 1.7105530517e-10 4.2057632525e-10 5.1217236958e-10 5.1217236958e-10 7.546980415e-11 
2.101631798e-10 6.0655101605e-10 6.0655101605e-10 -6.8447621293e-12 2.3598294172e-10 6.7993482041e-10 6.7993482041e-10 1.4980491915e-10 2.0924147637e-10 
3.3098360448e-10 3.3098360448e-10 -4.0567829566e-10 -3.734503714e-11 1.716256328e-10 -4.0567829566e-10 9.6591203749e-11 2.0298242541e-10 5.7808937084e-10 
5.7808937084e-10 -4.4447347842e-10 1.456947561e-11 9.2022902805e-11 -4.4447347842e-10 -9.3132109502e-10 -3.9483762853e-10 -1.4137627645e-10 -9.3132109502e-10 
-1.4137447817e-10 -2.5816486935e-11 1.219146651e-10 -1.4137447817e-10 -3.9293051132e-10 -2.4013280272e-10 -1.0644968597e-10 -3.9293051132e-10 -5.3573744169e-10 
-7.154853059e-11 1.2854537228e-10 -5.3573744169e-10 -4.9107809831e-10 -2.5788152125e-10 -1.8570938044e-10 -4.9107809831e-10 -6.9108781021e-10 -2.2744284279e-10 
2.2371652999e-11 -6.9108781021e-10 -2.8896314131e-10 -6.5611474952e-11 1.1717761626e-10 -2.8896314131e-10 -3.4048290913e-10 -5.9893571768e-11 1.177465809e-10 
-3.4048290913e-10 -2.2989639845e-10 9.6078456894e-11 2.5433754155e-10 2.5433754155e-10 -8.7986802587e-11 4.0113269994e-11 2.1666193259e-10 2.1666193259e-10 
-8.3290090348e-10 -6.5983012842e-10 -3.445149681e-10 -8.3290090348e-10 9.8681710216e-11 2.2217763777e-10 4.6904765202e-10 4.6904765202e-10 -1.5149197979e-10 
1.2455052102e-11 8.1357327693e-11 -1.5149197979e-10 -2.6463586893e-11 1.4611724168e-10 2.2850534522e-10 2.2850534522e-10 -1.6789469407e-09 -6.1258938985e-10 
-4.7447866948e-10 -1.6789469407e-09 -1.5634239786e-10 -7.2961023027e-11 -2.0236979117e-11 -1.5634239786e-10 -3.638674897e-11 2.6726873431e-10 6.0282601466e-10 
6.0282601466e-10 -2.5772816063e-10 -7.9803836115e-11 -3.5040003252e-11 -2.5772816063e-10 -4.4704807578e-10 -2.2734071769e-10 -1.2937220653e-10 -4.4704807578e-10 
-3.6070748531e-10 -1.8379529848e-10 -4.2567216217e-11 -3.6070748531e-10 -4.2964448933e-10 -6.2133659702e-11 3.2056044903e-10 -4.2964448933e-10 -2.6730849512e-10 
-5.3131037994e-11 1.0975743311e-10 -2.6730849512e-10 -4.4297411715e-11 1.061687222e-10 4.7606618951e-10 4.7606618951e-10 -1.0708378232e-10 5.7747397685e-11 
2.9705508464e-10 2.9705508464e-10 6.1438625055e-10 8.4197323365e-10 1.6188245158e-09 1.6188245158e-09 1.0540894718e-10 1.8584148328e-10 3.6265356955e-10 
3.6265356955e-10 6.5380538524e-11 1.6765990153e-10 5.4524355995e-10 5.4524355995e-10 -4.4365743599e-10 -1.8291558304e-10 -1.603848097e-11 -4.4365743599e-10 
2.6378871571e-10 4.128460626e-10 6.5230322169e-10 6.5230322169e-10 -4.603180175e-10 -8.6879768257e-11 3.5315118576e-10 -4.603180175e-10 1.2627315136e-10 
4.3778822893e-10 5.2844961971e-10 5.2844961971e-10 1.1373137322e-10 2.6792236323e-10 7.0439126355e-10 7.0439126355e-10 -4.837852838e-11 -6.9480555946e-12 
1.8214578397e-10 1.8214578397e-10 -5.1195708271e-10 -2.3346233837e-10 -8.3344578922e-11 -5.1195708271e-10 4.2015974017e-11 5.0877901461e-10 1.3941600114e-09 
1.3941600114e-09 3.2200575766e-10 5.2281710875e-10 7.4713313359e-10 7.4713313359e-10 -9.0940107498e-11 6.8060148343e-11 2.0806165916e-10 2.0806165916e-10 
-2.0886401134e-10 1.0971402715e-10 3.9534718419e-10 3.9534718419e-10 -2.147235038e-10 -1.9094980151e-10 -1.8866494695e-11 -2.147235038e-10 -1.0771420574e-10 
1.0501331313e-10 3.1431099261e-10 3.1431099261e-10 3.3498673574e-10 5.1968143308e-10 8.0229883118e-10 8.0229883118e-10 1.6777432343e-10 4.3026586362e-10 
5.8287281295e-10 5.8287281295e-10 5.4172583658e-10 6.8580577059e-10 1.2967043928e-09 1.2967043928e-09 -1.9550880307e-10 -8.2263215501e-11 -4.0563481426e-11 
-1.9550880307e-10 -3.9723987148e-10 -2.0408883469e-10 -9.6710293834e-11 -3.9723987148e-10 -2.7857339425e-11 8.8314100502e-11 2.9138893892e-10 2.9138893892e-10 
-1.0873663579e-10 1.980048767e-10 6.6512045909e-10 6.6512045909e-10 2.5342311204e-10 4.7695434315e-10 6.3025354481e-10 6.3025354481e-10 -2.9882772594e-11 
2.669757701e-10 7.7308850249e-10 7.7308850249e-10 -9.8809296833e-11 1.9190634097e-11 1.4651636274e-10 1.4651636274e-10 -5.6625654716e-11 7.7402275073e-11 
3.2695687964e-10 3.2695687964e-10 -4.1328805943e-10 -2.295193832e-10 1.4282442623e-11 -4.1328805943e-10 -3.5778206882e-10 -1.3949781471e-10 2.4276078353e-10 
-3.5778206882e-10 1.909700981e-10 2.3162967561e-10 5.0743722629e-10 5.0743722629e-10 -6.5730080717e-10 -3.8072742031e-10 -1.3207677252e-10 -6.5730080717e-10 
-2.4803642265e-10 -9.3311737737e-11 -7.5473961238e-13 -2.4803642265e-10 -1.1469847432e-10 5.4578600178e-11 2.5915617414e-10 2.5915617414e-10 -2.5822424471e-10 
-2.1360214835e-10 3.7104393058e-11 -2.5822424471e-10 -3.8939564775e-10 -5.163571366e-11 6.2105256141e-10 6.2105256141e-10 -5.3254030441e-10 4.9375481231e-11 
2.3778842318e-10 -5.3254030441e-10 -1.1002108416e-10 1.4970449162e-11 2.61584535e-10 2.61584535e-10 -3.0143967659e-10 -1.2161698748e-10 2.0150164069e-11 
-3.0143967659e-10 1.1262763039e-10 2.6503044565e-10 5.8589392396e-10 5.8589392396e-10 -1.0203345925e-10 -5.1204396021e-11 -3.6525144733e-11 -1.0203345925e-10 
-2.2371579168e-10 4.2010726133e-11 2.7675196555e-10 2.7675196555e-10 -7.7136415378e-10 -2.76640821e-10 -1.3002402522e-10 -7.7136415378e-10 -1.1104482963e-10 
-1.745148628e-12 1.3424273826e-10 1.3424273826e-10 -2.6365913265e-10 -6.2857930596e-11 3.8726663247e-11 -2.6365913265e-10 8.8721255083e-11 1.6972161819e-10 
3.1349612672e-10 3.1349612672e-10 5.9907617816e-10 6.7406653765e-10 1.5131702842e-09 1.5131702842e-09 2.9326411759e-10 5.0763752262e-10 1.0773263598e-09 
1.0773263598e-09 3.3852576695e-11 1.6070409353e-10 6.5728032978e-10 6.5728032978e-10 -6.3545337575e-10 -1.6571731276e-10 -2.9870311482e-11 -6.3545337575e-10 
2.1917165166e-10 5.0393837678e-10 6.4055597156e-10 6.4055597156e-10 -1.4795607572e-10 -2.1640085752e-12 6.0261414291e-11 -1.4795607572e-10 1.2353276529e-10 
2.2486675557e-10 5.5832347914e-10 5.5832347914e-10 1.0279895639e-10 1.7601532809e-10 4.9218371551e-10 4.9218371551e-10 -2.6966145649e-10 -3.3413856194e-11 
4.2606196682e-11 -2.6966145649e-10 -6.7548122786e-10 -3.3090098423e-10 -2.5558478791e-10 -6.7548122786e-10 -9.3153041344e-11 -4.6419622332e-11 1.4109054468e-10 
1.4109054468e-10 2.7884630312e-10 4.0969213831e-10 5.4849255858e-10 5.4849255858e-10 1.0789720219e-10 1.9707906663e-10 4.4692273117e-10 4.4692273117e-10 
-5.4031022671e-11 1.4892519841e-10 4.4960141967e-10 4.4960141967e-10 -7.0938888568e-11 1.4672609661e-10 4.3713604196e-10 4.3713604196e-10 -2.8967547727e-10 
-8.5353909958e-11 8.2867387227e-11 -2.8967547727e-10 -3.1725457341e-10 -1.0136458017e-10 -7.0745846421e-11 -3.1725457341e-10 -4.1604316074e-10 -2.1926475913e-10 
-1.7342108014e-10 -4.1604316074e-10 1.8347895544e-10 2.4970917062e-10 4.6321387394e-10 4.6321387394e-10 -5.0393993488e-10 -1.8192039426e-10 -1.1946767086e-10 
-5.0393993488e-10 -3.5657911931e-10 -8.0478648267e-11 6.2323067581e-11 -3.5657911931e-10 -3.6065824866e-11 1.6472882462e-10 4.6513320025e-10 4.6513320025e-10 
-3.4795268441e-10 -7.2290117922e-11 1.0628920233e-10 -3.4795268441e-10 1.836609799e-10 3.227505895e-10 6.212374306e-10 6.212374306e-10 2.4528138081e-10 
3.2752033514e-10 6.0386228405e-10 6.0386228405e-10 -6.7486801398e-10 -2.1921111299e-10 -6.3487873028e-11 -6.7486801398e-10 -3.8329601194e-10 -1.6920767074e-10 
-1.3163631732e-10 -3.8329601194e-10 -6.6145129501e-10 -1.7477434716e-10 1.2124224217e-10 -6.6145129501e-10 -6.715395724e-10 -2.6095763625e-10 -1.7203479135e-10 
-6.715395724e-10 -6.4238293402e-11 -2.9664532882e-11 1.2544376284e-11 -6.4238293402e-11 -8.9022573543e-11 8.7302454061e-11 3.9636921948e-10 3.9636921948e-10 
-1.551172964e-10 -4.4047655712e-11 2.9162152115e-11 -1.551172964e-10 -7.7382596232e-11 1.0037880633e-10 4.0468268991e-10 4.0468268991e-10 -4.8529909377e-10 
-2.1957048161e-10 -1.1575942462e-10 -4.8529909377e-10 -6.0415048759e-10 -2.322968521e-10 -2.0785566032e-10 -6.0415048759e-10 -4.1045232464e-10 -1.2693668083e-10 
-1.2205994528e-11 -4.1045232464e-10 6.1482191629e-11 8.8669171865e-11 2.2639473651e-10 2.2639473651e-10 1.891750731e-10 3.3572743655e-10 5.9074149035e-10 
5.9074149035e-10 -3.475249959e-10 -6.1035591432e-11 5.0340087328e-11 -3.475249959e-10 2.2433074402e-11 2.2060630286e-10 5.9191662274e-10 5.9191662274e-10 
1.5884849663e-10 2.9319312366e-10 4.7160437971e-10 4.7160437971e-10 -1.4114386492e-10 -6.726295085e-11 3.1107051577e-10 3.1107051577e-10 -2.7650978953e-10 
-1.3136343403e-10 9.0635923563e-11 -2.7650978953e-10 -1.7989483997e-10 -2.837695404e-11 1.2418099401e-10 -1.7989483997e-10 1.493079813e-10 2.8566840939e-10 
7.2930060931e-10 7.2930060931e-10 -2.4005578248e-10 -9.8977184528e-11 -9.3746132997e-11 -2.4005578248e-10 -1.6162011327e-10 -5.6039344835e-12 3.8750347752e-11 
-1.6162011327e-10 -5.598420193e-10 -3.8235958863e-10 -2.4611939207e-10 -5.598420193e-10 1.5582134685e-10 2.1851312756e-10 1.0038095256e-09 1.0038095256e-09 
-6.2505385226e-10 -3.5675501024e-10 -2.876081375e-10 -6.2505385226e-10 -4.5807173239e-10 -3.8760046255e-11 1.5125778647e-11 -4.5807173239e-10 -9.9408062476e-10 
-5.6280994785e-10 -3.8254342738e-10 -9.9408062476e-10 -2.2855455534e-09 -8.5300575818e-10 -7.1877668839e-10 -2.2855455534e-09 -5.3443850213e-11 1.7568712771e-12 
7.1983228936e-11 7.1983228936e-11 -1.5185438128e-10 6.3950870157e-11 1.1272090112e-10 -1.5185438128e-10 -6.024297143e-11 2.1597874905e-10 2.3427082238e-10 
2.3427082238e-10 7.9640632574e-11 2.0766974205e-10 4.0718562538e-10 4.0718562538e-10 -1.3089704446e-10 5.7986248244e-11 1.0842924622e-10 -1.3089704446e-10 
1.3806231558e-10 3.4943711755e-10 5.1658056687e-10 5.1658056687e-10 -4.7343047164e-10 -1.9108646816e-10 -1.5115160205e-11 -4.7343047164e-10 4.9012179817e-11 
3.2416010589e-10 4.9998971429e-10 4.9998971429e-10 2.2527590087e-12 8.6486647489e-11 3.135755935e-10 3.135755935e-10 -5.3938983104e-10 -2.9398874667e-10 
-9.6704422286e-11 -5.3938983104e-10 -3.0576789747e-10 -1.2664391071e-10 -7.5092191811e-11 -3.0576789747e-10 -1.3082603034e-10 2.0605519373e-10 4.8464223661e-10 
4.8464223661e-10 -7.6848512624e-11 -5.3098773612e-11 3.5558078624e-10 3.5558078624e-10 -5.0340994873e-10 -2.7081297317e-10 -7.2756078102e-11 -5.0340994873e-10 
-5.8929468078e-10 -2.822576786e-10 -2.7438640617e-11 -5.8929468078e-10 -3.531142837e-10 -1.1629609598e-10 2.2064796869e-12 -3.531142837e-10 -1.2283011968e-10 
1.7803297794e-10 5.6093714173e-10 5.6093714173e-10 -2.5854220903e-10 1.1834121931e-11 1.9206428709e-10 -2.5854220903e-10 -5.6994538599e-10 -2.5239311748e-10 
1.8846503468e-11 -5.6994538599e-10 -6.3378011764e-10 -3.9712048326e-10 -1.659053991e-10 -6.3378011764e-10 -2.7388150814e-10 4.5519303411e-11 2.9133261473e-10 
2.9133261473e-10 -1.7047110075e-10 1.7029105776e-10 2.9366297299e-10 2.9366297299e-10 -3.9025651172e-10 -2.9793213331e-10 -1.7563935497e-10 -3.9025651172e-10 
-3.55920539e-10 -1.4147401607e-10 9.7129255072e-11 -3.55920539e-10 -3.0689738803e-10 -3.6586677055e-12 1.6096905574e-10 -3.0689738803e-10 -1.6847331107e-10 
-1.0439045485e-10 2.7649865923e-11 -1.6847331107e-10 -5.1440953543e-10 -2.8018122188e-10 1.9760785731e-10 -5.1440953543e-10 -4.3551607657e-10 -8.8282726692e-11 
6.5929203263e-11 -4.3551607657e-10 -2.4923867856e-10 1.066915311e-11 3.9803095447e-11 -2.4923867856e-10 -4.6577272695e-11 6.8491910705e-11 1.2698966199e-10 
1.2698966199e-10 -1.1343989419e-10 -2.8393149878e-12 1.1218085118e-10 -1.1343989419e-10 -4.4781607043e-10 -2.8590793732e-10 -8.5324992243e-11 -4.4781607043e-10 
-8.8852318998e-11 8.686427677e-11 2.1732514223e-10 2.1732514223e-10 -6.0497939828e-10 -3.5649052769e-10 -1.4063407403e-10 -6.0497939828e-10 -2.4082853608e-10 
-7.7405633667e-12 3.8335679945e-10 3.8335679945e-10 -1.5481944071e-10 -2.7037443454e-11 1.671118416e-11 -1.5481944071e-10 -4.6952012382e-10 -3.0281158308e-10 
-8.1326293093e-11 -4.6952012382e-10 -6.3880184258e-11 2.4331387579e-10 4.1047630847e-10 4.1047630847e-10 -5.7075822434e-10 -1.8773880163e-10 1.2535802597e-10 
-5.7075822434e-10 -9.6503233577e-11 6.6460513077e-12 1.7140259227e-10 1.7140259227e-10 4.6826394622e-11 1.3296754724e-10 3.6773705814e-10 3.6773705814e-10 
4.0005311485e-10 5.1883206079e-10 8.5813082436e-10 8.5813082436e-10 -1.5008985217e-10 5.2832295126e-11 3.1619705705e-10 3.1619705705e-10 3.8954895832e-11 
1.5485032993e-10 3.3660377424e-10 3.3660377424e-10 5.1577408959e-11 1.6869775787e-10 6.7151083317e-10 6.7151083317e-10 -7.2116707582e-10 -2.5504345466e-10 
-3.7344695189e-12 -7.2116707582e-10 -7.6463874862e-10 -2.6498866004e-10 -2.3737959134e-10 -7.6463874862e-10 -2.6845748338e-10 -1.9152338287e-10 1.2155326625e-10 
-2.6845748338e-10 -6.250171795e-10 -2.0523923046e-10 8.4134099621e-12 -6.250171795e-10 -4.7412542922e-10 -1.7839487089e-10 -6.9688699897e-11 -4.7412542922e-10 
-2.1836418753e-10 7.4860932248e-11 5.2746725528e-10 5.2746725528e-10 -8.6492717061e-10 -2.5296234946e-10 3.5942520073e-11 -8.6492717061e-10 -1.2209244509e-09 
-4.5446094691e-10 -2.7225560215e-10 -1.2209244509e-09 5.1253061397e-10 7.0537341808e-10 1.1354229679e-09 1.1354229679e-09 -7.5627781087e-10 -1.8328784446e-10 
-5.3550344672e-11 -7.5627781087e-10 7.5975533465e-11 3.4571793632e-10 5.7610253021e-10 5.7610253021e-10 2.5688311791e-10 3.9766178743e-10 8.5089109466e-10 
8.5089109466e-10 5.8588293331e-10 6.5851227158e-10 1.3102007951e-09 1.3102007951e-09 3.7662015714e-11 7.8287287622e-11 2.2314639666e-10 2.2314639666e-10 
-1.2944013683e-10 -3.471816668e-11 2.0787340351e-10 2.0787340351e-10 -6.8172185618e-11 -6.4036064436e-11 8.6307450053e-11 8.6307450053e-11 -4.7467627315e-10 
-1.950338405e-10 -5.8570886344e-11 -4.7467627315e-10 -2.5585850075e-10 -1.0021741588e-10 -5.9520783366e-11 -2.5585850075e-10 1.141631674e-10 3.189322968e-10 
4.488555358e-10 4.488555358e-10 -6.0305900894e-11 6.6323187928e-11 1.7904331297e-10 1.7904331297e-10 -4.3831438028e-10 -3.9614075869e-10 -2.4506386103e-10 
-4.3831438028e-10 -6.269137751e-10 -4.6023307092e-10 -2.2761515399e-10 -6.269137751e-10 -5.1654768275e-10 -3.1710950653e-10 -1.6284581072e-10 -5.1654768275e-10 
1.5589624542e-10 2.0751434426e-10 3.8755141032e-10 3.8755141032e-10 -1.1935474909e-09 -5.0350483345e-10 -4.3770067561e-10 -1.1935474909e-09 -3.8256220477e-10 
-2.6066575298e-10 -1.8567604225e-10 -3.8256220477e-10 1.1876335571e-10 1.8745752112e-10 2.9698612317e-10 2.9698612317e-10 3.801410838e-10 5.319138491e-10 
1.1613710671e-09 1.1613710671e-09 -1.3369255924e-11 6.8756886791e-11 4.9360036913e-10 4.9360036913e-10 -6.8802822859e-10 -3.5324707559e-10 -4.7228695816e-11 
-6.8802822859e-10 -1.9671619013e-10 -6.1664591328e-11 1.6262408146e-10 -1.9671619013e-10 2.0290707024e-10 3.8182965961e-10 8.5087627014e-10 8.5087627014e-10 
-2.9500375524e-11 1.4453014354e-11 5.147660117e-11 5.147660117e-11 3.4472228413e-10 3.582703733e-10 8.0626834258e-10 8.0626834258e-10 -8.3292913321e-10 
-5.195288916e-10 -1.6967497519e-10 -8.3292913321e-10 2.024767448e-10 2.9115066786e-10 8.6123458735e-10 8.6123458735e-10 1.9659590583e-11 1.5399738978e-10 
2.8850701964e-10 2.8850701964e-10 -2.7329460028e-10 1.4331134958e-10 5.413019507e-10 5.413019507e-10 6.6111329203e-11 3.0763463146e-10 6.7395803934e-10 
6.7395803934e-10 3.6527566654e-10 3.9775217731e-10 8.5310315614e-10 8.5310315614e-10 2.5194095735e-10 2.7379512032e-10 6.3171892234e-10 6.3171892234e-10 
-4.5162948522e-10 -1.6991757556e-10 -9.147193922e-11 -4.5162948522e-10 -6.0484481632e-10 -2.3877087039e-10 -8.4997313291e-11 -6.0484481632e-10 2.3490331427e-10 
4.795919246e-10 6.2344976113e-10 6.2344976113e-10 -3.5013473807e-10 -8.334207944e-11 6.2230437514e-11 -3.5013473807e-10 -1.0344939535e-09 -7.2664883636e-10 
-3.2856821011e-10 -1.0344939535e-09 -7.0941674639e-10 -2.5232204826e-10 -1.4968220536e-10 -7.0941674639e-10 -3.3082541868e-10 -1.2095073271e-10 -3.5050848605e-11 
-3.3082541868e-10 2.189159664e-10 3.7512849403e-10 9.4757253957e-10 9.4757253957e-10 -6.7602721011e-10 -4.1052590514e-10 -2.3890888475e-10 -6.7602721011e-10 
-1.1494921786e-09 -4.8242193957e-10 -3.8820688181e-10 -1.1494921786e-09 -2.6929429003e-10 2.6379968893e-11 3.9279402114e-10 3.9279402114e-10 3.2736080328e-12 
1.7450458041e-10 5.8480681155e-10 5.8480681155e-10 -5.7960100967e-10 -2.7407380159e-10 -1.9018718873e-10 -5.7960100967e-10 3.6048668404e-10 4.1811641666e-10 
9.9746089929e-10 9.9746089929e-10 1.2421852891e-10 2.3559690915e-10 4.6544656194e-10 4.6544656194e-10 9.9584552789e-11 2.0146412001e-10 3.3814432721e-10 
3.3814432721e-10 1.6030680379e-10 3.0484260712e-10 8.5526858909e-10 8.5526858909e-10 -5.4495362577e-10 -2.2419555332e-10 -1.6511882091e-10 -5.4495362577e-10 
1.671073951e-11 1.4033613734e-10 2.9607612315e-10 2.9607612315e-10 -6.0649973872e-11 -2.2526261262e-11 2.2889293513e-10 2.2889293513e-10 -4.8462108733e-10 
-1.6744749695e-10 -6.1943415722e-11 -4.8462108733e-10 -1.2297333847e-10 4.3865156228e-11 2.1389608224e-10 2.1389608224e-10 -6.3213605599e-10 -3.0241194083e-10 
-2.1437400318e-10 -6.3213605599e-10 -4.4499371935e-10 -3.6134293148e-10 -1.4397934918e-10 -4.4499371935e-10 -7.0503035842e-11 1.0449994997e-10 1.9153288587e-10 
1.9153288587e-10 -4.4050010119e-10 -2.4425690798e-10 3.6721009163e-11 -4.4050010119e-10 -1.2570828552e-10 9.2179591969e-11 3.0966169355e-10 3.0966169355e-10 
-1.2011838743e-10 1.8066189059e-10 4.1767259685e-10 4.1767259685e-10 -7.5199131341e-10 -3.4810934569e-10 -2.122613409e-10 -7.5199131341e-10 -6.3041629077e-10 
-4.246418302e-10 -1.4674087903e-10 -6.3041629077e-10 -1.9721519999e-10 2.224004407e-11 1.5645703592e-10 -1.9721519999e-10 7.519667866e-11 2.5220119679e-10 
3.4047112455e-10 3.4047112455e-10 -2.25852446e-10 -6.4366800983e-11 -2.337525302e-11 -2.25852446e-10 -2.4147782736e-10 -6.0572375496e-11 6.7342402857e-11 
-2.4147782736e-10 -1.1215716313e-10 -5.1153840387e-11 3.0084303516e-11 -1.1215716313e-10 -2.1422714401e-13 1.2841243656e-10 3.0244709059e-10 3.0244709059e-10 
-3.2324038334e-10 -1.4349162665e-10 2.0717360999e-10 -3.2324038334e-10 -3.3123776141e-10 -3.0942940586e-10 -4.3897832734e-11 -3.3123776141e-10 1.952579283e-10 
3.5820817692e-10 4.4547389478e-10 4.4547389478e-10 -2.7736572703e-10 -1.5485054649e-10 8.6442673517e-11 -2.7736572703e-10 -9.1082435118e-11 -1.2209174709e-11 
4.8344209827e-11 -9.1082435118e-11 -5.5807373374e-10 -3.3961477707e-10 -1.9852748919e-10 -5.5807373374e-10 4.0236763037e-11 1.1289236681e-10 4.1546987015e-10 
4.1546987015e-10 -1.256550759e-10 -8.4727664769e-11 3.1134394067e-10 3.1134394067e-10 -1.8615438885e-10 -1.0422122461e-10 -3.2326086536e-11 -1.8615438885e-10 
-2.7751285408e-10 -1.3906901574e-10 1.7354701982e-10 -2.7751285408e-10 -2.7751441604e-10 -9.0094364575e-11 6.1603080611e-11 -2.7751441604e-10 8.483780469e-11 
3.4154765929e-10 6.1184653602e-10 6.1184653602e-10 -5.002645471e-10 -2.5539284815e-10 -1.1712560475e-10 -5.002645471e-10 -2.9358299999e-10 -7.6063197378e-11 
2.7827029736e-10 -2.9358299999e-10 -5.7854641804e-10 -5.2660719172e-10 -2.2117239025e-10 -5.7854641804e-10 -3.1062981026e-10 1.9841020573e-11 3.4477028969e-10 
3.4477028969e-10 6.0591059068e-11 4.8688846151e-10 1.0663334794e-09 1.0663334794e-09 1.5804751957e-10 3.3926127336e-10 9.5387320707e-10 9.5387320707e-10 
3.0175755586e-10 5.384723724e-10 8.8438907173e-10 8.8438907173e-10 3.5213088912e-11 1.4546869753e-10 4.8900821356e-10 4.8900821356e-10 -2.6090403144e-10 
1.2553083226e-10 3.9523519918e-10 3.9523519918e-10 -2.0402572549e-10 -2.7053125786e-11 9.8719151276e-11 -2.0402572549e-10 -2.8264144463e-10 -1.3011981741e-10 
-1.297453796e-11 -2.8264144463e-10 -4.4875445101e-10 -2.3334589177e-10 6.9361342783e-11 -4.4875445101e-10 -1.4329995694e-09 -4.5698850466e-10 -2.2966592598e-10 
-1.4329995694e-09 -8.0822170115e-11 -1.1516462164e-14 1.2689058658e-10 1.2689058658e-10 -5.1122183888e-11 1.0812776605e-10 2.5598231783e-10 2.5598231783e-10 
-1.486837009e-10 9.759692147e-11 6.4123977944e-10 6.4123977944e-10 -1.8547390009e-10 3.6016927817e-11 1.8820458228e-10 1.8820458228e-10 -1.3654672671e-09 
-4.7743134854e-10 -1.7031338432e-10 -1.3654672671e-09 -5.2667132661e-11 7.6791365087e-11 2.1145086757e-10 2.1145086757e-10 -9.7208930149e-10 -5.1049771317e-10 
-3.9412398534e-10 -9.7208930149e-10 5.0421664449e-10 6.9401804073e-10 1.1405213148e-09 1.1405213148e-09 1.4208540766e-10 3.8887726452e-10 6.1898632783e-10 
6.1898632783e-10 -8.708097617e-10 -4.4709125911e-10 -2.4524197918e-10 -8.708097617e-10 -8.0732724827e-10 -7.0289068524e-10 -3.3674306649e-10 -8.0732724827e-10 
-6.7187004644e-10 -3.6013515406e-10 2.9393200493e-11 -6.7187004644e-10 -4.1388614461e-10 -1.98448901e-10 1.4656204561e-10 -4.1388614461e-10 2.7145003908e-10 
4.409569501e-10 8.3667401082e-10 8.3667401082e-10 -3.788654132e-10 -1.0277468045e-10 4.0409779365e-10 4.0409779365e-10 -6.6965689912e-11 4.3199610815e-11 
3.146388791e-10 3.146388791e-10 2.0175882463e-10 2.3523888858e-10 4.385172868e-10 4.385172868e-10 -7.8998977241e-10 -3.769950387e-11 1.9098797628e-10 
-7.8998977241e-10 -1.3886525038e-09 -3.4779932714e-10 -1.360051691e-10 -1.3886525038e-09 -4.3074196901e-11 1.4257851701e-10 5.493396799e-10 5.493396799e-10 
1.5908450355e-10 3.2945431927e-10 8.3566217718e-10 8.3566217718e-10 -2.9242704232e-10 -3.8722217965e-12 2.0588826412e-10 -2.9242704232e-10 1.002623956e-11 
2.87693415e-10 4.1237034544e-10 4.1237034544e-10 1.0301330019e-10 1.9615263332e-10 5.1881006649e-10 5.1881006649e-10 -6.6190971932e-10 -2.2750764973e-10 
-1.5908063095e-10 -6.6190971932e-10 -1.2813073191e-10 4.5426351776e-13 1.6298473839e-10 1.6298473839e-10 -6.4495928324e-10 -1.8519281043e-10 -4.7230906326e-11 
-6.4495928324e-10 -2.8420376907e-10 -7.6672855124e-11 9.4103224198e-11 -2.8420376907e-10 9.0176148195e-11 1.4172856311e-10 3.0062328869e-10 3.0062328869e-10 
-3.2174022885e-10 -9.5615027665e-11 2.4760146515e-11 -3.2174022885e-10 -6.2148252676e-10 -3.5420415517e-10 -2.0518031807e-10 -6.2148252676e-10 -5.9614132578e-10 
-4.5013211236e-10 -1.0601056186e-10 -5.9614132578e-10 -5.0263865413e-10 -1.5885460457e-10 5.3581258699e-11 -5.0263865413e-10 -3.2942487468e-10 -1.4542468528e-10 
1.5026515996e-10 -3.2942487468e-10 -3.306026528e-10 -1.0128023579e-10 6.7894688582e-11 -3.306026528e-10 -8.1915484585e-10 -2.0091344272e-10 6.1373788571e-11 
-8.1915484585e-10 1.1152355595e-10 1.8670900836e-10 2.7097343569e-10 2.7097343569e-10 -2.00732814e-10 1.3013921651e-10 3.5890479749e-10 3.5890479749e-10 
-3.5894092391e-10 -2.0908853805e-10 2.4433036196e-10 -3.5894092391e-10 -2.6076041552e-11 9.7830205249e-13 2.436732395e-10 2.436732395e-10 2.6215486723e-10 
5.0933093834e-10 1.0539211944e-09 1.0539211944e-09 -2.8586883196e-10 -5.3041937738e-11 3.8141779696e-11 -2.8586883196e-10 -6.0932901638e-10 -1.3567961921e-10 
3.4866635587e-11 -6.0932901638e-10 7.0952773418e-11 2.7480628059e-10 3.7402094599e-10 3.7402094599e-10 -2.6077990029e-10 -6.6024752147e-11 -2.6861647559e-11 
-2.6077990029e-10 -2.7438294679e-10 -2.1520105311e-11 1.157439521e-10 -2.7438294679e-10 -1.2373221524e-10 7.4003551892e-11 4.9350197335e-10 4.9350197335e-10 
-5.2516792819e-10 -1.3689410956e-10 4.7774737748e-11 -5.2516792819e-10 -1.1413925566e-09 -4.0076357712e-10 -2.7110586627e-10 -1.1413925566e-09 -1.0181252079e-09 
-3.251755658e-10 -6.6509226329e-11 -1.0181252079e-09 4.7381099931e-11 1.8993395326e-10 5.3042974681e-10 5.3042974681e-10 -1.2036562434e-10 3.9156676555e-11 
4.9498374778e-10 4.9498374778e-10 -2.54505502e-10 -5.220598004e-11 7.963598204e-11 -2.54505502e-10 -7.2775936823e-11 1.8295527881e-10 2.6391995801e-10 
2.6391995801e-10 9.0408902208e-12 2.0824206002e-10 5.6643004976e-10 5.6643004976e-10 -1.7044091298e-10 -1.9514399012e-11 1.1709691199e-10 -1.7044091298e-10 
-3.6198679306e-11 1.6315130661e-10 3.010902727e-10 3.010902727e-10 -6.4398956111e-10 -2.3077635427e-10 -1.8559084622e-11 -6.4398956111e-10 -1.0099786895e-10 
2.6294613896e-11 1.8318135505e-10 1.8318135505e-10 4.5818989962e-11 1.3761561774e-10 4.1605239229e-10 4.1605239229e-10 -2.7472276715e-10 1.6614735825e-11 
2.9287131325e-11 -2.7472276715e-10 -1.6597608088e-10 3.5317947599e-11 9.252918328e-11 -1.6597608088e-10 -4.4174153662e-10 -1.3259826373e-10 2.8144500357e-11 
-4.4174153662e-10 1.7448306315e-10 5.9800689901e-10 7.6163403784e-10 7.6163403784e-10 -1.5980856532e-09 -2.7249942771e-10 -3.9665919096e-11 -1.5980856532e-09 
-2.8541503807e-10 -2.0885183167e-11 8.6814221233e-11 -2.8541503807e-10 -1.3373498675e-10 1.3719232036e-10 3.6599596638e-10 3.6599596638e-10 -4.2399362763e-11 
3.9280146606e-11 1.1946491616e-10 1.1946491616e-10 -9.0103812333e-10 -4.1623841813e-10 -3.8396645854e-10 -9.0103812333e-10 -1.1218970911e-10 8.610093892e-11 
3.7514657019e-10 3.7514657019e-10 4.7572615701e-10 5.9011135881e-10 1.0543434842e-09 1.0543434842e-09 -4.0244943765e-10 -1.115424102e-10 6.044872785e-11 
-4.0244943765e-10 -5.1763770623e-10 -1.9875565796e-10 -1.7013763581e-10 -5.1763770623e-10 2.6353877002e-10 3.0506394815e-10 6.9044628183e-10 6.9044628183e-10 
-7.3210979202e-11 5.7479427939e-11 1.6565175126e-10 1.6565175126e-10 -2.9663024543e-10 2.1267640544e-10 2.5751262999e-10 -2.9663024543e-10 7.1002709801e-11 
2.3446046188e-10 5.6207082832e-10 5.6207082832e-10 -3.8220187055e-10 -1.6574140333e-10 -1.514792612e-11 -3.8220187055e-10 -4.5429068039e-10 -2.3886338715e-10 
-2.0274393246e-10 -4.5429068039e-10 -3.7819920168e-10 -3.45381799e-10 3.1940006798e-12 -3.7819920168e-10 -6.9413014219e-10 -3.9012896164e-10 2.4406910382e-10 
-6.9413014219e-10 -5.3320833754e-10 -5.0154649614e-11 3.7835987155e-11 -5.3320833754e-10 2.7225747677e-10 3.3398718867e-10 5.9492533457e-10 5.9492533457e-10 
-5.689963537e-11 5.9910493767e-11 4.159246416e-10 4.159246416e-10 -5.702087223e-10 -2.442327552e-10 -3.9822522497e-11 -5.702087223e-10 -1.2328467265e-10 
-1.2892837489e-11 4.8018910135e-11 -1.2328467265e-10 -1.2614289398e-10 8.2120504703e-11 4.3381448928e-10 4.3381448928e-10 -2.2811822192e-10 2.2660044329e-11 
1.279160776e-10 -2.2811822192e-10 -1.5758753743e-10 8.8627189171e-11 4.5120654826e-10 4.5120654826e-10 -3.013063254e-11 1.9557388612e-10 3.4092334642e-10 
3.4092334642e-10 -5.6663146963e-11 5.9340152402e-11 9.0374699456e-10 9.0374699456e-10 -2.3792133198e-12 9.7179078506e-11 3.3233213481e-10 3.3233213481e-10 
1.2902064473e-11 2.9188697718e-11 4.5031013781e-10 4.5031013781e-10 1.1685480005e-10 2.5470172993e-10 3.5824247002e-10 3.5824247002e-10 -1.0830143696e-10 
5.5837790016e-11 4.2258414695e-10 4.2258414695e-10 8.6394456609e-11 4.0829793114e-10 7.5628561225e-10 7.5628561225e-10 -4.7912327969e-10 -9.3442060428e-11 
3.2796974012e-10 -4.7912327969e-10 -2.5265144984e-10 -1.238622172e-10 4.9951767039e-11 -2.5265144984e-10 1.6112143265e-10 2.3114606398e-10 4.6017550337e-10 
4.6017550337e-10 -2.5387105421e-10 1.2746976259e-10 3.7751949162e-10 3.7751949162e-10 1.9691034479e-10 2.9415026796e-10 7.2701738725e-10 7.2701738725e-10 
-5.2723776778e-11 1.0939351007e-10 4.0884306671e-10 4.0884306671e-10 -1.2444647322e-10 -4.8080049773e-12 4.3645858194e-11 -1.2444647322e-10 6.2507325074e-11 
1.9674218284e-10 3.5666449208e-10 3.5666449208e-10 -3.246100306e-10 -2.3741858625e-10 -1.4105538315e-10 -3.246100306e-10 7.9042557784e-11 9.7263799619e-11 
2.223333426e-10 2.223333426e-10 -7.0044328911e-10 -4.0176999984e-10 -2.4930971105e-10 -7.0044328911e-10 -4.9908110954e-10 -3.0617696828e-10 -1.7377692217e-10 
-4.9908110954e-10 -2.1215499061e-11 1.4331570792e-10 4.7664015114e-10 4.7664015114e-10 4.7411396341e-11 1.2753376281e-10 3.7118984085e-10 3.7118984085e-10 
2.6150718826e-10 3.4906298707e-10 6.8653682467e-10 6.8653682467e-10 2.1503468834e-10 3.1563886923e-10 4.7622844244e-10 4.7622844244e-10 -1.0679844963e-10 
-3.9911037127e-11 8.2636886753e-11 -1.0679844963e-10 -5.6817266115e-10 -3.2787465688e-10 -2.1237168197e-10 -5.6817266115e-10 -2.5073240292e-10 -9.8109747621e-11 
-6.3574949461e-11 -2.5073240292e-10 -5.18426171e-10 -2.3650472128e-10 -7.1492107717e-11 -5.18426171e-10 -8.8324622405e-10 -3.9005663817e-10 -3.2138513777e-10 
-8.8324622405e-10 1.7663507269e-10 3.92350521e-10 7.6068040631e-10 7.6068040631e-10 -9.1007128534e-10 -3.8768453924e-10 -3.7226217542e-10 -9.1007128534e-10 
-5.1657309627e-10 -2.0289537864e-10 -1.6507752509e-10 -5.1657309627e-10 -2.9641910618e-10 -5.4727827453e-11 1.5947293363e-10 -2.9641910618e-10 7.9418471011e-11 
1.3210227053e-10 1.6317955845e-10 1.6317955845e-10 -1.059623214e-10 -2.7874723943e-11 1.0027023535e-10 -1.059623214e-10 -1.1325511156e-10 -7.8262454356e-11 
5.0809765911e-11 -1.1325511156e-10 -1.1314640767e-09 -5.7469661184e-10 -3.7472731143e-10 -1.1314640767e-09 -3.0537066164e-10 -1.348895932e-10 -7.7520745156e-11 
-3.0537066164e-10 -1.3066773409e-11 1.0432377762e-10 2.9853579579e-10 2.9853579579e-10 -1.7271761981e-10 -4.3543717032e-11 2.3966736838e-11 -1.7271761981e-10 
-3.8767377513e-10 -1.1994524943e-10 1.4704024557e-11 -3.8767377513e-10 2.7504250308e-11 7.8606228654e-11 2.4725182104e-10 2.4725182104e-10 -5.1978417931e-10 
-8.2209066308e-11 2.4941064561e-10 -5.1978417931e-10 -1.287192496e-10 3.1505533678e-11 2.2341491592e-10 2.2341491592e-10 2.7780008167e-10 5.8329094771e-10 
1.1139309706e-09 1.1139309706e-09 1.8966279438e-10 3.6015170721e-10 4.6607449841e-10 4.6607449841e-10 -5.9089549462e-10 -2.6025926414e-10 -1.8575224124e-10 
-5.9089549462e-10 -3.7015174413e-10 -1.4872353053e-10 -1.1068772534e-10 -3.7015174413e-10 1.5439587499e-11 6.7069511944e-11 3.8664740056e-10 3.8664740056e-10 
-3.7416299647e-10 -9.8277664047e-11 -5.8818439485e-11 -3.7416299647e-10 -6.4382087181e-10 -1.4091646666e-10 2.7010338469e-11 -6.4382087181e-10 -3.0326652601e-11 
3.4466407849e-10 3.7872757411e-10 3.7872757411e-10 -4.8131465933e-11 4.6518628804e-11 2.9122503713e-10 2.9122503713e-10 -1.0363782544e-10 1.3858634772e-10 
2.5676507772e-10 2.5676507772e-10 -4.1048704583e-10 -2.8611925767e-10 -1.802966965e-10 -4.1048704583e-10 -4.6599506123e-10 -2.8094794235e-10 -1.2128599642e-10 
-4.6599506123e-10 9.0332274762e-11 1.815767855e-10 3.6039793974e-10 3.6039793974e-10 -2.6552700379e-10 -5.3142035495e-11 9.0986439285e-11 -2.6552700379e-10 
1.5350860644e-10 2.8154551462e-10 3.5571987895e-10 3.5571987895e-10 -2.0392544913e-10 -3.4562541506e-11 2.2361274064e-10 2.2361274064e-10 -5.2879320134e-10 
-1.6706602817e-10 -4.9118370485e-11 -5.2879320134e-10 -1.0782924604e-09 -3.3045068025e-10 -4.1441859353e-11 -1.0782924604e-09 -2.8223623562e-10 -2.1820697415e-10 
7.9685709777e-11 -2.8223623562e-10 -1.978888291e-10 -8.849863149e-11 2.5602985059e-10 2.5602985059e-10 -9.1152533342e-11 -2.301196203e-11 1.4408848537e-10 
1.4408848537e-10 1.9778949771e-10 2.9132214097e-10 4.6654736132e-10 4.6654736132e-10 -2.1074026272e-11 2.8565721631e-10 8.2490980996e-10 8.2490980996e-10 
-2.5474797065e-10 -1.1673748228e-10 4.7872652926e-11 -2.5474797065e-10 2.003530944e-10 3.2491113754e-10 4.8096176806e-10 4.8096176806e-10 3.0860072631e-11 
2.6166531166e-10 4.5735561571e-10 4.5735561571e-10 -1.1842733562e-10 2.1709591615e-11 2.2448014401e-10 2.2448014401e-10 -1.6844774676e-10 7.5500121623e-11 
2.3896862514e-10 2.3896862514e-10 -1.151572007e-10 -4.2796636822e-11 -4.1561624788e-12 -1.151572007e-10 8.9477977112e-11 2.8392525478e-10 5.6525576811e-10 
5.6525576811e-10 -5.6534718547e-11 -3.1352100346e-11 2.0784291889e-10 2.0784291889e-10 -3.8105713035e-10 -1.3795658326e-10 -9.7246286383e-11 -3.8105713035e-10 
-3.5579548846e-10 -1.4895374901e-10 1.7378437475e-11 -3.5579548846e-10 -1.467120299e-10 5.4911765846e-11 2.1383786406e-10 2.1383786406e-10 2.7464439642e-10 
3.2996545732e-10 5.8870714626e-10 5.8870714626e-10 3.1118690208e-12 6.8292132469e-11 1.5081439851e-10 1.5081439851e-10 -4.4543614754e-10 -1.445235375e-10 
-8.0337314958e-11 -4.4543614754e-10 -3.9195878538e-10 -6.2033037702e-11 2.6556323078e-11 -3.9195878538e-10 -6.3243796045e-10 -2.7143640885e-10 -1.7755263069e-10 
-6.3243796045e-10 -6.3385094404e-10 -4.7079440506e-10 -2.1834165089e-10 -6.3385094404e-10 -1.7941911255e-09 -8.3862376212e-10 -6.9924511234e-10 -1.7941911255e-09 
-4.3915614274e-10 -1.3253700383e-10 -1.5060653435e-11 -4.3915614274e-10 -1.1584384697e-10 -2.6827031103e-12 1.5252714008e-10 1.5252714008e-10 -8.7876663617e-10 
-2.9699696437e-10 -2.5873739946e-10 -8.7876663617e-10 -3.5887500066e-10 1.1226084766e-10 1.63130753e-10 -3.5887500066e-10 -9.3492141591e-10 -4.2061463844e-10 
-3.7393994565e-10 -9.3492141591e-10 -3.4170203818e-10 -3.4462365925e-11 1.552706141e-10 -3.4170203818e-10 -6.1109501132e-10 -2.5606409838e-10 -2.055148903e-10 
-6.1109501132e-10 -1.9525115966e-10 -2.2650831311e-11 1.2379359097e-10 -1.9525115966e-10 -6.4894263158e-10 -3.485521861e-10 -2.7813418232e-10 -6.4894263158e-10 
-1.1601266932e-10 5.5545449938e-11 2.9127201938e-10 2.9127201938e-10 -1.0230949917e-09 -3.138236226e-10 -6.4564385745e-11 -1.0230949917e-09 -1.7600476315e-10 
3.8828717344e-11 2.0598674581e-10 2.0598674581e-10 3.0990465514e-10 3.1666090046e-10 7.4074344439e-10 7.4074344439e-10 -3.880666618e-10 -6.9577765359e-11 
8.5763127158e-11 -3.880666618e-10 -1.4401325385e-11 8.5188507184e-11 3.171834182e-10 3.171834182e-10 -2.66728978e-10 -1.3472498417e-10 -5.1924037834e-11 
-2.66728978e-10 -3.6771248887e-10 -1.1012051773e-10 4.1345006603e-11 -3.6771248887e-10 4.9868731901e-10 5.1692515927e-10 1.2685015217e-09 1.2685015217e-09 
2.0283235003e-10 2.9763862164e-10 4.5827902833e-10 4.5827902833e-10 2.7691966449e-11 8.1917078245e-11 3.7162095531e-10 3.7162095531e-10 -9.141302762e-11 
1.1812481392e-11 1.0182234423e-10 1.0182234423e-10 1.790465318e-10 3.3510191778e-10 7.9763355042e-10 7.9763355042e-10 5.2114911776e-11 2.313054053e-10 
7.1540168292e-10 7.1540168292e-10 -9.8391911371e-12 1.1071629521e-10 4.4950789593e-10 4.4950789593e-10 -1.2289567194e-10 7.5054076027e-11 3.6331809591e-10 
3.6331809591e-10 -2.8092085404e-10 -7.4788961334e-11 1.4280161538e-10 -2.8092085404e-10 -1.2650380949e-11 2.2054077732e-10 3.8266860363e-10 3.8266860363e-10 
-6.4104788767e-10 -5.9326382468e-10 -3.1352428765e-10 -6.4104788767e-10 -6.6097907199e-10 -2.1407140349e-10 1.2056167548e-10 -6.6097907199e-10 -1.1236253166e-09 
-8.0069229457e-10 -5.5327238887e-10 -1.1236253166e-09 -1.4540970397e-10 -7.8909118506e-11 2.4767822478e-11 -1.4540970397e-10 4.6275037044e-10 6.7534758525e-10 
1.2188710443e-09 1.2188710443e-09 2.9004009493e-10 3.231066019e-10 6.6268430317e-10 6.6268430317e-10 1.0291660037e-10 1.881349126e-10 5.0189048704e-10 
5.0189048704e-10 -1.0340283397e-10 7.6256703523e-12 1.4111166362e-10 1.4111166362e-10 1.2422713068e-10 2.8155544863e-10 6.6358042068e-10 6.6358042068e-10 
1.0542493413e-10 1.6319584841e-10 6.2814421746e-10 6.2814421746e-10 4.5248480503e-11 1.6995653249e-10 3.23643987e-10 3.23643987e-10 -8.951281609e-10 
-3.8267511891e-10 -1.1961972019e-10 -8.951281609e-10 4.8599324816e-10 6.5044959e-10 1.1189281618e-09 1.1189281618e-09 -2.0330488868e-10 3.2536774915e-11 
3.4481861376e-10 3.4481861376e-10 -5.0406681081e-10 -9.7991592117e-11 -6.7134970685e-12 -5.0406681081e-10 -6.2591783639e-10 -3.259297316e-10 -1.27670432e-10 
-6.2591783639e-10 -4.3044832094e-10 -1.1437696236e-10 -1.3351716699e-11 -4.3044832094e-10 -3.4391119234e-10 -3.7986493585e-11 -1.5180714078e-11 -3.4391119234e-10 
3.2853252428e-10 4.1118425916e-10 1.1784822166e-09 1.1784822166e-09 -2.4314628601e-11 2.228380625e-10 4.871546661e-10 4.871546661e-10 -1.3481275189e-10 
4.8052660203e-11 3.3569309169e-10 3.3569309169e-10 -2.8904441528e-11 4.0424172501e-12 1.3819724428e-10 1.3819724428e-10 -1.0564403174e-10 -2.2416030861e-11 
8.69944726e-11 -1.0564403174e-10 1.3539377832e-10 1.7722445553e-10 4.5512676615e-10 4.5512676615e-10 6.526698047e-11 2.9491456399e-10 9.5361145554e-10 
9.5361145554e-10 -1.9464305218e-10 5.1958644177e-11 3.41223508e-10 3.41223508e-10 1.3405182324e-10 3.2431953902e-10 1.0010736377e-09 1.0010736377e-09 
-5.466120971e-10 -1.8166391901e-10 -6.6608983892e-11 -5.466120971e-10 -2.5039822904e-10 -1.0571547009e-10 -4.8250700865e-11 -2.5039822904e-10 6.0773428746e-11 
3.4368570885e-10 4.986208624e-10 4.986208624e-10 -3.732080842e-10 4.2225612338e-11 4.4725197186e-10 4.4725197186e-10 -9.0194379931e-10 -3.1074800801e-10 
-2.0744019268e-10 -9.0194379931e-10 -4.1059188978e-10 -1.3401969166e-10 -6.2454418559e-11 -4.1059188978e-10 -2.1024837298e-10 -1.1870612914e-10 -2.7010297876e-11 
-2.1024837298e-10 -3.2494769142e-10 3.1330793521e-11 1.973396979e-10 -3.2494769142e-10 1.9088702883e-10 2.5685474735e-10 6.4938422382e-10 6.4938422382e-10 
-2.3628350713e-10 8.1374133216e-11 1.8769573392e-10 -2.3628350713e-10 -1.4562086582e-10 4.196144021e-11 4.1209342561e-10 4.1209342561e-10 -4.5325756222e-11 
1.0090681124e-10 3.0780024498e-10 3.0780024498e-10 2.2190101131e-11 7.9093781987e-11 1.6332481688e-10 1.6332481688e-10 2.3794553553e-10 4.125756781e-10 
5.1120578637e-10 5.1120578637e-10 -4.0570081169e-10 -2.7942878057e-10 -1.5929940774e-10 -4.0570081169e-10 1.7600050905e-10 4.0133389594e-10 5.2865659501e-10 
5.2865659501e-10 1.4027662173e-10 2.6729247643e-10 7.3630790183e-10 7.3630790183e-10 -1.8205809999e-10 4.4487440561e-11 3.3319505943e-10 3.3319505943e-10 
1.0688725228e-10 1.8376608175e-10 4.8255666598e-10 4.8255666598e-10 2.5307956916e-10 3.1615528251e-10 5.2801314833e-10 5.2801314833e-10 -3.3708407947e-10 
1.1429933501e-10 2.5812127446e-10 -3.3708407947e-10 -1.5043381328e-10 -5.4287783535e-11 1.2530589681e-10 -1.5043381328e-10 -3.2779419759e-10 -1.996842525e-10 
-5.1441549917e-11 -3.2779419759e-10 -1.1631453169e-10 7.4171382427e-11 5.2725834926e-10 5.2725834926e-10 2.2736170574e-11 2.2056681682e-10 6.4449701261e-10 
6.4449701261e-10 3.5745098151e-10 5.3798959659e-10 1.3416164219e-09 1.3416164219e-09 -9.3581150378e-10 -3.3584358076e-10 -1.7710591545e-10 -9.3581150378e-10 
-1.5141945737e-10 4.1120960894e-11 2.5844389647e-10 2.5844389647e-10 -5.2620284197e-10 -7.3772397268e-11 8.4502639237e-11 -5.2620284197e-10 2.8836163636e-10 
3.6374714315e-10 8.8975722049e-10 8.8975722049e-10 4.0646015733e-11 1.4573715814e-10 3.3856182613e-10 3.3856182613e-10 -1.3890485057e-11 1.8333803229e-10 
3.7972265277e-10 3.7972265277e-10 -3.2521467389e-10 -4.3594747915e-11 2.077926218e-10 -3.2521467389e-10 8.7114805645e-11 1.5845736574e-10 3.7433182861e-10 
3.7433182861e-10 -1.5489373364e-10 4.015898043e-11 2.6846615321e-10 2.6846615321e-10 1.897805568e-10 2.7474633871e-10 4.449881045e-10 4.449881045e-10 
-2.131559938e-10 1.3950204357e-11 2.9695788945e-10 2.9695788945e-10 -1.7298233515e-10 5.672984126e-11 8.2555463894e-11 -1.7298233515e-10 4.3016191629e-11 
1.2680136125e-10 2.5770474712e-10 2.5770474712e-10 -4.5319556838e-10 -1.3465120649e-10 4.979074868e-12 -4.5319556838e-10 -2.0955898222e-10 2.0282044562e-11 
2.0749230766e-10 -2.0955898222e-10 9.0353816265e-11 2.2420365318e-10 4.0835953055e-10 4.0835953055e-10 -5.4077180065e-11 1.4807754155e-10 3.5650663851e-10 
3.5650663851e-10 2.3300685759e-10 3.8303797173e-10 6.3873817067e-10 6.3873817067e-10 -8.4546031321e-10 -4.7313784496e-10 -3.9155084183e-10 -8.4546031321e-10 
-4.8164069912e-10 -3.2376675721e-10 -1.1301354367e-10 -4.8164069912e-10 -3.0052499755e-10 -1.6315701958e-10 1.4796251713e-10 -3.0052499755e-10 -1.5958655434e-11 
1.6678951194e-10 4.364881435e-10 4.364881435e-10 -1.7316188508e-10 5.2388462147e-11 2.6689462294e-10 2.6689462294e-10 -6.2952686832e-11 1.9291939491e-11 
2.1730620734e-10 2.1730620734e-10 3.0974480032e-10 3.2152535055e-10 7.9594484913e-10 7.9594484913e-10 -6.4466375703e-10 -2.2506412903e-10 -1.2843311394e-10 
-6.4466375703e-10 -1.3686362e-10 6.988779909e-11 2.4062115891e-10 2.4062115891e-10 -9.6654205241e-10 -6.1730075867e-10 -3.2990418893e-10 -9.6654205241e-10 
4.9237357828e-10 5.7235923214e-10 1.1242571896e-09 1.1242571896e-09 -7.0438637641e-10 -2.45414248e-10 -1.9083737559e-10 -7.0438637641e-10 -5.4502251517e-10 
-2.3710601212e-10 -2.2146472713e-11 -5.4502251517e-10 -3.3316657291e-10 -1.8753114775e-10 -1.1195627934e-10 -3.3316657291e-10 -4.9986951496e-11 -8.258410407e-12 
3.869180619e-10 3.869180619e-10 -1.3686639049e-10 -1.4316551368e-11 1.6858799186e-10 1.6858799186e-10 6.3566457397e-11 2.3998900984e-10 5.8976953276e-10 
5.8976953276e-10 -3.6300161101e-10 -8.9375141334e-11 7.5537752339e-11 -3.6300161101e-10 -4.4042791486e-10 -1.7313556085e-10 -8.8305524286e-11 -4.4042791486e-10 
3.7282905956e-10 5.1025689129e-10 7.4056304914e-10 7.4056304914e-10 -2.5585065121e-11 1.5038923226e-10 5.6067283286e-10 5.6067283286e-10 -4.5558516812e-10 
-6.7891265353e-11 2.1601453347e-10 -4.5558516812e-10 -5.8361924768e-10 -2.1580929205e-10 -1.6093646027e-10 -5.8361924768e-10 1.5146882677e-10 2.3552831947e-10 
5.5530385376e-10 5.5530385376e-10 -3.4680133664e-10 -4.7708497265e-11 -4.1873660964e-12 -3.4680133664e-10 -1.2913331544e-10 1.0934242079e-10 3.8195689465e-10 
3.8195689465e-10 -4.9826929893e-10 -1.3306505007e-10 -7.9337651e-11 -4.9826929893e-10 2.3937045645e-10 5.420867017e-10 6.2076284184e-10 6.2076284184e-10 
-4.7015782792e-10 -1.8069653979e-10 8.5594367718e-11 -4.7015782792e-10 -1.3363270583e-10 1.9261120016e-10 3.0094220568e-10 3.0094220568e-10 -4.0527322334e-10 
-2.4162867003e-10 -1.1513110663e-10 -4.0527322334e-10 -2.2701221019e-11 2.3856869399e-10 3.9380152703e-10 3.9380152703e-10 5.6275990541e-11 9.4000535968e-11 
3.5204167349e-10 3.5204167349e-10 -2.1943184251e-10 7.5087246487e-11 1.4434459602e-10 -2.1943184251e-10 1.2328950743e-10 2.0626466434e-10 2.3955082823e-10 
2.3955082823e-10 2.0843116393e-10 2.6815497567e-10 4.398678604e-10 4.398678604e-10 1.8476640479e-10 3.8180172813e-10 5.1456886709e-10 5.1456886709e-10 
-7.7510966661e-10 -4.4568458044e-10 -1.0815752952e-11 -7.7510966661e-10 1.2424930364e-11 3.0648070882e-11 2.6778909875e-10 2.6778909875e-10 -2.4934819435e-10 
-9.0010136482e-11 1.5296243083e-10 -2.4934819435e-10 -6.0243290346e-10 -3.1963436544e-10 2.9427026889e-10 -6.0243290346e-10 -1.0459202282e-09 -7.7952806207e-10 
-6.1280709764e-11 -1.0459202282e-09 -9.0162920323e-10 6.6133614589e-11 1.5460078864e-10 -9.0162920323e-10 -1.9116210929e-10 1.6641468956e-10 3.4402321973e-10 
3.4402321973e-10 -2.340117541e-10 6.8595268567e-12 4.6546022725e-10 4.6546022725e-10 -2.96882871e-10 -5.9032572598e-11 2.1069543599e-11 -2.96882871e-10 
-2.932535239e-10 -2.2402172943e-10 2.4074415333e-10 -2.932535239e-10 -3.6535752038e-10 -7.8890049701e-11 4.9251270078e-11 -3.6535752038e-10 -3.4130599452e-10 
5.1600912999e-12 1.6169040322e-10 -3.4130599452e-10 4.5239767722e-11 1.4058505675e-10 2.4221737553e-10 2.4221737553e-10 -6.5081349951e-10 -2.9179857168e-10 
1.1931307119e-10 -6.5081349951e-10 -3.3714403251e-10 8.7803242446e-11 2.2748275006e-10 -3.3714403251e-10 4.4343866239e-11 1.4201012307e-10 3.7870401069e-10 
3.7870401069e-10 -1.2901773599e-10 8.8864651122e-11 2.5040158487e-10 2.5040158487e-10 8.8141228133e-11 1.5009350309e-10 3.0253626878e-10 3.0253626878e-10 
-2.9272250952e-10 -1.2790392931e-10 3.9941238832e-11 -2.9272250952e-10 1.1490295558e-10 2.242176696e-10 4.3641637482e-10 4.3641637482e-10 -4.7476326188e-10 
-2.1333247448e-10 -1.0393526364e-10 -4.7476326188e-10 -2.7526110112e-10 -9.0969368858e-11 3.6656189488e-10 3.6656189488e-10 3.5475772894e-11 1.6141046536e-10 
3.0661776174e-10 3.0661776174e-10 -9.660568211e-11 -8.1581740241e-11 3.6709882235e-10 3.6709882235e-10 -1.5166276632e-10 2.0875823498e-11 2.3424584282e-10 
2.3424584282e-10 -7.5913420121e-10 -3.9962441979e-10 -5.9376379001e-11 -7.5913420121e-10 -4.3199747795e-10 -8.5767904608e-11 3.4958382561e-11 -4.3199747795e-10 
1.7225214503e-10 1.9513808023e-10 6.7205577474e-10 6.7205577474e-10 -1.3156244382e-10 1.72012956e-11 2.3301614822e-10 2.3301614822e-10 -3.3711263361e-10 
-1.1699336704e-11 2.4681007031e-10 -3.3711263361e-10 -4.1323825567e-10 -2.8202884192e-10 -1.2022690241e-10 -4.1323825567e-10 -1.9656367838e-10 1.1591413615e-10 
7.9557154223e-10 7.9557154223e-10 -3.9031213194e-10 -1.9818935523e-10 -5.0995512825e-11 -3.9031213194e-10 -5.7075010773e-10 -2.2275659286e-10 -1.4132229941e-10 
-5.7075010773e-10 -1.6697005062e-10 -2.567995599e-11 1.7576033661e-10 1.7576033661e-10 -4.3099726371e-10 -1.5087593158e-10 -5.3115804717e-11 -4.3099726371e-10 
-6.8085503391e-10 -3.5156571125e-10 -9.9687254842e-11 -6.8085503391e-10 -8.2669252413e-10 -2.008366531e-10 2.6006177232e-11 -8.2669252413e-10 -3.9980380712e-10 
2.6098695671e-10 3.4226025041e-10 -3.9980380712e-10 -1.5078293275e-10 2.8399564546e-10 4.6720628729e-10 4.6720628729e-10 -2.3945383375e-10 -3.9384638815e-11 
2.7995934156e-10 2.7995934156e-10 -1.7042284796e-10 4.6147530487e-11 3.3854553747e-10 3.3854553747e-10 -3.5850699685e-11 9.6436731251e-11 3.6861576843e-10 
3.6861576843e-10 -2.455589766e-10 -1.0317140046e-10 1.9208487705e-10 -2.455589766e-10 1.8565384745e-10 4.245257226e-10 6.1524242995e-10 6.1524242995e-10 
1.7135471882e-10 3.7592694006e-10 7.4628634112e-10 7.4628634112e-10 -4.1312509483e-10 -1.4983523926e-10 -1.2424966592e-10 -4.1312509483e-10 1.0650515065e-10 
3.4721314664e-10 8.111557027e-10 8.111557027e-10 3.6341875898e-10 6.7233527629e-10 1.0367639647e-09 1.0367639647e-09 -2.0118717421e-11 2.8067542983e-10 
3.7513328759e-10 3.7513328759e-10 -5.2599266342e-10 -2.4731315802e-10 4.7453821437e-11 -5.2599266342e-10 -4.063390634e-11 6.1276928895e-11 2.0795057744e-10 
2.0795057744e-10 -4.0550489371e-10 -3.3904060674e-10 -2.0460149956e-10 -4.0550489371e-10 -1.9998211216e-10 1.345332814e-10 5.9135433076e-10 5.9135433076e-10 
1.4403937856e-10 2.1549039305e-10 5.627902284e-10 5.627902284e-10 1.6703875913e-10 2.1868236848e-10 3.7829787239e-10 3.7829787239e-10 -5.9166390566e-10 
-2.3916763511e-10 -2.2660945923e-10 -5.9166390566e-10 3.7735687771e-10 4.0905129265e-10 1.0866128296e-09 1.0866128296e-09 -1.6971678948e-10 -6.0996738546e-11 
8.471662803e-11 -1.6971678948e-10 -1.5696622851e-10 -8.5711070661e-11 -2.1434600832e-11 -1.5696622851e-10 -1.1432474321e-10 1.2681080607e-10 3.6030613714e-10 
3.6030613714e-10 -2.8428619435e-10 -8.6206068509e-11 2.7915906286e-10 -2.8428619435e-10 1.1239823462e-11 3.1719590986e-10 5.6209326668e-10 5.6209326668e-10 
2.6201829445e-10 4.030289504e-10 7.5295875515e-10 7.5295875515e-10 -1.6606739e-09 -7.155090407e-10 -4.1221205925e-10 -1.6606739e-09 -1.7057429651e-10 
-2.5351502285e-11 -2.50630121e-12 -1.7057429651e-10 -3.7268902463e-10 -2.031759763e-10 1.0446000931e-11 -3.7268902463e-10 -4.1512415094e-10 -1.0072688251e-10 
1.1877363345e-10 -4.1512415094e-10 -1.1255567946e-10 5.5371582439e-12 5.1563302121e-10 5.1563302121e-10 -4.0321301707e-11 2.2958375564e-10 3.1346054607e-10 
3.1346054607e-10 -2.1778694743e-10 -1.4942615855e-10 1.840360598e-11 -2.1778694743e-10 -4.2476053837e-10 -1.7595280231e-10 -1.0965565931e-10 -4.2476053837e-10 
-1.6288143025e-10 4.855001511e-11 3.1742421514e-10 3.1742421514e-10 -1.5748816037e-10 -3.845860775e-11 1.7074993812e-10 1.7074993812e-10 1.2674267139e-11 
1.554919578e-10 2.3316197506e-10 2.3316197506e-10 -1.5564030908e-10 -7.594948124e-11 1.4142709032e-10 -1.5564030908e-10 6.6407775831e-11 2.9954819076e-10 
4.0209303341e-10 4.0209303341e-10 -6.8122138022e-11 8.4566717541e-11 1.8755872048e-10 1.8755872048e-10 -3.2305357173e-10 -3.0197680197e-11 4.3309185193e-10 
4.3309185193e-10 3.4578606113e-10 6.0504207092e-10 6.8302086795e-10 6.8302086795e-10 1.6457112862e-11 1.7385312024e-10 4.517537669e-10 4.517537669e-10 
-2.1281631239e-10 6.3873407099e-11 2.5580170529e-10 2.5580170529e-10 -3.4235825173e-10 -8.1238776103e-11 -1.9624772163e-11 -3.4235825173e-10 -2.7303576009e-10 
-2.8983541532e-11 -7.0220983732e-12 -2.7303576009e-10 1.1308710023e-10 2.4587920072e-10 3.6992169905e-10 3.6992169905e-10 -7.5369564738e-11 2.3175459663e-10 
5.9253896811e-10 5.9253896811e-10 -1.0262749049e-10 1.121706375e-10 1.5013815299e-10 1.5013815299e-10 -2.347556819e-10 1.3085885002e-10 3.2915083187e-10 
3.2915083187e-10 -2.5917562933e-10 -9.6622156644e-11 2.4226018597e-10 -2.5917562933e-10 -3.1377756582e-10 -2.3536626462e-11 2.3500929228e-10 -3.1377756582e-10 
1.5005968285e-10 3.1730284019e-10 5.7238747696e-10 5.7238747696e-10 -7.4829457956e-10 -3.8051745563e-10 3.532903519e-11 -7.4829457956e-10 -1.6992854156e-11 
1.8621039013e-10 4.8869446403e-10 4.8869446403e-10 -3.5955644872e-10 -2.2235490439e-10 -2.7548646892e-11 -3.5955644872e-10 1.6991625854e-11 2.3792879281e-10 
8.5107058133e-10 8.5107058133e-10 -7.7034445156e-10 -2.7133401815e-10 -1.1989253029e-10 -7.7034445156e-10 -5.0633623232e-10 -2.4839161307e-10 -1.8566615461e-10 
-5.0633623232e-10 -5.36254977e-10 -1.7779308852e-10 1.6008065518e-11 -5.36254977e-10 -3.9787005813e-11 1.3206776123e-11 8.4438429691e-11 8.4438429691e-11 
-1.7213664092e-10 -1.1253837929e-10 1.0350022021e-10 -1.7213664092e-10 -1.1024711118e-10 -7.7714345606e-11 3.8041256785e-11 -1.1024711118e-10 -4.4314945327e-10 
-2.822956194e-10 -1.7911992733e-10 -4.4314945327e-10 -2.0011685547e-10 4.5360845897e-11 1.6456335957e-10 -2.0011685547e-10 -4.9025252771e-11 6.662670642e-11 
2.2671694635e-10 2.2671694635e-10 -2.4731881471e-10 1.0305244781e-12 8.7942690233e-11 -2.4731881471e-10 -2.1016170459e-10 3.2742343931e-11 1.0431776066e-10 
-2.1016170459e-10 -2.074025084e-10 8.5274943224e-11 2.3421746518e-10 2.3421746518e-10 -3.8940707524e-10 -3.2416985291e-10 -6.2926071842e-11 -3.8940707524e-10 
-4.7913286694e-10 -1.7794816938e-10 -1.2080396369e-10 -4.7913286694e-10 -4.4372548581e-10 2.8508002583e-11 6.3815383232e-11 -4.4372548581e-10 -2.1160547359e-10 
-1.4110891594e-10 -7.8551410473e-11 -2.1160547359e-10 -1.2879795736e-10 4.8327544631e-11 2.0942961273e-10 2.0942961273e-10 -5.3748788735e-11 6.5708844973e-11 
1.9325774376e-10 1.9325774376e-10 1.9509981332e-10 2.8056699152e-10 8.2946919516e-10 8.2946919516e-10 -4.4268378648e-10 -4.0007248681e-11 6.6557835162e-11 
-4.4268378648e-10 -2.6803802996e-10 1.1526566411e-11 2.6996249355e-10 2.6996249355e-10 -1.0416330966e-10 1.0263118089e-10 3.0389442877e-10 3.0389442877e-10 
-4.4406864494e-10 -1.272440735e-10 -1.1428428156e-10 -4.4406864494e-10 1.9981429981e-10 2.4386452703e-10 5.9006917315e-10 5.9006917315e-10 -2.2742258505e-10 
9.1618077797e-12 1.1965937727e-10 -2.2742258505e-10 1.6435159559e-10 2.1289624813e-10 8.0378615627e-10 8.0378615627e-10 8.7212423611e-11 2.6998363399e-10 
4.148229424e-10 4.148229424e-10 -4.0315910107e-10 -1.8898507912e-10 -1.2681181981e-10 -4.0315910107e-10 6.5345548352e-11 2.7582371734e-10 7.3810673431e-10 
7.3810673431e-10 1.2140714551e-10 3.1134807112e-10 4.6826078337e-10 4.6826078337e-10 -3.2812311883e-10 -1.1481248111e-10 2.2284189994e-10 -3.2812311883e-10 
-2.1809078405e-10 -2.3481062146e-11 1.4412414619e-10 -2.1809078405e-10 -4.7124607136e-10 -3.7069346816e-10 -2.3575746048e-10 -4.7124607136e-10 -6.9674895108e-10 
-1.1961006931e-10 1.2602542039e-10 -6.9674895108e-10 -4.5185080842e-10 -1.3052757267e-10 1.6101458109e-10 -4.5185080842e-10 -6.8183423737e-10 1.1771728902e-10 
8.1466880535e-10 8.1466880535e-10 -2.774726758e-10 -6.2183146995e-11 1.353212228e-10 -2.774726758e-10 -2.5663810934e-10 -1.8194856374e-11 7.2485765714e-11 
-2.5663810934e-10 -1.5918845416e-10 -3.7587694926e-11 2.3684825908e-10 2.3684825908e-10 -1.7673902906e-10 1.8983594895e-10 5.3278008011e-10 5.3278008011e-10 
-8.6048654552e-12 2.3656395514e-10 3.8239491031e-10 3.8239491031e-10 2.8139207927e-10 5.9469299105e-10 9.1788792968e-10 9.1788792968e-10 -3.6586982607e-10 
-1.7433473314e-10 -3.1050440786e-11 -3.6586982607e-10 1.0296009322e-10 1.9348612752e-10 4.9837277927e-10 4.9837277927e-10 9.1089208539e-11 1.8312535685e-10 
3.0045543461e-10 3.0045543461e-10 1.7340676616e-11 9.8003220805e-11 3.1061710258e-10 3.1061710258e-10 2.9874210636e-10 4.2472110668e-10 6.6782778696e-10 
6.6782778696e-10 1.6208732424e-10 3.1262269873e-10 6.3334497703e-10 6.3334497703e-10 -2.3265113732e-10 -1.8682194767e-10 8.7360284989e-11 -2.3265113732e-10 
-4.0014051e-10 -2.1271796166e-10 -1.2535352833e-10 -4.0014051e-10 -6.1078663169e-10 -5.1394687224e-10 -2.3832549607e-10 -6.1078663169e-10 -8.0917083528e-11 
7.7260411239e-11 5.1840147229e-10 5.1840147229e-10 -2.4663333314e-10 -3.6314764758e-11 4.1908397897e-11 -2.4663333314e-10 -9.8679717774e-11 -2.1127614314e-11 
3.1076192088e-11 -9.8679717774e-11 1.3101424682e-10 2.6119464461e-10 2.8810610856e-10 2.8810610856e-10 1.4092591497e-10 1.9108232271e-10 4.0641176232e-10 
4.0641176232e-10 1.9299755552e-10 2.5973852844e-10 4.6345791604e-10 4.6345791604e-10 2.113869924e-11 1.1113089341e-10 3.2387520735e-10 3.2387520735e-10 
-1.1325922789e-10 -5.3164112964e-11 2.0072748085e-10 2.0072748085e-10 8.9640488948e-11 1.9724824469e-10 4.2712326636e-10 4.2712326636e-10 -4.2837749808e-10 
-1.5028803596e-10 -9.4545465956e-11 -4.2837749808e-10 2.4024393262e-10 3.8286147969e-10 7.0890258768e-10 7.0890258768e-10 -3.1562410267e-10 -3.7554465627e-11 
6.5084368298e-11 -3.1562410267e-10 -3.2569265508e-12 9.1607847335e-11 4.7812347922e-10 4.7812347922e-10 -1.1545820974e-10 1.421120538e-10 3.8013865594e-10 
3.8013865594e-10 -8.3590666031e-10 -3.0630836714e-10 -2.6004897255e-10 -8.3590666031e-10 1.3356273391e-10 1.9023476778e-10 4.3514449831e-10 4.3514449831e-10 
-9.068603241e-11 3.1624165665e-12 1.9264821584e-10 1.9264821584e-10 -4.5433222974e-10 2.5208091662e-11 5.9367738076e-11 -4.5433222974e-10 -8.0846469451e-11 
3.0552164136e-11 3.0139570531e-10 3.0139570531e-10 -1.2589354271e-10 -1.5710350044e-11 1.2182813276e-10 -1.2589354271e-10 -1.2959397673e-09 -5.9156095479e-10 
-5.4669327795e-10 -1.2959397673e-09 -7.9549985496e-11 -3.6715618319e-11 1.6443313381e-10 1.6443313381e-10 -1.6048207245e-09 -7.0291127255e-10 -5.4952900295e-10 
-1.6048207245e-09 2.1134492681e-10 3.1062026203e-10 4.3763981116e-10 4.3763981116e-10 -1.3693700306e-09 -4.3210558186e-10 -3.7395538753e-10 -1.3693700306e-09 
-3.274752794e-10 -9.8447116577e-11 7.7416695974e-11 -3.274752794e-10 1.1099621611e-10 2.2802110167e-10 8.5990768222e-10 8.5990768222e-10 -8.5764452054e-11 
7.7896798533e-11 2.6256885352e-10 2.6256885352e-10 -4.2912967541e-10 -1.8976626172e-10 5.5457937127e-11 -4.2912967541e-10 -3.4744082112e-11 1.0457231719e-10 
4.1964776492e-10 4.1964776492e-10 -5.0807862476e-10 -4.1030653808e-10 1.8215116284e-10 -5.0807862476e-10 -2.299299775e-10 -1.0828204386e-10 4.3742521356e-11 
-2.299299775e-10 1.417942611e-10 2.7508798743e-10 6.5261775148e-10 6.5261775148e-10 -4.3451254877e-10 -8.4941088173e-11 2.0677636946e-11 -4.3451254877e-10 
-3.1487251389e-10 -2.6443437824e-10 -1.4768107875e-11 -3.1487251389e-10 2.2692228265e-10 4.8609978083e-10 8.6800493652e-10 8.6800493652e-10 -5.2272688041e-10 
-1.6667535354e-10 -4.8767660583e-12 -5.2272688041e-10 -4.1396220315e-11 1.1102926536e-11 1.2804519378e-10 1.2804519378e-10 -2.6390143144e-11 1.0852444448e-11 
1.692024487e-10 1.692024487e-10 -1.8213813963e-10 2.7964502951e-11 1.7669352668e-10 -1.8213813963e-10 -4.4108718868e-10 -3.0842726051e-10 -9.655255081e-11 
-4.4108718868e-10 -1.3278515727e-10 -2.7584507086e-11 5.1385644354e-11 -1.3278515727e-10 -1.2678338572e-10 2.2147848935e-13 7.5864567228e-11 -1.2678338572e-10 
-1.9524805477e-11 9.8482617951e-11 3.4665668753e-10 3.4665668753e-10 -2.746863388e-10 7.5661516675e-12 3.5424638713e-10 3.5424638713e-10 -2.8978346088e-10 
7.1155630531e-11 2.9431963035e-10 2.9431963035e-10 -2.3653716619e-10 -1.5095151731e-10 5.7601983502e-11 -2.3653716619e-10 -4.339069275e-10 -1.2348215477e-10 
-3.1953917736e-11 -4.339069275e-10 4.2481422367e-11 3.2931452462e-10 1.122712053e-09 1.122712053e-09 -6.8709689702e-10 -4.8667914065e-10 -2.8239796233e-10 
-6.8709689702e-10 1.1936332607e-10 2.5859241172e-10 5.0848826221e-10 5.0848826221e-10 -6.0180984344e-10 -2.1284288817e-10 -4.6696268399e-11 -6.0180984344e-10 
-1.9084595317e-10 -1.6722097175e-11 3.9538095034e-10 3.9538095034e-10 -3.7622842602e-10 -1.4514571588e-11 3.271938976e-10 -3.7622842602e-10 -7.4592876701e-10 
-3.6941635018e-10 -1.5669588281e-10 -7.4592876701e-10 -5.7366623779e-10 -1.6699227766e-10 -4.7831484543e-11 -5.7366623779e-10 -7.4203263329e-10 -1.6543656825e-10 
1.4245720154e-10 -7.4203263329e-10 4.3902820974e-10 6.8336418681e-10 8.3112260346e-10 8.3112260346e-10 -2.0847319297e-10 -4.116784173e-11 5.7173334705e-11 
-2.0847319297e-10 -1.2007986498e-10 1.4822309525e-10 3.5011276973e-10 3.5011276973e-10 -1.9751680357e-10 -1.3567558188e-10 1.8261838545e-10 -1.9751680357e-10 
-5.5025822591e-10 -1.9865439371e-10 1.0533019962e-10 -5.5025822591e-10 1.1437176933e-10 4.0597506966e-10 9.5230316101e-10 9.5230316101e-10 -2.1537659259e-10 
-3.8373021893e-11 -1.6178551364e-13 -2.1537659259e-10 -2.0686781557e-10 -1.0168771851e-11 3.2036218742e-10 3.2036218742e-10 -6.3327426157e-10 -1.9620500374e-10 
-6.7365346923e-12 -6.3327426157e-10 -1.0136362266e-10 3.162275362e-10 6.6818008646e-10 6.6818008646e-10 -2.9329743775e-10 -3.2427663031e-11 1.1473984078e-10 
-2.9329743775e-10 8.73657401e-11 1.7363612267e-10 3.7954513723e-10 3.7954513723e-10 -2.8471005515e-11 1.6687144068e-10 2.5898106484e-10 2.5898106484e-10 
-4.0782575157e-10 -1.8505309998e-10 -6.1632148454e-11 -4.0782575157e-10 -1.2713850084e-10 3.347865097e-11 2.0537614987e-10 2.0537614987e-10 -2.2866676099e-10 
1.7030426434e-10 1.9284669664e-10 -2.2866676099e-10 4.6302906876e-11 9.2408298717e-11 3.0348379441e-10 3.0348379441e-10 3.3591504152e-10 3.9582166834e-10 
8.3415729014e-10 8.3415729014e-10 1.5071167854e-10 3.1246979186e-10 4.704475296e-10 4.704475296e-10 -9.6495701744e-10 -2.6266793413e-10 -9.6317048424e-11 
-9.6495701744e-10 -1.9936621713e-10 7.8582068444e-11 5.2358764869e-10 5.2358764869e-10 -1.0833616994e-10 3.4458887866e-11 2.9089168207e-10 2.9089168207e-10 
-1.4367451534e-09 -7.1114530793e-10 -4.9650053871e-10 -1.4367451534e-09 -5.0065549023e-11 5.5302178168e-11 1.8528837086e-10 1.8528837086e-10 -1.8888843301e-10 
-9.3815377985e-13 9.3429386789e-11 -1.8888843301e-10 -2.6699531715e-10 -1.0713521052e-10 8.0735127668e-11 -2.6699531715e-10 -2.5165105463e-10 2.411863289e-10 
2.7821887573e-10 2.7821887573e-10 -4.0322748556e-11 6.2199763848e-11 1.3190618471e-10 1.3190618471e-10 -4.2616060391e-10 -4.4379965949e-11 2.2360236985e-10 
-4.2616060391e-10 -5.872099369e-11 8.6683772206e-11 2.0778652148e-10 2.0778652148e-10 -1.504259031e-10 -3.2227228721e-11 3.5465133183e-10 3.5465133183e-10 
-4.2166932848e-10 -1.5331719674e-10 -4.561097478e-11 -4.2166932848e-10 -1.2523871931e-10 1.4065879571e-10 4.563379236e-10 4.563379236e-10 -3.2260895685e-11 
3.5269349366e-11 1.0571864632e-10 1.0571864632e-10 -6.2327928696e-11 6.5630984586e-11 1.5364604411e-10 1.5364604411e-10 -3.3889650609e-10 -2.601037574e-10 
-3.7950736506e-11 -3.3889650609e-10 4.6079025817e-11 1.3929311565e-10 3.0763585854e-10 3.0763585854e-10 1.0493404513e-10 1.5989855306e-10 3.7295840181e-10 
3.7295840181e-10 -1.017529098e-11 1.0833681343e-10 2.0602197755e-10 2.0602197755e-10 7.8304279057e-12 2.3967876999e-10 6.699458021e-10 6.699458021e-10 
2.8142898906e-11 3.5100525163e-10 4.4263384946e-10 4.4263384946e-10 -1.1516303661e-10 1.1784324852e-10 2.1701618809e-10 2.1701618809e-10 6.4461892142e-12 
7.5413358959e-11 4.3877375183e-10 4.3877375183e-10 -2.5736513143e-10 -7.2341531479e-11 -4.1870837087e-11 -2.5736513143e-10 -5.7797113687e-10 -2.0512178083e-10 
2.5790591771e-10 -5.7797113687e-10 -8.652723505e-10 -1.1370812341e-10 1.999564739e-10 -8.652723505e-10 -7.5883520054e-10 -2.8778985346e-10 -1.91967946e-10 
-7.5883520054e-10 -1.7684645142e-10 2.6462517092e-11 2.0350973433e-10 2.0350973433e-10 3.3318687089e-10 4.0608037993e-10 7.1677974918e-10 7.1677974918e-10 
-1.355131353e-11 -5.2188143428e-12 4.5622362787e-10 4.5622362787e-10 -3.2591803129e-10 -2.1475367338e-10 -1.4391729533e-10 -3.2591803129e-10 -2.1640399927e-10 
6.2133806958e-11 1.4728800231e-10 -2.1640399927e-10 -3.2692447239e-10 -1.0772439508e-10 7.9884367468e-11 -3.2692447239e-10 -3.7435687882e-10 6.5801993657e-11 
9.9997485167e-11 -3.7435687882e-10 -2.2009649333e-10 -7.797860844e-11 1.0724250177e-10 -2.2009649333e-10 -5.3646945377e-10 -4.2565056042e-10 -1.6323798581e-10 
-5.3646945377e-10 -1.8060960373e-10 -4.7623111768e-11 1.660230155e-10 -1.8060960373e-10 -8.5068543701e-11 2.1869907061e-11 1.1146733664e-10 1.1146733664e-10 
-5.6012885465e-11 6.8108563159e-11 1.3474202231e-10 1.3474202231e-10 4.1129158697e-11 7.952378762e-11 2.0903135368e-10 2.0903135368e-10 -9.1412644071e-11 
1.9150876196e-12 9.7343846452e-11 9.7343846452e-11 -1.5752206564e-10 1.450000795e-10 1.5095318614e-10 -1.5752206564e-10 6.8991666018e-11 1.2621357864e-10 
3.7607075534e-10 3.7607075534e-10 -2.8774306309e-10 -1.9435670337e-11 2.4955383343e-10 -2.8774306309e-10 1.8866718837e-10 2.3878389053e-10 5.958779211e-10 
5.958779211e-10 -2.3266566709e-10 -1.6171940493e-10 -5.1208279838e-12 -2.3266566709e-10 -1.4172732346e-10 -1.551331225e-11 1.3821652571e-10 -1.4172732346e-10 
-1.1357540151e-10 -8.0222789937e-12 1.507410705e-10 1.507410705e-10 -4.2319723498e-10 -3.7931225111e-10 -2.334035139e-10 -4.2319723498e-10 2.370546171e-10 
2.9538315694e-10 5.2169022596e-10 5.2169022596e-10 -3.0018155578e-10 -1.9692109581e-10 7.6266515915e-12 -3.0018155578e-10 -9.6217628284e-11 5.460349138e-11 
2.377712369e-10 2.377712369e-10 -1.1448060495e-10 3.690404172e-11 7.9538133227e-11 -1.1448060495e-10 -1.7342595059e-10 -7.4068973384e-11 1.9453252397e-10 
1.9453252397e-10 6.8855863393e-11 2.049682062e-10 5.7637693041e-10 5.7637693041e-10 4.9104731141e-11 1.3518845448e-10 3.7419381438e-10 3.7419381438e-10 
-8.6334549641e-10 -4.3836313392e-10 -2.9080736967e-10 -8.6334549641e-10 -8.3221918684e-11 -2.8878120336e-11 3.9204443902e-10 3.9204443902e-10 -6.9882255529e-10 
-2.682304351e-10 -2.0344500961e-10 -6.9882255529e-10 -8.9939399657e-10 -4.3012997376e-10 -2.9157502966e-10 -8.9939399657e-10 6.7012715768e-11 1.2650931691e-10 
4.6780826732e-10 4.6780826732e-10 -5.65818822e-11 1.1810495207e-10 2.2907003013e-10 2.2907003013e-10 -4.7401841835e-10 -2.4963995339e-10 -1.7754462826e-10 
-4.7401841835e-10 -2.9792156746e-10 2.6723235202e-10 4.2121041544e-10 4.2121041544e-10 -2.8202880856e-10 5.68930894e-11 2.6090260916e-10 -2.8202880856e-10 
-7.7043462603e-11 2.2032312004e-10 4.9522464256e-10 4.9522464256e-10 1.8922160403e-10 2.9662735821e-10 6.3308803775e-10 6.3308803775e-10 1.9763324678e-10 
2.9151609578e-10 7.9183365744e-10 7.9183365744e-10 1.2615791403e-10 2.4471032408e-10 3.5528676189e-10 3.5528676189e-10 1.2082346714e-11 1.5900290841e-10 
2.0534934488e-10 2.0534934488e-10 -6.6235124436e-10 -2.3457826908e-10 -1.6382248656e-10 -6.6235124436e-10 -3.5555370713e-10 -8.3905582949e-11 7.5167090076e-11 
-3.5555370713e-10 -1.5547278133e-10 3.6821744592e-11 4.8886303674e-10 4.8886303674e-10 1.7457745673e-10 2.9682912559e-10 3.5143741768e-10 3.5143741768e-10 
-4.0810781023e-10 -1.2005927886e-10 2.0895588909e-10 -4.0810781023e-10 -2.7293520909e-10 1.0890509029e-10 3.388904188e-10 3.388904188e-10 -3.8046980999e-10 
3.7817334772e-11 3.0683085521e-10 -3.8046980999e-10 -3.9587837713e-10 -1.9270780735e-10 -2.8432815521e-11 -3.9587837713e-10 3.4737166899e-10 4.8067440611e-10 
7.0088792489e-10 7.0088792489e-10 3.922669072e-10 6.1677822064e-10 9.5084487216e-10 9.5084487216e-10 -4.1866913297e-10 -1.596089439e-10 -9.8849923131e-11 
-4.1866913297e-10 -4.8523168434e-11 3.9422851497e-11 3.9297261694e-10 3.9297261694e-10 -8.5045221873e-12 9.5568381569e-11 5.3830414062e-10 5.3830414062e-10 
-1.0389894877e-09 -7.3568341482e-10 -5.1004709748e-10 -1.0389894877e-09 -1.9621313653e-10 1.8870940722e-11 3.437016958e-10 3.437016958e-10 -7.5714992007e-11 
1.3207701781e-10 3.502791742e-10 3.502791742e-10 -2.3833688753e-10 1.9332017948e-10 4.2606600805e-10 4.2606600805e-10 -5.7443804224e-10 -5.0003307151e-10 
1.0848911375e-10 -5.7443804224e-10 -6.8018516105e-10 -2.3290718541e-10 2.8772434647e-10 -6.8018516105e-10 1.6445044345e-10 5.2816013138e-10 6.4479542517e-10 
6.4479542517e-10 2.0179775381e-10 3.8667843914e-10 7.9158280705e-10 7.9158280705e-10 -1.2717467213e-10 8.6464833839e-11 3.037288383e-10 3.037288383e-10 
-1.326561424e-10 5.8583914748e-11 3.8463122766e-10 3.8463122766e-10 -8.2274137574e-10 -6.6989399144e-10 -4.2763863283e-10 -8.2274137574e-10 -9.2054334907e-11 
6.8183872254e-11 7.4577646265e-10 7.4577646265e-10 -3.5405452539e-10 3.6108946572e-11 1.6130007882e-10 -3.5405452539e-10 -4.597434487e-10 -9.6350825464e-11 
3.3296497417e-10 -4.597434487e-10 -1.0306824442e-09 -4.8230852333e-10 2.1822967524e-11 -1.0306824442e-09 -4.8105143561e-10 -3.2177801698e-10 -1.6800954742e-10 
-4.8105143561e-10 -3.1346106929e-10 -9.0982174482e-11 1.9508443775e-11 -3.1346106929e-10 -6.0444413308e-10 7.8919791883e-11 3.111987412e-10 -6.0444413308e-10 
-3.498328016e-10 -2.6026870345e-10 -1.1993949495e-10 -3.498328016e-10 -2.5720313357e-10 -8.6486564641e-11 1.4660739821e-10 -2.5720313357e-10 -3.2105280896e-10 
3.4244849237e-10 5.7285531659e-10 5.7285531659e-10 1.8175795709e-10 4.5286086579e-10 7.4832517712e-10 7.4832517712e-10 -1.8299112385e-09 -6.927669418e-10 
-5.4162581972e-10 -1.8299112385e-09 -3.5353143607e-10 -1.3970030562e-11 7.9493746664e-10 7.9493746664e-10 -2.2668422673e-10 8.2127873383e-11 2.5785135334e-10 
2.5785135334e-10 -3.3209052054e-10 -2.2218946525e-10 2.6510985786e-11 -3.3209052054e-10 -8.4251746118e-11 1.6075840835e-10 4.5308233777e-10 4.5308233777e-10 
3.1353080983e-11 1.5777399839e-10 5.8909192063e-10 5.8909192063e-10 1.9839889202e-10 3.0068891094e-10 6.0896719704e-10 6.0896719704e-10 -4.5545172236e-10 
-2.7691127072e-11 1.6347674943e-10 -4.5545172236e-10 -2.2757423194e-10 6.6539555613e-11 4.5489697633e-10 4.5489697633e-10 -4.3263984917e-10 -6.9584503083e-11 
4.6943809225e-10 4.6943809225e-10 4.251202805e-10 5.5203915381e-10 1.3532135657e-09 1.3532135657e-09 5.0990961811e-11 1.2084389132e-10 6.2004414687e-10 
6.2004414687e-10 -8.4686484819e-10 -2.233049355e-10 1.4304678369e-10 -8.4686484819e-10 -2.8420658258e-11 7.4769985659e-10 1.1841468017e-09 1.1841468017e-09 
-7.6691630603e-11 1.8518280194e-10 7.7855982867e-10 7.7855982867e-10 -2.6647259431e-10 1.8914782805e-10 5.3496675427e-10 5.3496675427e-10 1.5807249017e-10 
4.963911931e-10 5.2948531673e-10 5.2948531673e-10 -1.537171407e-09 -5.4449875987e-10 -3.9308383318e-10 -1.537171407e-09 -6.5419787413e-10 -6.3662922964e-11 
8.429338971e-10 8.429338971e-10 -1.4160784625e-09 -7.8322710656e-10 -4.9144243093e-10 -1.4160784625e-09 -5.3010375824e-11 3.3361401546e-10 1.2503283604e-09 
1.2503283604e-09 -5.6261607249e-10 2.9573161279e-10 1.4010464597e-09 1.4010464597e-09 -2.532066683e-10 2.9503331762e-10 8.1000935068e-10 8.1000935068e-10 
-5.1712107549e-10 -1.1238471469e-10 5.4632639018e-10 5.4632639018e-10 -5.7162886756e-10 -1.1611123605e-10 1.619451036e-10 -5.7162886756e-10 3.504807412e-10 
4.7388384806e-10 9.4973741074e-10 9.4973741074e-10 -3.0128781506e-10 3.5677200752e-11 4.7252861431e-10 4.7252861431e-10 -6.2374382866e-10 -1.9468499202e-10 
2.3410482067e-10 -6.2374382866e-10 -7.0629845708e-10 -3.8312673606e-10 -1.8923880686e-10 -7.0629845708e-10 -1.7678562765e-10 2.6896563612e-10 8.6034699153e-10 
8.6034699153e-10 -3.3805902209e-10 -8.6013644959e-11 1.1292436705e-10 -3.3805902209e-10 -1.2151406474e-10 -8.0076812651e-11 -3.5502322613e-11 -1.2151406474e-10 
-8.2462536823e-10 -3.7708098368e-10 7.7605351912e-11 -8.2462536823e-10 -4.4268555815e-10 8.2878336461e-11 3.7923611169e-10 -4.4268555815e-10 1.288456127e-10 
3.7608013535e-10 7.4039225194e-10 7.4039225194e-10 -4.814554134e-10 -1.1275872826e-10 3.4593504166e-10 -4.814554134e-10 -3.4086449627e-10 -1.7068205204e-10 
2.1282684831e-10 -3.4086449627e-10 -5.1681139261e-13 3.4898659831e-10 5.9535021309e-10 5.9535021309e-10 9.9408462319e-11 3.1157755875e-10 5.3101197893e-10 
5.3101197893e-10 3.9456875007e-11 8.7251144589e-11 2.928352804e-10 2.928352804e-10 -1.8051642609e-10 -1.4551671706e-10 1.3386894315e-10 -1.8051642609e-10 
-1.3863502937e-10 -5.6314792759e-12 1.4882024865e-10 1.4882024865e-10 -1.6945135161e-10 -8.460958542e-11 7.7682637033e-11 -1.6945135161e-10 7.3182889931e-11 
1.8158486057e-10 3.408492495e-10 3.408492495e-10 -3.1934797216e-10 -1.1479567901e-10 3.2910615116e-10 3.2910615116e-10 2.3071862215e-10 4.0345749402e-10 
5.5857688383e-10 5.5857688383e-10 -2.1803529716e-10 -1.2868536486e-10 6.5001962021e-11 -2.1803529716e-10 -9.6577901407e-11 1.5508872248e-10 2.3124107893e-10 
2.3124107893e-10 -1.6588162781e-10 -8.4572696613e-11 2.5504324423e-11 -1.6588162781e-10 3.4730935388e-11 7.702400462e-11 2.2916135999e-10 2.2916135999e-10 
-2.3602042792e-10 -1.0294349655e-10 5.8459024464e-11 -2.3602042792e-10 -3.9337371908e-10 -2.2680068669e-10 -8.5325942279e-12 -3.9337371908e-10 -2.4086497463e-10 
-1.4108064925e-10 5.2564723885e-11 -2.4086497463e-10 -3.6034926139e-10 -3.0745220982e-10 -2.1490528794e-11 -3.6034926139e-10 -2.2769502339e-10 -3.3933733243e-11 
1.059835663e-11 -2.2769502339e-10 -1.6178304773e-10 1.867541242e-11 1.3081276531e-10 -1.6178304773e-10 -3.6683591847e-10 -1.0476271915e-10 1.9215037613e-11 
-3.6683591847e-10 -1.1464109964e-09 -4.7586097052e-10 -3.2190903306e-10 -1.1464109964e-09 -4.7367996973e-11 1.7160495868e-10 1.8753593829e-10 1.8753593829e-10 
3.2099919557e-11 1.1628059059e-10 4.4389748985e-10 4.4389748985e-10 6.0359684508e-11 3.1485935555e-10 6.0199495994e-10 6.0199495994e-10 9.6421015363e-11 
3.2903845692e-10 5.7674852771e-10 5.7674852771e-10 9.1278550513e-11 1.7175747241e-10 2.8704497708e-10 2.8704497708e-10 4.0317100356e-10 7.4705721674e-10 
1.7956827797e-09 1.7956827797e-09 -2.2491616033e-10 -1.5667958715e-10 1.8222914748e-10 -2.2491616033e-10 8.0195283849e-11 1.5024549322e-10 4.5169622293e-10 
4.5169622293e-10 6.9276152246e-11 1.5564306296e-10 4.3478078479e-10 4.3478078479e-10 -2.5701885049e-10 -1.2402160409e-10 1.1814355458e-10 -2.5701885049e-10 
-2.7322730872e-10 -9.4226886274e-11 9.4071949958e-12 -2.7322730872e-10 -4.045532361e-10 -3.0495779388e-10 -1.0334497002e-10 -4.045532361e-10 -2.479100167e-10 
-5.0495705479e-11 7.6708222175e-11 -2.479100167e-10 2.2964404107e-10 3.7628584808e-10 8.3569511085e-10 8.3569511085e-10 6.2429513529e-11 2.8767547192e-10 
6.1246601455e-10 6.1246601455e-10 -2.5668393101e-09 -1.1478687541e-09 -8.9649293575e-10 -2.5668393101e-09 -4.3994494789e-10 -1.8264337399e-10 -1.2082667812e-10 
-4.3994494789e-10 -3.4651760248e-11 7.5145532358e-11 2.5215392789e-10 2.5215392789e-10 5.6476443357e-11 2.8075356809e-10 9.0026898856e-10 9.0026898856e-10 
-8.531058321e-10 -5.784685018e-10 -4.272246661e-10 -8.531058321e-10 -2.1177999313e-09 -8.3202591186e-10 -6.0334115689e-10 -2.1177999313e-09 -2.6776958389e-10 
-1.1275225579e-10 1.9837613967e-10 -2.6776958389e-10 -7.9305360276e-10 -4.1305506418e-10 -3.5978533306e-10 -7.9305360276e-10 -3.2635595137e-10 -8.7051910839e-12 
2.1871564246e-10 -3.2635595137e-10 -8.251835493e-10 -3.2672349541e-10 -2.7206995529e-10 -8.251835493e-10 -1.3284429537e-10 1.128052775e-11 8.8372797616e-11 
-1.3284429537e-10 1.1065044024e-10 1.5217885997e-10 2.9453769979e-10 2.9453769979e-10 1.3015053202e-10 3.8377617829e-10 6.7002128969e-10 6.7002128969e-10 
-3.5271059597e-11 2.5056939035e-10 3.2951966925e-10 3.2951966925e-10 -3.4707439187e-11 1.2534785451e-10 3.3948458467e-10 3.3948458467e-10 1.8214070675e-10 
3.7705335063e-10 8.6073494261e-10 8.6073494261e-10 -8.9723147293e-10 -5.8337173254e-10 -2.4290279453e-10 -8.9723147293e-10 -4.8588710616e-10 -8.7521435735e-11 
1.128395419e-10 -4.8588710616e-10 -3.3601422787e-10 -2.6212596381e-10 -5.6804808327e-11 -3.3601422787e-10 3.8610467624e-10 5.6459982871e-10 7.8453949505e-10 
7.8453949505e-10 6.4197246703e-11 2.0924681506e-10 3.1254493824e-10 3.1254493824e-10 -3.6127281282e-10 -1.9594468849e-12 1.5234755971e-10 -3.6127281282e-10 
-4.5867179446e-10 -1.5059441399e-10 9.5874208452e-11 -4.5867179446e-10 -3.7554362411e-10 -1.2284441318e-10 -9.3788962703e-11 -3.7554362411e-10 1.3326400431e-10 
4.2523829319e-10 8.8571170251e-10 8.8571170251e-10 -3.4343501229e-10 -9.6032098924e-11 1.2464911212e-11 -3.4343501229e-10 -1.9157527927e-10 2.9523569079e-11 
1.982204002e-10 1.982204002e-10 3.7712116288e-10 5.4530441658e-10 8.0958042054e-10 8.0958042054e-10 3.9104150573e-11 1.2100033723e-10 4.5476851219e-10 
4.5476851219e-10 -3.5647818863e-10 -2.740755113e-10 -6.6458300072e-11 -3.5647818863e-10 5.9979339329e-11 1.5818170383e-10 4.9248835684e-10 4.9248835684e-10 
-3.5177141864e-10 -1.1620278766e-10 -6.0613693695e-11 -3.5177141864e-10 -6.6635084106e-10 -3.2624464358e-10 -2.7878351536e-10 -6.6635084106e-10 -1.0937233782e-10 
7.4456207705e-11 5.3338813012e-10 5.3338813012e-10 -3.2000505026e-10 -8.4344365865e-11 -1.7318783872e-11 -3.2000505026e-10 -2.4644317643e-10 -1.5725354728e-11 
6.8533091153e-11 -2.4644317643e-10 -2.391055088e-11 1.5817201133e-10 4.6208413955e-10 4.6208413955e-10 -3.5605445728e-12 2.9391048852e-11 1.1745759572e-10 
1.1745759572e-10 -3.8399206575e-10 -1.8244807549e-10 -6.9450858768e-11 -3.8399206575e-10 -6.9920242464e-11 1.0490949095e-10 1.5013725151e-10 1.5013725151e-10 
-7.71796227e-10 -5.5394754451e-10 -3.9172722849e-10 -7.71796227e-10 -4.1759013066e-10 -2.4452683921e-10 -1.2215203013e-10 -4.1759013066e-10 -2.3322225534e-10 
-8.1930401082e-11 2.3998956418e-11 -2.3322225534e-10 -1.3762922746e-10 2.6663187428e-11 1.3828799003e-10 1.3828799003e-10 -4.4522030013e-10 -1.9570495666e-10 
-8.8321743206e-11 -4.4522030013e-10 -2.4652950714e-10 -7.2827222128e-11 -5.0854670732e-11 -2.4652950714e-10 -5.4464298688e-10 -2.2146263563e-10 -1.5086937749e-10 
-5.4464298688e-10 -4.7639013193e-10 -1.3565900843e-10 8.2170140356e-11 -4.7639013193e-10 3.6935877683e-10 5.6772849502e-10 6.6741672815e-10 6.6741672815e-10 
1.2317801371e-10 2.2216327335e-10 2.9321071294e-10 2.9321071294e-10 -2.4170945159e-10 1.4756602598e-10 4.6693532561e-10 4.6693532561e-10 9.226695173e-11 
1.9226292359e-10 3.1629112468e-10 3.1629112468e-10 -2.418456285e-10 -2.0336549629e-11 5.8178278134e-11 -2.418456285e-10 -1.8578461804e-10 -4.4048130284e-12 
1.3190293107e-10 -1.8578461804e-10 -3.1191869865e-10 -8.0152902597e-11 5.2141201242e-11 -3.1191869865e-10 -1.2650694942e-10 1.1660029774e-10 3.5465940168e-10 
3.5465940168e-10 -5.5566529987e-10 -2.1476047045e-10 -5.4087229677e-11 -5.5566529987e-10 -7.3078902639e-10 -3.6785890747e-10 -3.0387606614e-10 -7.3078902639e-10 
3.6901152627e-10 6.0095713143e-10 8.666233423e-10 8.666233423e-10 -8.8447431517e-11 -6.5725466153e-11 1.392049767e-11 -8.8447431517e-11 2.4306797506e-10 
4.8041941521e-10 8.3545460973e-10 8.3545460973e-10 5.6239996575e-10 7.2444570388e-10 1.3218133304e-09 1.3218133304e-09 -5.2004893384e-10 -2.3879234548e-10 
8.5710279316e-11 -5.2004893384e-10 -6.45782842e-10 -3.322443332e-10 -2.740968248e-10 -6.45782842e-10 6.7512752367e-11 3.0523060776e-10 9.2744743987e-10 
9.2744743987e-10 -4.919602036e-10 -7.1173062307e-11 2.0508596591e-10 -4.919602036e-10 7.2484664065e-10 7.283044409e-10 1.7136349185e-09 1.7136349185e-09 
-2.6805732417e-10 -4.7636804657e-11 1.6549342883e-10 -2.6805732417e-10 -6.5780823431e-10 -2.5254681796e-10 -1.2757394774e-10 -6.5780823431e-10 -1.2643447691e-10 
-2.4218184468e-11 1.7584952138e-10 1.7584952138e-10 -7.0598875119e-10 -2.0243222011e-10 3.5638971304e-11 -7.0598875119e-10 -1.379352662e-09 -5.7557912274e-10 
-4.6463121528e-10 -1.379352662e-09 -6.392676185e-10 -4.0336483626e-10 -2.3408954524e-10 -6.392676185e-10 -5.3233282988e-11 2.9085538194e-11 1.6622114479e-10 
1.6622114479e-10 -1.2774203709e-10 -1.4706855936e-11 7.7104093024e-11 -1.2774203709e-10 1.0996320902e-10 2.0655168726e-10 3.2800210372e-10 3.2800210372e-10 
-1.905799311e-10 -1.6574102081e-11 1.7072479318e-10 -1.905799311e-10 -5.0703226195e-10 -1.4806623344e-10 -1.5502504616e-11 -5.0703226195e-10 -6.2699144198e-10 
-2.335749567e-10 -1.6309360132e-10 -6.2699144198e-10 -9.7377261363e-11 9.9407253065e-11 2.735306083e-10 2.735306083e-10 6.5435265326e-11 1.6173948082e-10 
3.2941225386e-10 3.2941225386e-10 -2.9136121738e-10 -1.3668151896e-10 9.1072363391e-12 -2.9136121738e-10 -5.155008936e-10 -2.4795603736e-10 -7.5975069038e-11 
-5.155008936e-10 2.4634833601e-10 4.2883539954e-10 5.0439326445e-10 5.0439326445e-10 -5.9881802776e-10 -3.7082914137e-10 1.1330116913e-10 -5.9881802776e-10 
-4.5614102512e-10 -6.8082277098e-11 1.4507900222e-10 -4.5614102512e-10 -1.834937389e-11 8.6576549932e-11 2.7339792396e-10 2.7339792396e-10 -2.3924785193e-10 
3.7173247186e-11 4.8117810474e-10 4.8117810474e-10 3.3560475094e-10 5.8541196555e-10 1.1740652835e-09 1.1740652835e-09 1.2366153112e-10 2.5042613156e-10 
5.2024833732e-10 5.2024833732e-10 8.0797096809e-11 1.4902403656e-10 3.7750516663e-10 3.7750516663e-10 -2.4071467029e-10 -1.0388051008e-11 2.557864913e-10 
2.557864913e-10 -1.4505277862e-10 3.8284205095e-13 9.6791526567e-11 -1.4505277862e-10 -1.3907937079e-09 -7.5276217483e-10 -5.497811173e-10 -1.3907937079e-09 
-1.172797951e-09 -4.5043839919e-10 -2.8638064978e-10 -1.172797951e-09 -1.1517885203e-10 4.3204488156e-11 9.8446263879e-11 -1.1517885203e-10 -2.0594427474e-11 
2.1768771027e-10 8.5732961721e-10 8.5732961721e-10 3.8690955481e-11 2.572016403e-10 7.0773240422e-10 7.0773240422e-10 -1.8593432661e-10 -7.4795752709e-11 
7.7369879318e-11 -1.8593432661e-10 -2.9800495334e-10 4.0871350683e-11 2.3800906265e-10 -2.9800495334e-10 -8.1112577788e-11 3.3726711726e-11 1.3967316606e-10 
1.3967316606e-10 -2.584825133e-10 -5.9317876096e-11 2.501461894e-10 -2.584825133e-10 -4.3801053756e-10 -5.9286555914e-11 -2.6878906528e-11 -4.3801053756e-10 
2.3214946531e-10 2.9281466985e-10 6.4545286483e-10 6.4545286483e-10 5.1042528544e-10 5.622885892e-10 1.3340401254e-09 1.3340401254e-09 -3.3155785364e-10 
-9.6860175052e-11 3.346522869e-11 -3.3155785364e-10 -2.8711490096e-10 -5.9431498891e-11 5.4332699854e-11 -2.8711490096e-10 -6.2353625311e-11 1.5790682842e-10 
4.6144979689e-10 4.6144979689e-10 -1.3950742191e-09 -5.0148621852e-10 -3.3806556239e-10 -1.3950742191e-09 -1.1229329434e-10 -9.4713499432e-11 4.2667479377e-10 
4.2667479377e-10 1.5152442958e-10 3.0671009643e-10 4.9590547398e-10 4.9590547398e-10 -1.7462536621e-11 1.0988543006e-10 3.8965610656e-10 3.8965610656e-10 
-4.9068114724e-11 9.2340247016e-11 5.2775586771e-10 5.2775586771e-10 2.8213585756e-10 3.9699612482e-10 1.0528690176e-09 1.0528690176e-09 2.3844735283e-10 
3.0100608349e-10 5.2640356368e-10 5.2640356368e-10 -3.5309421206e-11 1.6603356258e-10 3.8657105863e-10 3.8657105863e-10 -6.4588915826e-11 1.6421243833e-10 
4.619934775e-10 4.619934775e-10 -6.6618022177e-10 -4.1199473225e-10 -2.0376804598e-10 -6.6618022177e-10 -9.5850833698e-10 -3.8125022145e-10 -2.9287644156e-10 
-9.5850833698e-10 -7.0810128076e-11 9.5256028308e-11 3.0815259977e-10 3.0815259977e-10 1.0011167646e-10 2.8138890363e-10 5.2892541991e-10 5.2892541991e-10 
1.3051834124e-10 1.8273353737e-10 6.0877112138e-10 6.0877112138e-10 -7.9684967931e-11 1.3266966874e-11 2.0302700106e-10 2.0302700106e-10 -1.8388119492e-10 
6.021508114e-12 1.6875240681e-10 -1.8388119492e-10 -3.076287658e-10 -1.9436575443e-10 3.2175202314e-12 -3.076287658e-10 5.7043757604e-11 2.0540506577e-10 
3.4336817663e-10 3.4336817663e-10 1.1671613249e-10 2.300445351e-10 6.1375633241e-10 6.1375633241e-10 -5.2867806567e-10 -1.0138537383e-10 -3.1546560503e-11 
-5.2867806567e-10 -1.6469142982e-10 -4.7681709888e-12 3.1517630081e-10 3.1517630081e-10 -4.2272722931e-10 -1.1559736852e-10 4.2887097832e-11 -4.2272722931e-10 
-3.8645782361e-10 -2.568084651e-10 -1.7226171129e-10 -3.8645782361e-10 -4.1717840198e-10 -3.4837426723e-10 -1.9503933079e-10 -4.1717840198e-10 -7.8988815375e-10 
-4.2346717039e-10 -2.4057467586e-10 -7.8988815375e-10 -3.7853213827e-10 -9.4386599176e-11 5.792983745e-11 -3.7853213827e-10 -2.1061732397e-10 -3.9643899813e-11 
6.1856237852e-12 -2.1061732397e-10 1.6987151259e-10 2.4315573317e-10 3.7293275423e-10 3.7293275423e-10 2.5464506864e-10 2.8551114278e-10 5.9169878857e-10 
5.9169878857e-10 -3.699699413e-10 -3.1622588565e-10 -7.7299173049e-11 -3.699699413e-10 -5.6917740698e-10 -1.6931940297e-10 -1.4090419005e-10 -5.6917740698e-10 
-2.8593279571e-10 -1.2709416365e-10 -1.0942904063e-10 -2.8593279571e-10 9.2590297193e-11 1.3264760981e-10 6.05348293e-10 6.05348293e-10 4.9740422067e-11 
1.5260609632e-10 3.9418048161e-10 3.9418048161e-10 -4.3690588207e-10 -1.805355021e-10 -1.2972061584e-10 -4.3690588207e-10 -1.594806094e-10 2.5723949465e-10 
3.9919586475e-10 3.9919586475e-10 -3.3612553374e-10 -1.9989626693e-10 -1.3646019933e-10 -3.3612553374e-10 -3.8475133053e-10 -2.0411014569e-10 -7.827852379e-11 
-3.8475133053e-10 -2.2619370469e-10 -3.6852729451e-11 1.2853861414e-10 -2.2619370469e-10 2.2392557537e-11 1.1746978363e-10 3.9746775883e-10 3.9746775883e-10 
-8.2932117976e-11 1.115034079e-10 2.9261293007e-10 2.9261293007e-10 -4.6539848647e-11 5.3868204388e-11 3.3952914426e-10 3.3952914426e-10 -5.4623731327e-10 
-2.9019774351e-10 -1.8097994323e-10 -5.4623731327e-10 -7.1804599088e-10 -1.9715702832e-10 -4.36129808e-11 -7.1804599088e-10 2.1144601365e-10 4.6170705125e-10 
5.199039351e-10 5.199039351e-10 3.080898073e-10 3.8090889302e-10 7.3356129968e-10 7.3356129968e-10 -6.1156417421e-10 -2.644750159e-10 -1.3729880989e-10 
-6.1156417421e-10 2.7849974837e-10 4.096000278e-10 1.0826202238e-09 1.0826202238e-09 -1.9265359767e-10 -3.1552823161e-11 5.1623120828e-11 -1.9265359767e-10 
-5.800594276e-10 -2.475598873e-10 -1.413966851e-10 -5.800594276e-10 3.9367619964e-10 4.4126103411e-10 1.0636307663e-09 1.0636307663e-09 -4.9917577905e-11 
1.6533103416e-10 7.6526264375e-10 7.6526264375e-10 8.3914324778e-11 1.6349261356e-10 3.4456706166e-10 3.4456706166e-10 -2.511519437e-10 -5.0174577408e-11 
9.3072621103e-11 -2.511519437e-10 1.6712545208e-10 3.9798157333e-10 9.2575697459e-10 9.2575697459e-10 -4.2313287527e-10 -1.7276780092e-10 -5.0945323811e-11 
-4.2313287527e-10 -2.8497345617e-10 -2.1446721275e-10 4.6807668915e-11 -2.8497345617e-10 -4.880472021e-10 -7.7315911746e-11 6.294311385e-11 -4.880472021e-10 
-4.2528241458e-10 -1.7993525077e-10 -7.8740334648e-11 -4.2528241458e-10 -1.3182691679e-11 2.3567025538e-10 2.866104363e-10 2.866104363e-10 -8.5662686698e-11 
-1.8796321417e-11 1.2783432812e-10 1.2783432812e-10 -2.7856399659e-11 2.5451651974e-10 5.3334387992e-10 5.3334387992e-10 -6.4785612975e-11 1.1729877406e-10 
2.9939263892e-10 2.9939263892e-10 -1.8293049158e-10 -7.5141696826e-11 1.7636698841e-10 -1.8293049158e-10 -4.1685919301e-10 -3.8593795677e-11 8.8125388689e-11 
-4.1685919301e-10 1.7523529915e-10 2.2603686114e-10 4.7333183971e-10 4.7333183971e-10 -3.0171579927e-10 -1.5854748465e-10 -1.5918716079e-11 -3.0171579927e-10 
-1.7910954962e-10 3.0840982083e-11 1.1275009754e-10 -1.7910954962e-10 -6.7590378419e-10 -3.1155878982e-10 -2.4111142599e-10 -6.7590378419e-10 -2.5482775472e-10 
-1.3642956124e-10 -6.5078684035e-11 -2.5482775472e-10 -2.4232073467e-10 -1.6099133471e-11 1.3433868143e-11 -2.4232073467e-10 -1.2802260582e-10 2.1842287511e-10 
4.0473373071e-10 4.0473373071e-10 1.0738799492e-10 2.6235673256e-10 3.5580327252e-10 3.5580327252e-10 -6.032566998e-10 -3.9344057003e-10 -2.6147673017e-10 
-6.032566998e-10 -1.8600491363e-10 8.8696256226e-11 4.6585065741e-10 4.6585065741e-10 9.9213981894e-11 2.8409332521e-10 3.536836929e-10 3.536836929e-10 
-9.4680718082e-10 -3.3081977796e-10 -2.1414804121e-10 -9.4680718082e-10 -1.2195017847e-10 -6.227821368e-11 8.2226592151e-11 -1.2195017847e-10 -1.8359692541e-10 
4.9263788144e-11 8.5674137269e-11 -1.8359692541e-10 -4.6790474006e-11 2.5943371138e-10 5.7656916263e-10 5.7656916263e-10 -5.4752395195e-10 -1.3876634109e-10 
6.054897304e-11 -5.4752395195e-10 -2.5419917117e-10 -1.6115123231e-10 -2.2710596522e-11 -2.5419917117e-10 1.7390710145e-10 3.7298696599e-10 1.1124559326e-09 
1.1124559326e-09 -2.323884971e-10 -1.174688218e-10 1.201257189e-10 -2.323884971e-10 2.2012095448e-10 3.4077566847e-10 6.2781537705e-10 6.2781537705e-10 
-1.1108145498e-10 1.5455432544e-10 3.0702832954e-10 3.0702832954e-10 1.8652270251e-10 2.3896305582e-10 5.9817424167e-10 5.9817424167e-10 5.2888577969e-11 
2.1846165955e-10 3.8118776248e-10 3.8118776248e-10 9.1958018193e-11 1.889880286e-10 3.936009532e-10 3.936009532e-10 2.2403888454e-10 3.1607363332e-10 
4.9569148214e-10 4.9569148214e-10 3.1846557463e-11 1.581045554e-10 2.9013388713e-10 2.9013388713e-10 1.27306741e-10 2.5888268305e-10 4.4491657595e-10 
4.4491657595e-10 -2.3266398999e-10 -9.8614582793e-11 -3.1331827214e-11 -2.3266398999e-10 -6.1356827741e-11 2.0105961586e-11 2.3354476616e-10 2.3354476616e-10 
-3.1136177867e-10 -3.8024753439e-11 2.1733113211e-10 -3.1136177867e-10 -2.1357355197e-10 -1.8725629291e-10 1.0341164488e-10 -2.1357355197e-10 -4.2401585532e-10 
-2.5503685487e-10 -1.6337228981e-10 -4.2401585532e-10 1.0094756101e-10 1.3115441316e-10 2.6463602583e-10 2.6463602583e-10 -2.7209143704e-11 6.3317511458e-11 
1.6555343225e-10 1.6555343225e-10 -8.2470107433e-11 -2.8990260419e-12 1.7123800347e-10 1.7123800347e-10 -1.5156339116e-11 2.2642791842e-11 2.7666164727e-10 
2.7666164727e-10 -1.4674743334e-10 -8.9559578057e-12 4.7716791142e-11 -1.4674743334e-10 1.871206143e-10 2.0021538929e-10 4.3388299641e-10 4.3388299641e-10 
-3.4259113951e-11 4.5371989439e-12 1.6147421501e-10 1.6147421501e-10 3.1089053133e-11 7.5687033338e-11 3.8613991353e-10 3.8613991353e-10 -9.022338553e-11 
-4.510948188e-11 1.8147647741e-10 1.8147647741e-10 -2.6980597978e-10 -2.1813307825e-10 1.8002058026e-11 -2.6980597978e-10 -9.3807054424e-10 -4.6737224999e-10 
-3.3327120577e-10 -9.3807054424e-10 5.4204464761e-11 6.5043484061e-11 3.2258605118e-10 3.2258605118e-10 -2.5640819874e-10 -7.6004459681e-11 -1.7307141575e-11 
-2.5640819874e-10 6.2810328927e-11 2.2058485297e-10 6.7347781811e-10 6.7347781811e-10 4.732632654e-10 7.5011410046e-10 1.0172986341e-09 1.0172986341e-09 
2.2358164247e-10 3.7187124744e-10 4.741641101e-10 4.741641101e-10 -7.9808358985e-11 1.4440857195e-11 1.8032130179e-10 1.8032130179e-10 -1.0591261174e-10 
-1.8212351451e-11 4.4021796319e-10 4.4021796319e-10 7.9463873805e-11 2.860439302e-10 6.35688196e-10 6.35688196e-10 -5.20406203e-10 -2.4090901343e-10 
-9.2341783574e-11 -5.20406203e-10 -1.4169945235e-10 -5.0443634011e-11 4.8855371361e-11 -1.4169945235e-10 -6.6321987041e-10 -3.1811173575e-10 -2.5604739385e-10 
-6.6321987041e-10 -3.5847957951e-11 1.155516514e-10 3.2283850655e-10 3.2283850655e-10 -2.0296765826e-11 5.5481333418e-11 9.1103332408e-11 9.1103332408e-11 
-4.5559082496e-10 3.3085135216e-10 5.702965728e-10 5.702965728e-10 2.3122228763e-10 4.4792648038e-10 1.145525232e-09 1.145525232e-09 -4.6667323693e-10 
-2.7447052974e-10 -1.9268233333e-11 -4.6667323693e-10 1.04716498e-10 2.4674340598e-10 4.8388909602e-10 4.8388909602e-10 -3.245978646e-10 -1.3974461552e-10 
-1.0565251988e-10 -3.245978646e-10 -1.0369776405e-10 -7.4475423632e-12 3.3724921641e-10 3.3724921641e-10 7.6973693642e-12 7.9313952079e-11 2.3866567856e-10 
2.3866567856e-10 -4.46067824e-10 -1.2993736628e-10 -1.1736380973e-10 -4.46067824e-10 -4.9520937672e-10 -1.8717320057e-10 4.7604577288e-11 -4.9520937672e-10 
9.0367786997e-11 1.5933685079e-10 2.9673336221e-10 2.9673336221e-10 -1.6097433669e-09 -5.462163784e-10 -3.0999325468e-10 -1.6097433669e-09 1.9702867717e-10 
2.847166778e-10 4.4234164503e-10 4.4234164503e-10 -2.8284728738e-10 -2.5466163318e-10 -8.8793079433e-11 -2.8284728738e-10 -2.7229799595e-11 9.297934606e-11 
1.7802275354e-10 1.7802275354e-10 1.1506162029e-11 9.426585809e-11 4.6700727988e-10 4.6700727988e-10 -5.1459653018e-10 -2.5441020246e-10 1.1886732637e-11 
-5.1459653018e-10 -1.6363382495e-10 -4.6600417434e-11 9.0017942387e-11 -1.6363382495e-10 1.0510110361e-10 2.0399077898e-10 2.7911811741e-10 2.7911811741e-10 
1.2474681496e-10 3.586138076e-10 4.0255137743e-10 4.0255137743e-10 9.2408883545e-11 2.7342929808e-10 7.9892381837e-10 7.9892381837e-10 -1.8209357294e-10 
6.460083393e-11 1.0899256901e-10 -1.8209357294e-10 -4.4673428119e-10 -2.0046900975e-10 3.0092790942e-11 -4.4673428119e-10 2.5497102049e-10 2.9989361396e-10 
6.0500036556e-10 6.0500036556e-10 -2.1996325909e-10 8.3678692802e-11 3.5335976629e-10 3.5335976629e-10 -2.3494560608e-10 4.0841778352e-11 2.6741842772e-10 
2.6741842772e-10 -5.4368208291e-11 6.2668927738e-11 3.2388748055e-10 3.2388748055e-10 -1.2751917336e-10 1.4516457874e-10 3.6225889463e-10 3.6225889463e-10 
2.3481140584e-10 4.3905639524e-10 7.7146019892e-10 7.7146019892e-10 -2.9723447833e-10 -1.1802999569e-10 -5.8619425976e-11 -2.9723447833e-10 -3.6906144347e-11 
8.2499950122e-11 2.7003889423e-10 2.7003889423e-10 -5.5273279356e-11 1.7611606918e-10 5.7090721017e-10 5.7090721017e-10 -2.8187602917e-10 -6.799621279e-11 
9.2006041962e-11 -2.8187602917e-10 -2.7910902066e-10 -5.9613527702e-11 8.0480148361e-11 -2.7910902066e-10 -1.893633396e-10 1.0595568178e-10 3.2331955782e-10 
3.2331955782e-10 9.1671312192e-11 1.5083795858e-10 4.3838572923e-10 4.3838572923e-10 -2.5220479052e-11 1.6937775762e-11 3.337841329e-11 3.337841329e-11 
9.1035100092e-11 2.8062175552e-10 7.3280914439e-10 7.3280914439e-10 -4.3851552228e-11 3.9984592319e-11 1.5201215991e-10 1.5201215991e-10 -5.7846250079e-10 
-2.0116968384e-10 -1.2147081537e-10 -5.7846250079e-10 3.5129086336e-10 4.9089027117e-10 6.9100186546e-10 6.9100186546e-10 -7.5910231668e-10 -2.476541057e-10 
-2.8873577622e-11 -7.5910231668e-10 7.9442702926e-11 1.5338342021e-10 4.6005687686e-10 4.6005687686e-10 -2.1284643583e-10 4.1414620003e-12 5.2178181383e-10 
5.2178181383e-10 -2.3052807347e-10 -1.4583550755e-10 9.5598581017e-11 -2.3052807347e-10 -7.4120759589e-12 9.2365321409e-12 2.1803614382e-10 2.1803614382e-10 
-3.0889438003e-10 1.3428065055e-10 6.3856540548e-10 6.3856540548e-10 -3.5758635214e-11 -1.2903321292e-11 5.6728416505e-11 5.6728416505e-11 -5.153996226e-10 
-1.7154934124e-10 -5.8289036152e-11 -5.153996226e-10 -2.5841812356e-10 -4.2621574776e-12 2.6334213103e-10 2.6334213103e-10 -1.5979678004e-10 -7.3310234061e-11 
4.5662214106e-11 -1.5979678004e-10 -7.6136741201e-10 -3.0956680977e-10 -7.9707778224e-11 -7.6136741201e-10 -2.6825585563e-10 -1.3255866854e-10 2.8455624179e-11 
-2.6825585563e-10 -2.0509932791e-10 -1.3477510522e-10 1.4081488313e-10 -2.0509932791e-10 3.4716280514e-11 6.6670730994e-11 4.5728098849e-10 4.5728098849e-10 
1.1581738383e-10 2.2902612153e-10 6.0390849464e-10 6.0390849464e-10 5.8532133716e-10 6.3890716521e-10 1.4829504976e-09 1.4829504976e-09 -1.0806479242e-10 
9.0248326005e-13 2.1159220916e-10 2.1159220916e-10 1.7166499078e-10 2.9925834816e-10 6.1855266106e-10 6.1855266106e-10 -3.5526148668e-10 -1.321814206e-10 
-8.498209272e-11 -3.5526148668e-10 -2.7095854037e-10 -1.2488453859e-10 8.7225789596e-12 -2.7095854037e-10 3.9138176413e-10 6.2547329553e-10 8.2087694034e-10 
8.2087694034e-10 -2.3542416907e-10 -1.1008861363e-10 2.0321382702e-11 -2.3542416907e-10 -4.9605541929e-10 -3.168806115e-10 -2.3330996921e-10 -4.9605541929e-10 
-2.8236261533e-10 -2.7757050617e-11 1.8796006594e-10 -2.8236261533e-10 -8.2196769995e-11 5.6098540151e-11 2.9033162984e-10 2.9033162984e-10 1.7943473029e-10 
2.2466458615e-10 5.4888868356e-10 5.4888868356e-10 9.9606285931e-11 1.7062656553e-10 5.2141914854e-10 5.2141914854e-10 1.7918022157e-10 3.5616420399e-10 
5.4915357443e-10 5.4915357443e-10 -2.2911188396e-10 5.7820512202e-12 1.1108253274e-10 -2.2911188396e-10 -1.0851573258e-10 -7.7916129877e-11 9.7989862456e-11 
-1.0851573258e-10 -5.2341473799e-10 -1.9070709292e-10 5.3138309105e-12 -5.2341473799e-10 2.8551716555e-10 3.2067113e-10 7.7288470445e-10 7.7288470445e-10 
2.5298504521e-11 1.3030934055e-10 2.9732915493e-10 2.9732915493e-10 1.2644889332e-10 1.7308602599e-10 2.7458908069e-10 2.7458908069e-10 -4.26506941e-11 
9.2104590373e-11 2.4343730373e-10 2.4343730373e-10 -3.0068495682e-10 -9.0296756594e-11 4.5889534097e-12 -3.0068495682e-10 -1.6512503494e-10 -6.0117242949e-12 
8.9778259232e-11 -1.6512503494e-10 2.3245496745e-10 2.5857828835e-10 5.411267442e-10 5.411267442e-10 -3.240143017e-12 1.4252368718e-10 2.1237985583e-10 
2.1237985583e-10 -7.2568851749e-11 8.2560660215e-11 3.5405689153e-10 3.5405689153e-10 -1.9495369737e-10 -2.8555916206e-11 6.3706813572e-11 -1.9495369737e-10 
-9.727853763e-10 -2.9625040277e-10 -2.4496222093e-10 -9.727853763e-10 -1.5928659608e-10 4.8959492836e-12 1.789191868e-10 1.789191868e-10 -9.4855057828e-11 
1.1143390194e-10 3.0946295589e-10 3.0946295589e-10 -1.2136940587e-11 1.1569269622e-10 6.1701324436e-10 6.1701324436e-10 -1.1421481965e-10 7.1478606405e-11 
1.0324911325e-10 -1.1421481965e-10 -3.6173822508e-10 -1.6213708525e-10 -1.1565868967e-10 -3.6173822508e-10 -1.1551672691e-09 -6.5907914711e-10 -5.0941658376e-10 
-1.1551672691e-09 -2.5350572087e-10 -3.6321276311e-11 3.8393579718e-10 3.8393579718e-10 -3.9253845326e-10 -1.1159333052e-10 -1.8931216212e-11 -3.9253845326e-10 
-9.2168580562e-11 -5.1035025745e-11 9.3720606307e-11 9.3720606307e-11 -5.9357346291e-10 -3.0605011106e-10 -1.5044742603e-10 -5.9357346291e-10 -1.0265791153e-10 
4.6426321791e-11 1.9891268974e-10 1.9891268974e-10 -2.8005932676e-10 -1.658840429e-11 1.6975273105e-10 -2.8005932676e-10 -8.7364005282e-10 2.1688550701e-12 
1.9789499775e-10 -8.7364005282e-10 6.6822765517e-11 2.9637749899e-10 6.5577573549e-10 6.5577573549e-10 -3.1423167763e-10 -6.7977439254e-11 8.2882316882e-11 
-3.1423167763e-10 -7.7443583878e-10 -4.3056692446e-10 -1.7790523676e-10 -7.7443583878e-10 -1.0561306319e-09 -5.6885993497e-10 -2.3223643313e-10 -1.0561306319e-09 
-2.3839759425e-10 -8.7013611117e-11 -3.4575694631e-11 -2.3839759425e-10 -3.7387253416e-10 -1.7247998806e-10 -3.6514477784e-11 -3.7387253416e-10 -7.1268250952e-10 
-3.7505349775e-10 -1.4316499273e-10 -7.1268250952e-10 5.4477584178e-11 9.4627076546e-11 3.1487083928e-10 3.1487083928e-10 -6.0464853274e-10 -4.0440457746e-10 
-7.6941889807e-11 -6.0464853274e-10 8.152643094e-11 1.6118232521e-10 2.8882624385e-10 2.8882624385e-10 1.0073949253e-10 1.9589336741e-10 5.5581114007e-10 
5.5581114007e-10 1.0085947125e-10 1.463183938e-10 2.7972113495e-10 2.7972113495e-10 9.7894752984e-11 5.0509279196e-10 6.0605645505e-10 6.0605645505e-10 
4.7458672249e-11 3.1472267173e-10 3.3825265602e-10 3.3825265602e-10 1.3744321484e-10 3.1771340185e-10 4.7095438331e-10 4.7095438331e-10 -6.3665832591e-10 
-3.5498184815e-10 4.4937174064e-11 -6.3665832591e-10 -1.0484872381e-10 -1.3973242161e-12 4.7782404802e-10 4.7782404802e-10 -8.2094872514e-11 8.1549016253e-11 
2.0236365626e-10 2.0236365626e-10 -1.9492316961e-10 2.555777247e-11 2.4890239714e-10 2.4890239714e-10 -8.7742656807e-11 6.2959863309e-11 3.152223935e-10 
3.152223935e-10 -6.166755814e-10 -5.2124269849e-10 -9.0407720111e-11 -6.166755814e-10 3.9709776015e-11 9.6690128202e-11 1.2589049578e-10 1.2589049578e-10 
5.3322632684e-11 1.9280645583e-10 3.7084891149e-10 3.7084891149e-10 -5.5754797055e-10 -3.6828251761e-10 -1.6785551183e-10 -5.5754797055e-10 2.4160334669e-10 
2.9585694561e-10 5.6104470769e-10 5.6104470769e-10 -3.5076351005e-10 -1.1482774665e-10 2.990101567e-10 -3.5076351005e-10 -2.4616299589e-10 -1.312441338e-10 
3.1800296898e-12 -2.4616299589e-10 -8.4534775865e-11 4.7966146219e-11 1.2201161965e-10 1.2201161965e-10 -3.3424775556e-10 1.1321529323e-10 3.9523026233e-10 
3.9523026233e-10 -3.0681775508e-10 -1.7344871352e-10 1.386417686e-10 -3.0681775508e-10 -4.2823649247e-10 -1.4988282185e-10 -1.3224968568e-10 -4.2823649247e-10 
-1.3110749492e-10 1.9703686334e-10 3.5381593158e-10 3.5381593158e-10 -6.5088341076e-10 -1.6312001122e-10 -1.0811157802e-10 -6.5088341076e-10 -7.7120591009e-10 
-3.6969400969e-10 -3.1991008022e-10 -7.7120591009e-10 -5.1365005549e-10 -1.4034955486e-10 1.6803451035e-10 -5.1365005549e-10 1.1808553508e-10 4.3603590756e-10 
8.7754555736e-10 8.7754555736e-10 -3.7810506408e-11 7.3604011166e-11 4.0044649524e-10 4.0044649524e-10 3.1939429464e-10 5.0588378066e-10 1.2089839247e-09 
1.2089839247e-09 -4.4000868792e-10 -1.5887630674e-10 -9.1145005333e-11 -4.4000868792e-10 -1.2200613106e-10 3.1034119136e-11 3.2275231193e-10 3.2275231193e-10 
1.3598076905e-10 2.431045424e-10 3.2559168854e-10 3.2559168854e-10 -3.0325775271e-10 -1.5290065671e-10 -2.1428190576e-11 -3.0325775271e-10 -3.6414003739e-10 
8.6575057656e-11 1.9960657973e-10 -3.6414003739e-10 -1.1028876203e-10 8.0406816322e-11 3.0726434571e-10 3.0726434571e-10 -1.1284686242e-10 8.8399904672e-11 
3.9706541875e-10 3.9706541875e-10 -7.0524381281e-10 -4.9453730635e-11 1.6126544345e-10 -7.0524381281e-10 -1.8050358707e-10 -2.8944404746e-11 9.7974691819e-11 
-1.8050358707e-10 5.0766362728e-11 3.4217280014e-10 9.2944083713e-10 9.2944083713e-10 -2.7322778401e-10 -4.7050243987e-11 1.50385028e-10 -2.7322778401e-10 
-1.7731141515e-10 5.4514303184e-11 1.6992731197e-10 -1.7731141515e-10 -1.7588291528e-10 2.6724576344e-10 6.2469815185e-10 6.2469815185e-10 2.4507305026e-10 
4.2339998178e-10 4.9143196797e-10 4.9143196797e-10 1.2922021098e-10 1.6308595113e-10 3.8600483789e-10 3.8600483789e-10 -1.5381428334e-10 1.1935336003e-10 
9.3846472331e-10 9.3846472331e-10 -3.3752653655e-10 -1.8628937965e-10 -4.4148083807e-11 -3.3752653655e-10 -1.144150542e-10 -4.2619924789e-11 2.2428807899e-10 
2.2428807899e-10 -3.0878844328e-10 -1.756700059e-10 1.5063464918e-10 -3.0878844328e-10 -2.8175456708e-10 -8.4134095184e-11 1.7393454227e-10 -2.8175456708e-10 
-3.8464317495e-10 -1.4156012485e-10 5.13002998e-11 -3.8464317495e-10 -3.2076775771e-10 -2.5262615082e-10 -1.4650309147e-10 -3.2076775771e-10 -1.8488431979e-10 
3.807689031e-11 3.8624642948e-10 3.8624642948e-10 5.4493937578e-11 2.2197639808e-10 6.2641366434e-10 6.2641366434e-10 -2.9446855261e-10 9.8723161521e-11 
1.8382289109e-10 -2.9446855261e-10 -1.5093366686e-10 -4.3190450542e-12 2.1886331191e-10 2.1886331191e-10 -2.0985172533e-10 1.0367207795e-10 1.3631650738e-10 
-2.0985172533e-10 -8.5339013549e-11 6.1487045401e-11 1.9871206815e-10 1.9871206815e-10 1.6287380536e-10 2.754635658e-10 5.4670862884e-10 5.4670862884e-10 
3.735278343e-11 3.9877287082e-10 4.7703234575e-10 4.7703234575e-10 -1.4804548653e-10 9.1177513068e-11 3.7046297346e-10 3.7046297346e-10 -5.9075414708e-10 
-2.9130858746e-10 -1.4552126546e-10 -5.9075414708e-10 -2.4006241092e-10 -1.6974780402e-10 2.7304514945e-11 -2.4006241092e-10 -5.2572332869e-10 -2.8931946871e-10 
-1.225882026e-10 -5.2572332869e-10 -2.0187341039e-10 -4.4941706541e-11 1.0308511693e-10 -2.0187341039e-10 3.0551499484e-11 1.2421639667e-10 2.4511220384e-10 
2.4511220384e-10 -4.2225692514e-10 -8.4436434012e-11 2.6490099148e-11 -4.2225692514e-10 -5.370455403e-10 -1.358753669e-10 5.9789157191e-11 -5.370455403e-10 
-7.7338990075e-10 -4.2185482635e-10 -2.218512729e-10 -7.7338990075e-10 -9.8646927219e-11 9.760183912e-11 1.285472581e-10 1.285472581e-10 -6.1522162858e-10 
-1.362553649e-10 1.2390187347e-10 -6.1522162858e-10 -5.0505864201e-10 -2.79249145e-10 -9.5878212987e-11 -5.0505864201e-10 -1.1978065578e-10 -4.5063913445e-11 
1.2504259221e-11 -1.1978065578e-10 -8.4945741933e-11 2.3232429937e-10 5.7448044256e-10 5.7448044256e-10 -2.4530927465e-10 -1.3917171078e-10 5.4695598543e-10 
5.4695598543e-10 -9.7548879006e-10 -3.8056323036e-10 -9.1805979574e-11 -9.7548879006e-10 -2.7685343097e-10 6.6474453603e-12 4.9202185607e-11 -2.7685343097e-10 
-1.6949367315e-09 -6.7371392227e-10 -5.4538034628e-10 -1.6949367315e-09 -1.7074655927e-11 3.9094028535e-12 4.0183573074e-11 4.0183573074e-11 -1.4047539626e-10 
-3.2215049224e-11 2.3024854549e-10 2.3024854549e-10 -1.7000918219e-10 -4.5651287392e-11 6.4114969585e-11 -1.7000918219e-10 -4.9609827242e-10 -8.1095712821e-11 
-4.2622914756e-11 -4.9609827242e-10 -2.3215691876e-10 -1.0505008726e-10 -2.4743193975e-11 -2.3215691876e-10 1.0441849321e-10 2.7703540961e-10 5.4316409718e-10 
5.4316409718e-10 -1.2068130552e-09 -5.1385852606e-10 -3.6353341875e-10 -1.2068130552e-09 -1.1735605653e-10 -7.422907738e-12 1.1810032426e-10 1.1810032426e-10 
-5.2596320417e-10 -8.4962123165e-11 1.8136392733e-10 -5.2596320417e-10 -3.9659231338e-10 -1.2649693885e-10 -1.9098747769e-11 -3.9659231338e-10 -2.044246861e-10 
-2.2484632044e-14 1.9169701073e-10 -2.044246861e-10 3.0883446929e-10 4.9323037862e-10 9.5108915209e-10 9.5108915209e-10 1.4451951283e-10 3.2395136633e-10 
7.4862812084e-10 7.4862812084e-10 -5.0925698286e-10 -2.5641906843e-10 -1.7565394871e-10 -5.0925698286e-10 -1.3039715949e-10 1.7869411761e-11 3.5174594773e-10 
3.5174594773e-10 1.4930088906e-10 4.19399934e-10 9.3108917694e-10 9.3108917694e-10 -2.3066286199e-10 -1.2449705409e-10 -7.6745839219e-12 -2.3066286199e-10 
-2.0437655432e-10 -4.7960359219e-11 1.5428211354e-10 -2.0437655432e-10 -2.8507042923e-10 6.5521657171e-11 1.7067297206e-10 -2.8507042923e-10 -4.193016768e-10 
-6.7702659925e-11 1.3072693672e-10 -4.193016768e-10 -2.0291266707e-10 -9.9398824876e-11 9.785091944e-12 -2.0291266707e-10 -3.4113508068e-10 -7.8285830281e-11 
-2.2587089038e-11 -3.4113508068e-10 2.4402273723e-12 2.5625769102e-10 3.1178208161e-10 3.1178208161e-10 -4.8937369915e-10 -2.5892138354e-10 -1.4148791731e-10 
-4.8937369915e-10 -3.4238199849e-11 2.4439033129e-10 4.6350746856e-10 4.6350746856e-10 7.4895722789e-11 1.4639491098e-10 3.4481936623e-10 3.4481936623e-10 
-1.4935218198e-10 -4.6633017892e-11 7.6376099873e-11 -1.4935218198e-10 -2.020261593e-10 -3.0260335717e-11 2.4607754501e-10 2.4607754501e-10 -9.0999804308e-11 
1.6619326753e-10 3.2552763678e-10 3.2552763678e-10 -6.5948407085e-10 -6.0177533474e-10 -3.5953659441e-10 -6.5948407085e-10 -5.8963682248e-10 -2.7012084603e-10 
1.2544866851e-10 -5.8963682248e-10 -1.8306155481e-11 8.5239358311e-11 2.4490049717e-10 2.4490049717e-10 2.589671719e-11 1.9860064269e-10 3.9054864012e-10 
3.9054864012e-10 -1.2903501543e-10 -4.2908140113e-11 3.7675955538e-11 -1.2903501543e-10 -1.092652986e-10 -1.3092190213e-11 3.3672958882e-10 3.3672958882e-10 
-4.2680242989e-10 -4.9505635079e-11 2.3253596497e-10 -4.2680242989e-10 -1.2014527131e-10 4.09036116e-10 9.1165315532e-10 9.1165315532e-10 3.1895059378e-10 
4.6868044286e-10 9.3243396336e-10 9.3243396336e-10 -3.7305876107e-10 6.4081166865e-11 1.822041942e-10 -3.7305876107e-10 -1.464846229e-10 1.9364207854e-10 
4.8325154436e-10 4.8325154436e-10 -2.8935264744e-10 -1.4163786916e-10 -8.6304483395e-11 -2.8935264744e-10 -5.152198927e-10 -2.4247800424e-10 -8.6548103064e-11 
-5.152198927e-10 -3.3130799097e-10 -9.6448945267e-11 5.3629136234e-11 -3.3130799097e-10 4.9722432737e-11 2.3659023812e-10 2.9078732915e-10 2.9078732915e-10 
2.3077023385e-10 2.7715099159e-10 5.7438977456e-10 5.7438977456e-10 -2.9830972964e-10 -2.2230361328e-10 -8.1682657085e-11 -2.9830972964e-10 -1.8811682828e-10 
-7.8214668587e-11 2.4055131687e-10 2.4055131687e-10 -3.7297625507e-11 2.4403319683e-10 4.6465342868e-10 4.6465342868e-10 -3.9529035044e-10 -1.6638298437e-10 
1.0339348481e-10 -3.9529035044e-10 -1.4985228297e-10 3.0841797683e-11 1.2265335928e-10 -1.4985228297e-10 -2.1337065771e-10 -3.9313805449e-11 1.3319696316e-10 
-2.1337065771e-10 -2.1524406238e-10 -4.6496629935e-11 6.7754992315e-11 -2.1524406238e-10 -1.0734429366e-10 3.9951086959e-11 2.3580821671e-10 2.3580821671e-10 
-2.6086345635e-10 1.1177174165e-10 2.3579351469e-10 -2.6086345635e-10 -3.8250202755e-10 8.5952299747e-11 2.8489246781e-10 -3.8250202755e-10 -4.1958092023e-10 
-2.0957278952e-10 -1.1035929025e-10 -4.1958092023e-10 1.478600193e-11 1.5026825889e-10 4.2774823918e-10 4.2774823918e-10 -3.8593670012e-10 -3.0029276958e-11 
2.1692997708e-10 -3.8593670012e-10 -7.0106147685e-10 -3.450030065e-10 -2.7211251665e-10 -7.0106147685e-10 2.4055037851e-10 2.5889187411e-10 6.1837374738e-10 
6.1837374738e-10 -8.2419809544e-10 -4.3098503482e-10 -9.0571869744e-11 -8.2419809544e-10 -4.0863244599e-10 -1.7264007647e-10 -1.6674047754e-10 -4.0863244599e-10 
-1.7487490774e-10 -1.2890227764e-10 -7.46491462e-12 -1.7487490774e-10 1.2840207569e-10 3.1484592155e-10 6.5040900275e-10 6.5040900275e-10 -5.0215117052e-10 
-4.1036990828e-11 2.0595776135e-10 -5.0215117052e-10 -7.4464578951e-10 -1.3086975953e-10 -3.0342509614e-12 -7.4464578951e-10 2.3165668654e-11 1.1930608244e-10 
2.954882489e-10 2.954882489e-10 -1.8802529289e-10 3.4585086001e-11 1.4028523689e-10 -1.8802529289e-10 1.7041519854e-10 2.1954478217e-10 5.741990193e-10 
5.741990193e-10 -4.2718885914e-10 -2.1208688659e-10 -2.242354266e-12 -4.2718885914e-10 2.5401951124e-10 4.5655591588e-10 9.5215657288e-10 9.5215657288e-10 
6.868966083e-11 7.0104315763e-11 3.4692922341e-10 3.4692922341e-10 -3.3205295374e-10 -1.0327581147e-10 -7.489234789e-12 -3.3205295374e-10 -6.2541538994e-10 
-4.7374937592e-10 -2.5316823414e-10 -6.2541538994e-10 -8.4072317656e-10 -4.206996461e-10 -2.4538017735e-10 -8.4072317656e-10 5.9998000961e-11 1.2763962849e-10 
3.3425937055e-10 3.3425937055e-10 2.2919637595e-10 3.5703144065e-10 4.857011834e-10 4.857011834e-10 -8.4786717118e-10 -5.0478016644e-10 -3.8889566238e-10 
-8.4786717118e-10 -4.189920061e-10 -1.6993620154e-10 7.6229076411e-12 -4.189920061e-10 1.2854627647e-10 3.0523575604e-10 5.5263996749e-10 5.5263996749e-10 
-1.0018595355e-10 -6.43988927e-11 2.8939646248e-11 -1.0018595355e-10 -3.2940343309e-10 -7.6845060739e-11 2.7384893826e-11 -3.2940343309e-10 -2.5360825951e-10 
-6.0530255751e-11 -3.7499184742e-11 -2.5360825951e-10 -7.2757041169e-10 -3.8253163324e-10 -2.9142895507e-10 -7.2757041169e-10 6.6953028402e-11 1.6007152523e-10 
1.9037694637e-10 1.9037694637e-10 -2.3866254098e-10 -4.5766607595e-11 1.2612824858e-10 -2.3866254098e-10 -2.7254892784e-10 -1.6614012725e-10 -3.8532944906e-11 
-2.7254892784e-10 -4.9781538727e-10 -1.9834858455e-10 1.0104247182e-10 -4.9781538727e-10 -2.6399811049e-10 -1.1936355742e-11 1.0529256623e-10 -2.6399811049e-10 
-1.577333491e-10 1.2001725478e-10 2.9901279433e-10 2.9901279433e-10 8.329938978e-11 3.2411615512e-10 4.979464551e-10 4.979464551e-10 -5.549187826e-11 
6.0983492699e-11 3.0515028556e-10 3.0515028556e-10 9.1760534324e-11 2.6628194914e-10 6.2983151653e-10 6.2983151653e-10 -9.9398654265e-11 1.8838538337e-10 
3.2812737089e-10 3.2812737089e-10 -2.1503387071e-10 -1.2269994836e-10 2.5848190736e-12 -2.1503387071e-10 -5.4304919203e-10 -3.1173134659e-10 4.6714538617e-11 
-5.4304919203e-10 1.0039199323e-10 2.7456083761e-10 6.4896816916e-10 6.4896816916e-10 -1.61562453e-10 -2.5479569702e-11 4.4968122704e-11 -1.61562453e-10 
-7.7694945286e-10 -4.7930373107e-12 3.626849017e-11 -7.7694945286e-10 1.6361820523e-10 2.70212749e-10 3.3648104577e-10 3.3648104577e-10 -3.1298034255e-10 
-1.1417692161e-10 6.7033641596e-12 -3.1298034255e-10 2.7293528071e-10 3.9349689222e-10 9.1520082707e-10 9.1520082707e-10 -7.1339426329e-10 -1.7420974136e-10 
1.1894800465e-10 -7.1339426329e-10 -1.4518308924e-10 -1.885010867e-11 4.8300397908e-11 -1.4518308924e-10 -4.3359578779e-10 -1.0832099091e-10 -1.4963821305e-11 
-4.3359578779e-10 -9.4766525084e-10 -3.3024116462e-10 -2.2297658455e-10 -9.4766525084e-10 -2.6877500947e-10 1.2786203266e-11 3.0471280621e-10 3.0471280621e-10 
-5.6712048492e-10 -2.4498601627e-10 -1.7398649881e-10 -5.6712048492e-10 1.8201140589e-12 1.5844486896e-10 1.7949781698e-10 1.7949781698e-10 9.0019867937e-11 
2.5897081244e-10 8.1868631962e-10 8.1868631962e-10 -5.890472567e-10 5.5343983689e-11 9.2454773013e-11 -5.890472567e-10 7.3217565692e-11 2.5074782221e-10 
3.6750561209e-10 3.6750561209e-10 -2.2826628206e-10 -1.6696033721e-12 1.8257808543e-10 -2.2826628206e-10 -6.3694956959e-11 6.2285067649e-11 1.3158329931e-10 
1.3158329931e-10 -3.8113271256e-11 4.1482287393e-11 2.1355058386e-10 2.1355058386e-10 -2.4620747467e-10 -6.0355561951e-11 6.3812336617e-11 -2.4620747467e-10 
-5.3456439529e-10 -2.7451391845e-10 -5.1951686259e-11 -5.3456439529e-10 2.578091485e-10 2.9137751674e-10 7.0527833476e-10 7.0527833476e-10 -3.0169996387e-10 
-6.5852000648e-11 9.0129464521e-11 -3.0169996387e-10 -4.6326172029e-10 -3.1754221655e-10 4.861936843e-12 -4.6326172029e-10 -1.8891755493e-10 1.5419421969e-11 
6.1525932964e-11 -1.8891755493e-10 1.6820386101e-10 3.4350447108e-10 3.7832266791e-10 3.7832266791e-10 -1.8442218788e-10 8.7852678302e-11 4.9882410958e-10 
4.9882410958e-10 -3.2002770656e-10 -2.0763267153e-10 2.8580378097e-11 -3.2002770656e-10 -9.2284756903e-11 1.7457660943e-11 1.0200891596e-10 1.0200891596e-10 
2.1767110214e-10 3.1174575603e-10 1.2001261418e-09 1.2001261418e-09 -1.0363366509e-09 -5.2527267241e-10 -1.4291267665e-10 -1.0363366509e-09 -1.6954137237e-10 
-1.0243647202e-10 9.1289344395e-11 -1.6954137237e-10 -7.69776734e-10 -4.4859195739e-10 -2.0874430861e-10 -7.69776734e-10 -2.4254084316e-10 -1.8257289685e-10 
2.9794254001e-10 2.9794254001e-10 -4.9360248726e-10 -2.877183621e-10 -9.1938150645e-11 -4.9360248726e-10 -3.4745477692e-10 -1.4682682035e-10 -1.3230140273e-10 
-3.4745477692e-10 -2.2228653577e-10 7.1560540044e-11 3.2315749573e-10 3.2315749573e-10 -2.0064753151e-10 3.8180569637e-13 2.1147471581e-10 2.1147471581e-10 
2.2838584239e-10 4.8802273491e-10 5.525414227e-10 5.525414227e-10 -5.5699505108e-10 -2.3619998995e-10 -5.6818958973e-11 -5.5699505108e-10 1.535282858e-11 
3.0580572614e-11 2.8095819881e-10 2.8095819881e-10 -3.8255437177e-10 -2.2627057944e-10 -1.3871048789e-11 -3.8255437177e-10 -1.1651215153e-12 1.8131487753e-10 
4.9834424399e-10 4.9834424399e-10 -4.0354831301e-10 -2.3322200026e-11 3.2159008304e-10 -4.0354831301e-10 -3.9971529202e-10 -1.161417587e-10 5.0683050715e-11 
-3.9971529202e-10 -6.3990836349e-10 -4.4142359345e-11 3.6266462283e-10 -6.3990836349e-10 -9.3839214757e-10 -5.1505001048e-10 -2.2395684194e-10 -9.3839214757e-10 
-1.4138793207e-09 -8.7714670151e-10 -3.650689778e-10 -1.4138793207e-09 -1.9825805424e-10 5.8109336085e-11 3.6667235815e-10 3.6667235815e-10 -1.5372678941e-10 
-9.5283706962e-11 3.8501269637e-10 3.8501269637e-10 -4.810272033e-10 -1.6476831568e-10 -4.7352481023e-11 -4.810272033e-10 -4.1941248562e-10 -3.1469528479e-10 
-1.9321722959e-10 -4.1941248562e-10 2.4306631022e-10 2.5900682499e-10 6.5839886479e-10 6.5839886479e-10 1.3565948057e-10 2.3390473879e-10 5.7030878064e-10 
5.7030878064e-10 -4.0493788698e-10 -3.1708720553e-11 1.3064090754e-10 -4.0493788698e-10 -1.5474927574e-10 1.290679779e-10 5.8790508785e-10 5.8790508785e-10 
2.474666937e-11 2.7381564607e-10 4.3406968455e-10 4.3406968455e-10 -1.5696345751e-10 -4.0433466638e-11 1.7900022148e-11 -1.5696345751e-10 4.6401755141e-11 
1.792284304e-10 1.9919031445e-10 1.9919031445e-10 -3.3419152057e-10 -1.0613861457e-10 1.1180463514e-10 -3.3419152057e-10 -2.2471908995e-10 -6.8076489588e-12 
1.0878838891e-10 -2.2471908995e-10 -1.7551039728e-10 1.6715469515e-12 3.7177125033e-10 3.7177125033e-10 -2.6658711266e-10 -1.1903881886e-10 -3.2979068475e-11 
-2.6658711266e-10 1.8933332242e-10 3.3479517323e-10 5.3393750434e-10 5.3393750434e-10 -7.1196569046e-10 -3.3739814027e-10 -8.6564169272e-11 -7.1196569046e-10 
-1.2752460778e-11 3.9782850695e-11 2.5873681008e-10 2.5873681008e-10 5.3985221541e-11 1.2163493887e-10 5.8048783959e-10 5.8048783959e-10 -3.1762284405e-11 
7.9775873121e-11 5.1542441128e-10 5.1542441128e-10 -3.039812127e-10 -1.740708578e-10 -9.3076929504e-11 -3.039812127e-10 -7.19600097e-10 -3.1773664135e-10 
1.2056738346e-11 -7.19600097e-10 2.4526168771e-10 3.590288041e-10 5.0713150819e-10 5.0713150819e-10 -3.767331411e-10 -2.5464989159e-10 -3.1627967309e-11 
-3.767331411e-10 -3.5055791162e-10 1.4086824214e-11 1.8468268741e-10 -3.5055791162e-10 -3.8423702429e-10 -3.5483536215e-11 2.1637916051e-10 -3.8423702429e-10 
-1.988607428e-10 -9.3250825922e-11 1.0632216872e-10 -1.988607428e-10 -7.0948473611e-10 -2.7906247922e-10 2.5491215333e-11 -7.0948473611e-10 -6.7964326885e-11 
3.4457485596e-10 1.1408164709e-09 1.1408164709e-09 -2.1808670404e-10 -9.4028992399e-11 5.377219644e-11 -2.1808670404e-10 1.7003548191e-10 1.920602577e-10 
5.3867726038e-10 5.3867726038e-10 -1.7350392629e-11 8.0748561383e-11 2.1904953125e-10 2.1904953125e-10 -1.388034919e-10 1.6814271309e-10 7.5924507881e-10 
7.5924507881e-10 -1.0584247441e-10 -2.4615908639e-11 1.0624369305e-10 1.0624369305e-10 1.0412470571e-10 1.7509284972e-10 6.9509744456e-10 6.9509744456e-10 
-1.5180385997e-11 3.1484265709e-11 1.3435699029e-10 1.3435699029e-10 -3.3730070798e-10 2.4114433818e-11 2.6615957417e-10 -3.3730070798e-10 -2.3459239019e-10 
4.5151936848e-10 5.9504002171e-10 5.9504002171e-10 -2.1910756411e-10 -1.4015210345e-10 8.0576267556e-11 -2.1910756411e-10 -4.9091683038e-10 -2.4080034428e-10 
-1.6353082534e-10 -4.9091683038e-10 2.3768546304e-10 5.634232402e-10 9.1373429676e-10 9.1373429676e-10 1.9691482542e-10 3.9104158318e-10 5.968325914e-10 
5.968325914e-10 -1.4909448848e-09 -6.8816163056e-10 -5.7045548467e-10 -1.4909448848e-09 -4.1527037975e-10 -2.103711359e-10 -1.6879548435e-10 -4.1527037975e-10 
4.7120989568e-10 6.7609280033e-10 1.206019304e-09 1.206019304e-09 3.041322205e-10 3.443526557e-10 8.1861812379e-10 8.1861812379e-10 -8.0606921754e-10 
-4.0154759596e-10 -1.774211865e-10 -8.0606921754e-10 -5.1128417305e-10 -9.196895914e-11 2.2460383219e-10 -5.1128417305e-10 -1.3626945019e-10 8.3325829413e-11 
3.0181232078e-10 3.0181232078e-10 -1.042156454e-10 -3.9955823531e-11 -2.6470531065e-11 -1.042156454e-10 -6.296235318e-10 -3.8358883154e-10 -2.1230963666e-10 
-6.296235318e-10 -6.0675952011e-10 -3.0882183709e-10 -2.085806428e-10 -6.0675952011e-10 -5.4819457323e-10 -1.5251599461e-10 -5.8516432154e-11 -5.4819457323e-10 
5.7853962872e-11 1.2759107605e-10 4.6817196108e-10 4.6817196108e-10 -8.7426180384e-11 -5.2688047555e-11 2.0911542794e-10 2.0911542794e-10 -4.5597615426e-11 
2.2079287695e-11 1.4459222773e-10 1.4459222773e-10 -6.8483237895e-11 4.9529644976e-11 2.3817179292e-10 2.3817179292e-10 4.6689781805e-10 6.886433521e-10 
8.9499282985e-10 8.9499282985e-10 -1.1802461966e-10 2.9276350681e-11 1.5817806898e-10 1.5817806898e-10 -4.4778649703e-11 9.5048860925e-11 2.1737716878e-10 
2.1737716878e-10 -3.8228705953e-10 -2.2808363532e-10 -1.6508530515e-10 -3.8228705953e-10 -7.833098092e-10 -5.6805526671e-10 -3.4203192409e-10 -7.833098092e-10 
6.342497866e-12 7.5343134153e-11 2.4172466798e-10 2.4172466798e-10 -8.7186280988e-11 -1.3512981427e-11 1.1235662241e-10 1.1235662241e-10 4.4837558841e-11 
5.4406060074e-11 1.3583198108e-10 1.3583198108e-10 -2.5072187315e-10 -3.1688998811e-11 -1.2508280414e-12 -2.5072187315e-10 -3.0465364686e-10 -7.1050503829e-11 
5.694845069e-11 -3.0465364686e-10 1.780944318e-10 2.9039854326e-10 7.8892202493e-10 7.8892202493e-10 4.3015950859e-11 6.9813589447e-11 2.2210485969e-10 
2.2210485969e-10 2.773469283e-10 3.0400831727e-10 7.4522775443e-10 7.4522775443e-10 4.2537865381e-10 5.9877132802e-10 9.2420401817e-10 9.2420401817e-10 
-2.3109974353e-11 3.3729999098e-11 4.1365868525e-10 4.1365868525e-10 -3.8292045892e-10 -1.0125759129e-10 1.1968405021e-10 -3.8292045892e-10 -6.100256035e-11 
1.5869920387e-10 5.3767135648e-10 5.3767135648e-10 -4.9697299492e-11 1.2051197247e-11 1.6775078224e-10 1.6775078224e-10 4.1921472781e-10 5.6978512169e-10 
1.0999571505e-09 1.0999571505e-09 -1.3316550211e-09 -5.6671474995e-10 -4.4818622892e-10 -1.3316550211e-09 -3.8074920116e-10 -1.8915872078e-10 -4.5972378055e-11 
-3.8074920116e-10 -5.7347681861e-10 -2.4429474538e-10 -1.8360243601e-10 -5.7347681861e-10 -1.3919566957e-10 5.6233989079e-12 1.5864416067e-10 1.5864416067e-10 
-7.8235198607e-10 -2.1810794978e-10 2.0913693585e-10 -7.8235198607e-10 -3.5073371032e-10 -5.4463466963e-11 9.3120177286e-11 -3.5073371032e-10 9.3878949433e-12 
9.9878220989e-11 1.7696288407e-10 1.7696288407e-10 5.2619234583e-11 1.8249774068e-10 4.0187402474e-10 4.0187402474e-10 6.4732358721e-11 1.2483351384e-10 
5.4299212744e-10 5.4299212744e-10 -7.9387768688e-11 9.9038887831e-11 2.5994268086e-10 2.5994268086e-10 -5.952383526e-10 -2.5310490803e-10 -6.0766739374e-11 
-5.952383526e-10 -1.0826668601e-09 -4.1427103297e-10 -3.5565210693e-10 -1.0826668601e-09 -1.0620967546e-09 -7.9776487584e-10 -5.5009836956e-10 -1.0620967546e-09 
-1.5735063672e-10 5.5073308726e-12 1.7635074585e-10 1.7635074585e-10 -1.5027840181e-11 7.5570111292e-11 3.4448332889e-10 3.4448332889e-10 6.2984090361e-11 
2.7978183087e-10 4.1562307877e-10 4.1562307877e-10 -1.080925598e-09 -4.4203209315e-10 -3.9056830884e-10 -1.080925598e-09 -2.394000498e-10 3.5259486952e-12 
2.4017962411e-10 2.4017962411e-10 3.8143669227e-10 6.3433658415e-10 7.5269772358e-10 7.5269772358e-10 -4.8863429231e-10 -1.9357238137e-10 -1.5367732632e-10 
-4.8863429231e-10 6.4166070886e-11 2.8730964156e-10 5.1222728756e-10 5.1222728756e-10 2.7339821466e-10 4.4601179459e-10 6.2648299075e-10 6.2648299075e-10 
4.5844723077e-11 5.6331792395e-11 1.7865978453e-10 1.7865978453e-10 -1.7814383903e-10 8.0236263447e-13 1.5581535639e-10 -1.7814383903e-10 -1.9933167533e-10 
-1.0347894501e-10 -1.3728796559e-12 -1.9933167533e-10 -6.8755439816e-10 -5.5600566486e-10 -3.4923593698e-10 -6.8755439816e-10 -5.2433047224e-10 -1.6041466104e-10 
5.4519463274e-11 -5.2433047224e-10 -3.7527759121e-10 -2.5258523673e-10 -1.0138417206e-10 -3.7527759121e-10 -1.5801117271e-11 9.3712190572e-11 2.774388267e-10 
2.774388267e-10 2.3913005835e-10 3.1796666221e-10 6.7189227944e-10 6.7189227944e-10 1.0673718198e-10 1.5191792368e-10 5.9246389434e-10 5.9246389434e-10 
-5.0774886244e-10 -2.2009815792e-10 -1.9977197964e-10 -5.0774886244e-10 -2.8019265612e-10 1.9213309476e-12 2.3952391517e-10 -2.8019265612e-10 6.92558424e-11 
2.2125489012e-10 3.8442326748e-10 3.8442326748e-10 3.9106121679e-10 4.6594892399e-10 8.3926485923e-10 8.3926485923e-10 -2.406200337e-10 1.2534643531e-10 
6.7826949839e-10 6.7826949839e-10 -6.9523206033e-10 -2.7381424792e-10 -1.9933769174e-10 -6.9523206033e-10 3.2429738294e-10 5.6726583638e-10 1.5021627807e-09 
1.5021627807e-09 -3.3192932847e-10 -9.3478066402e-11 9.2033948745e-12 -3.3192932847e-10 -1.2263177351e-10 7.6341236465e-12 1.4808750986e-10 1.4808750986e-10 
-7.0778812358e-10 -2.3123637322e-10 -1.6629750319e-10 -7.0778812358e-10 -1.7296808642e-10 7.5929197587e-11 1.7445098884e-10 1.7445098884e-10 -3.5203071163e-10 
-2.7035206677e-10 -8.1732216035e-12 -3.5203071163e-10 -8.0637753398e-11 -1.5094959984e-11 1.6693511338e-10 1.6693511338e-10 -3.1664535238e-10 -7.2688574188e-12 
6.0843409803e-11 -3.1664535238e-10 -4.3501348655e-10 7.2715752322e-11 5.1139733423e-10 5.1139733423e-10 -5.1082829238e-10 -8.5441235322e-11 1.5625652771e-10 
-5.1082829238e-10 3.3532165627e-11 8.0032210768e-11 4.6305862361e-10 4.6305862361e-10 3.0552728347e-10 3.1729887505e-10 9.4575384148e-10 9.4575384148e-10 
-1.1479587118e-10 -8.5750407374e-12 2.045851192e-11 -1.1479587118e-10 -3.3739138528e-10 -1.1182468646e-10 3.6148227174e-10 3.6148227174e-10 6.7258686547e-12 
8.7661096942e-11 3.542990344e-10 3.542990344e-10 -4.3162156845e-10 -6.6531213829e-11 2.4638588227e-10 -4.3162156845e-10 -2.3301560691e-10 -8.8905940586e-11 
-6.3419052507e-11 -2.3301560691e-10 -3.5605989064e-10 -1.4624820639e-10 -4.3088802962e-11 -3.5605989064e-10 -3.1403892959e-10 -6.6644674807e-11 7.024504395e-12 
-3.1403892959e-10 -5.6712804283e-10 -9.4884457768e-11 3.179595006e-10 -5.6712804283e-10 -5.5881160563e-10 -2.909454526e-10 -9.1734941768e-11 -5.5881160563e-10 
-3.313658462e-11 1.413203873e-10 8.0592919732e-10 8.0592919732e-10 -4.5608470461e-10 -3.0238056175e-10 -8.252973364e-11 -4.5608470461e-10 7.5290986577e-11 
2.9236032186e-10 8.6567869157e-10 8.6567869157e-10 -1.4949574823e-10 1.3488286414e-10 2.9471338409e-10 2.9471338409e-10 8.386670937e-11 3.3905102999e-10 
6.8250626064e-10 6.8250626064e-10 -2.0959725625e-10 2.3652226882e-11 3.0737552937e-10 3.0737552937e-10 -2.6176640256e-10 6.8422994041e-11 5.2068590852e-10 
5.2068590852e-10 -3.6154568934e-10 -1.7248987128e-10 -1.5005039383e-11 -3.6154568934e-10 -7.3387960768e-10 -5.5004104359e-10 -3.5255934873e-10 -7.3387960768e-10 
3.5367323129e-11 1.4101667932e-10 3.6641099755e-10 3.6641099755e-10 -9.9766758286e-10 -7.8111327541e-10 -5.1886014173e-10 -9.9766758286e-10 4.0495700774e-10 
5.3908153197e-10 8.3214446029e-10 8.3214446029e-10 -1.5541687723e-10 1.1393328753e-10 3.480092897e-10 3.480092897e-10 1.0396528422e-10 1.1206339187e-10 
2.591703239e-10 2.591703239e-10 3.6735122788e-10 5.7054866739e-10 8.5441610473e-10 8.5441610473e-10 8.3301634752e-11 1.9633308928e-10 5.1937907597e-10 
5.1937907597e-10 1.0278992868e-10 1.899441645e-10 5.0587490683e-10 5.0587490683e-10 -2.0973103968e-10 -2.3277055995e-11 8.769609567e-11 -2.0973103968e-10 
-1.0333165087e-09 -4.4266570997e-10 -2.4307178133e-10 -1.0333165087e-09 2.2215894414e-11 1.6013705125e-10 4.4266805434e-10 4.4266805434e-10 -2.3765025781e-10 
-7.2146578798e-11 2.2411006608e-11 -2.3765025781e-10 3.4039563662e-11 1.8633693211e-10 3.9122950423e-10 3.9122950423e-10 7.6547819487e-12 1.2665315814e-10 
4.1455925992e-10 4.1455925992e-10 -2.9004871367e-10 2.5555160115e-11 3.2278035356e-10 3.2278035356e-10 -9.1138249683e-10 -3.3082593019e-10 -1.7974457299e-10 
-9.1138249683e-10 -2.5437842537e-10 -8.1509017485e-11 9.2390428542e-12 -2.5437842537e-10 -1.2270962774e-09 -4.3142709302e-10 -1.9491362959e-10 -1.2270962774e-09 
-6.0323937964e-10 -4.3261524699e-10 -6.5926373364e-11 -6.0323937964e-10 -3.4009175108e-10 -6.4841872985e-11 1.4304782407e-10 -3.4009175108e-10 8.3945779263e-11 
1.687122401e-10 4.2401398064e-10 4.2401398064e-10 -4.4775567604e-10 -1.267321184e-10 9.2256394432e-11 -4.4775567604e-10 -3.3925584881e-10 -2.0804902731e-10 
-1.3705123883e-11 -3.3925584881e-10 -3.4557987318e-10 -1.5935881583e-11 1.3267431476e-10 -3.4557987318e-10 -2.3859431325e-10 -1.1172541245e-10 -2.3811742971e-12 
-2.3859431325e-10 -1.5195229197e-10 8.5547763099e-11 2.6974532887e-10 2.6974532887e-10 -2.1898863622e-10 7.6242461659e-12 7.5251290056e-11 -2.1898863622e-10 
1.7472607833e-10 3.1506853755e-10 8.5292438412e-10 8.5292438412e-10 -1.246156142e-10 6.8342672947e-12 1.4662167691e-10 1.4662167691e-10 -1.2546921384e-09 
-2.4806784021e-10 -1.1582102142e-10 -1.2546921384e-09 5.5363251601e-12 1.3037928202e-10 2.4210719282e-10 2.4210719282e-10 -9.5188109825e-11 1.2953391234e-10 
2.8062654749e-10 2.8062654749e-10 -4.1421168421e-10 -1.8164341936e-10 -1.6775689643e-10 -4.1421168421e-10 4.7151277861e-12 2.2309864665e-10 1.1063042256e-09 
1.1063042256e-09 6.2037018061e-11 1.6329008948e-10 5.6437689245e-10 5.6437689245e-10 -5.8432725933e-10 -2.0930874558e-10 4.0853004911e-11 -5.8432725933e-10 
5.1158387276e-11 2.5020089673e-10 6.29709716e-10 6.29709716e-10 -3.5325736528e-10 -1.9902436034e-10 -1.8356274382e-11 -3.5325736528e-10 3.0434889308e-10 
3.7880402166e-10 7.9144908526e-10 7.9144908526e-10 6.7109902801e-11 1.9975456599e-10 3.5815753121e-10 3.5815753121e-10 -2.058595285e-11 2.5073752356e-10 
3.7847642929e-10 3.7847642929e-10 2.7998186169e-11 5.2356950366e-11 1.9052226347e-10 1.9052226347e-10 -4.3099787959e-10 -1.6264948498e-10 5.1633364562e-11 
-4.3099787959e-10 -4.8481273348e-10 -2.0504165607e-10 -1.4385261045e-10 -4.8481273348e-10 -7.6385857891e-10 -5.2417824813e-10 -3.5960317296e-10 -7.6385857891e-10 
5.8807949941e-11 2.12037813e-10 2.7845423706e-10 2.7845423706e-10 -7.4232331196e-10 -3.6318026469e-10 -1.3595142335e-10 -7.4232331196e-10 -6.0029639998e-11 
2.4103100592e-12 1.3360030994e-10 1.3360030994e-10 -2.1258773638e-10 6.1359838474e-12 3.6461595254e-10 3.6461595254e-10 1.7233225762e-10 2.2397956288e-10 
4.993261795e-10 4.993261795e-10 -3.1673847605e-10 -1.5016663989e-10 -7.3157884055e-11 -3.1673847605e-10 -1.6522634838e-10 1.1518216339e-10 2.1449554498e-10 
2.1449554498e-10 -2.0904211067e-10 -7.289086992e-11 3.5255480592e-11 -2.0904211067e-10 1.4627661918e-10 1.9440686556e-10 4.6362051526e-10 4.6362051526e-10 
4.6950929327e-12 2.3066678483e-10 6.5116812223e-10 6.5116812223e-10 4.5777708225e-11 1.3679085034e-10 1.9837684144e-10 1.9837684144e-10 -4.968835125e-10 
-2.7176660851e-10 -1.4754387899e-10 -4.968835125e-10 -1.1468302386e-09 -5.8100883831e-10 -4.4645892308e-10 -1.1468302386e-09 -5.20204039e-10 -1.4599207533e-10 
-3.818888567e-11 -5.20204039e-10 -2.1042189929e-10 -6.9512783967e-12 1.9161241769e-10 -2.1042189929e-10 4.7468637358e-10 6.7870114114e-10 1.5728134853e-09 
1.5728134853e-09 1.069542429e-10 2.4367833762e-10 6.4258341948e-10 6.4258341948e-10 -1.1205350081e-11 3.9721084317e-10 5.2927750691e-10 5.2927750691e-10 
1.6432661671e-10 2.9515025489e-10 8.1144712839e-10 8.1144712839e-10 -3.5151494083e-10 -1.2573784891e-10 7.8613089737e-11 -3.5151494083e-10 -7.0900555404e-10 
-2.7958337882e-10 -9.3918067135e-11 -7.0900555404e-10 1.9602594175e-11 1.8327450358e-10 8.2918990225e-10 8.2918990225e-10 2.2292869163e-10 3.7953681976e-10 
8.3564648861e-10 8.3564648861e-10 -2.866081963e-10 -1.3006261639e-10 -1.1351418731e-10 -2.866081963e-10 1.8248615807e-10 2.1911493185e-10 5.6741591009e-10 
5.6741591009e-10 1.5048268101e-10 2.3340098776e-10 5.1628133123e-10 5.1628133123e-10 -7.5429991912e-10 -3.5238119292e-10 2.1198011204e-10 -7.5429991912e-10 
-5.5994299433e-10 -2.9247711387e-10 -1.690538918e-10 -5.5994299433e-10 -8.8248921951e-11 1.8213373762e-10 8.3809518433e-10 8.3809518433e-10 -2.2429383865e-10 
1.9060893796e-11 1.5423204486e-10 -2.2429383865e-10 -8.7378714724e-10 -1.4421508323e-10 -2.283176953e-11 -8.7378714724e-10 -9.7569718478e-10 -2.999633709e-10 
2.9935855568e-10 -9.7569718478e-10 -9.7065015075e-10 -4.1219136355e-10 -5.2748485704e-11 -9.7065015075e-10 5.1865344557e-12 4.850493211e-11 1.6609793343e-10 
1.6609793343e-10 -6.1500823944e-10 -2.9710936582e-10 -2.1326539474e-10 -6.1500823944e-10 -5.8872455668e-10 -2.5499515814e-10 3.6934714825e-11 -5.8872455668e-10 
-2.3453218136e-10 7.5791983861e-11 2.778357975e-10 2.778357975e-10 -3.6085256832e-11 1.5801293345e-10 3.3829432338e-10 3.3829432338e-10 -1.4153612874e-10 
-2.7747621173e-11 1.9310287991e-10 1.9310287991e-10 5.1206124982e-11 2.3112520907e-10 4.3556666595e-10 4.3556666595e-10 -3.8257725739e-10 -2.3893216219e-10 
-1.2893158042e-10 -3.8257725739e-10 -2.4611154589e-10 -1.0694829781e-10 1.8640043701e-11 -2.4611154589e-10 9.1690523097e-13 7.6286459669e-11 2.111473351e-10 
2.111473351e-10 -1.949212109e-10 -1.300927839e-10 2.75091948e-11 -1.949212109e-10 -2.0210386662e-10 6.7565580413e-11 3.934659862e-10 3.934659862e-10 
4.7968464361e-11 1.0509471682e-10 2.0819261882e-10 2.0819261882e-10 3.2799489351e-11 1.608638806e-10 3.9853963005e-10 3.9853963005e-10 -3.093411497e-10 
-5.6215736866e-11 2.1036858656e-10 -3.093411497e-10 1.5327100963e-11 2.9536444676e-10 3.6633045228e-10 3.6633045228e-10 -6.5636260915e-11 6.9633055773e-11 
1.1937680514e-10 1.1937680514e-10 -1.6694174034e-10 -7.8207949613e-12 3.619522353e-10 3.619522353e-10 5.8366869769e-11 2.2922413992e-10 5.1870799031e-10 
5.1870799031e-10 -2.8581342152e-10 8.3131625854e-11 1.2758139566e-10 -2.8581342152e-10 -1.1005466221e-10 5.6280173652e-11 2.9226468856e-10 2.9226468856e-10 
-2.5930647117e-10 1.1572156584e-10 4.0055090533e-10 4.0055090533e-10 -2.5304048056e-10 1.0201007762e-10 1.4933038894e-10 -2.5304048056e-10 -3.302377448e-10 
-6.647409491e-11 2.8742423971e-10 -3.302377448e-10 -2.4446511207e-10 -2.4738459459e-12 6.9407458014e-11 -2.4446511207e-10 9.9311548432e-11 2.7236751037e-10 
5.6371094119e-10 5.6371094119e-10 1.7640843581e-10 2.3882170123e-10 6.8201686296e-10 6.8201686296e-10 -4.0292515434e-10 -3.7586921647e-10 -7.4769629191e-11 
-4.0292515434e-10 -1.1661412917e-10 -3.8325541812e-12 3.1200388335e-10 3.1200388335e-10 -1.715278738e-10 1.2964676471e-10 2.5487060909e-10 2.5487060909e-10 
2.9406423111e-10 5.1628897131e-10 8.4207579757e-10 8.4207579757e-10 1.2795446799e-11 1.2227952781e-10 3.0541402539e-10 3.0541402539e-10 2.2581452377e-10 
3.3754953615e-10 8.5433794008e-10 8.5433794008e-10 -1.0207272012e-09 -4.245201116e-10 -3.4118368724e-10 -1.0207272012e-09 -6.0400253102e-10 -1.8491213656e-10 
1.4654667577e-11 -6.0400253102e-10 -5.7826769402e-11 9.3338939097e-11 2.714643303e-10 2.714643303e-10 -2.1762838721e-10 4.8906817471e-11 3.7029685974e-10 
3.7029685974e-10 -3.1498460292e-10 -1.3098306531e-10 4.9233216823e-10 4.9233216823e-10 -2.3020125867e-11 1.1929535151e-10 2.6892737435e-10 2.6892737435e-10 
-1.4337123369e-10 -1.0840109744e-10 1.3519853113e-10 -1.4337123369e-10 -1.9861964591e-10 -6.6702106005e-11 7.771145192e-11 -1.9861964591e-10 -3.0356724484e-10 
-7.6219455428e-11 4.7066300271e-11 -3.0356724484e-10 -1.1133836696e-09 -6.0832149061e-10 -5.0866983979e-10 -1.1133836696e-09 2.2845677386e-10 3.4232257594e-10 
4.512246502e-10 4.512246502e-10 -2.5539374512e-10 3.3773507029e-12 1.8139979442e-10 -2.5539374512e-10 -6.0375437054e-10 -4.7763496487e-10 -2.3240366459e-10 
-6.0375437054e-10 -2.0824114781e-10 1.2718732617e-10 3.9889862164e-10 3.9889862164e-10 -6.5099230665e-10 -2.7263337571e-10 -2.2450031764e-10 -6.5099230665e-10 
-3.6803680322e-10 5.0231731931e-11 3.6941357129e-10 3.6941357129e-10 -4.6824824421e-12 1.1974571589e-10 3.5795516656e-10 3.5795516656e-10 -3.3912548233e-11 
6.8105381186e-11 1.8185996705e-10 1.8185996705e-10 7.4012329048e-11 3.9783240541e-10 9.7135826554e-10 9.7135826554e-10 6.0758214691e-11 1.0374083286e-10 
3.5975035245e-10 3.5975035245e-10 -3.3213589091e-10 -1.1405523483e-10 -4.6265174263e-11 -3.3213589091e-10 2.2133507093e-10 2.9031151138e-10 6.8444541768e-10 
6.8444541768e-10 -2.0670574328e-10 -1.0735994648e-11 6.6426437925e-11 -2.0670574328e-10 -4.4127966999e-10 -1.8900451747e-10 1.9267287462e-11 -4.4127966999e-10 
-2.9995221262e-10 4.307636026e-11 2.4878069236e-10 -2.9995221262e-10 -5.2812085628e-10 -3.4885089012e-10 -2.453792536e-10 -5.2812085628e-10 -3.5089352493e-11 
-4.3365199826e-12 1.3925392476e-11 -3.5089352493e-11 -2.0394978908e-10 -1.3328650825e-11 1.1196463991e-10 -2.0394978908e-10 -2.4840199594e-10 7.6144410539e-11 
2.378306854e-10 -2.4840199594e-10 4.5073665431e-11 1.8599446651e-10 4.6877686806e-10 4.6877686806e-10 2.1431578045e-10 3.0072084354e-10 5.3710537601e-10 
5.3710537601e-10 -5.2332442306e-10 -1.701679151e-10 9.8382381656e-12 -5.2332442306e-10 -3.5718930546e-11 1.4186148349e-10 5.1752544706e-10 5.1752544706e-10 
-7.4537072272e-12 5.0165281719e-11 3.1363202551e-10 3.1363202551e-10 -4.8044856886e-10 -1.9924607942e-10 7.7416482786e-12 -4.8044856886e-10 -8.3678143862e-10 
-4.0605175437e-10 -2.0605580701e-10 -8.3678143862e-10 -9.6753299319e-11 2.3240177075e-11 1.3422892224e-10 1.3422892224e-10 7.3673156316e-11 1.8757377418e-10 
4.377890695e-10 4.377890695e-10 3.3694792735e-11 2.9951264208e-10 3.4113656518e-10 3.4113656518e-10 -1.8494066732e-10 2.8405695893e-11 3.7643457142e-10 
3.7643457142e-10 -6.2968975866e-11 4.4450798472e-11 2.2090257739e-10 2.2090257739e-10 -1.431477572e-09 -6.0555939975e-10 -5.7655602824e-10 -1.431477572e-09 
-2.8928654661e-10 -2.2926320433e-11 5.5552267041e-11 -2.8928654661e-10 -8.9279947732e-10 -3.5632628339e-10 -2.6592423929e-10 -8.9279947732e-10 -4.6645083845e-10 
-8.4202378017e-11 2.2875161647e-10 -4.6645083845e-10 -7.3738481567e-11 1.7439485535e-10 5.6559362622e-10 5.6559362622e-10 1.5483705445e-10 2.0974671043e-10 
4.8686523512e-10 4.8686523512e-10 1.4926197203e-10 3.5405106189e-10 6.7765496608e-10 6.7765496608e-10 -1.1051773916e-10 1.6430344829e-11 2.1521409434e-10 
2.1521409434e-10 -4.4580304224e-10 -2.3269764038e-10 -6.0653173881e-12 -4.4580304224e-10 4.7389117618e-12 1.1603296946e-11 3.9342421292e-11 3.9342421292e-11 
1.6004010962e-10 2.4830955779e-10 6.0412133259e-10 6.0412133259e-10 -6.2564768157e-10 -3.2996086726e-10 -1.3180345118e-10 -6.2564768157e-10 -6.176933588e-10 
-2.2956669101e-10 1.5206914981e-10 -6.176933588e-10 -1.3082890258e-10 1.468707493e-10 5.7556745328e-10 5.7556745328e-10 -1.3780430362e-10 3.530184879e-11 
9.1877294832e-11 -1.3780430362e-10 -9.0299954371e-11 7.5405152584e-11 2.8186850179e-10 2.8186850179e-10 -1.7938054652e-10 3.0388369859e-10 7.6376184792e-10 
7.6376184792e-10 1.9718972878e-11 6.1707762448e-11 2.8499046467e-10 2.8499046467e-10 -1.378512885e-10 1.8251229733e-10 3.5788139117e-10 3.5788139117e-10 
-2.4172333635e-10 -1.1051823323e-10 2.8757976957e-10 2.8757976957e-10 -2.6052933881e-10 -8.5684628755e-11 7.0869967569e-11 -2.6052933881e-10 6.2873972845e-11 
8.282626427e-11 2.0493026289e-10 2.0493026289e-10 1.8841509197e-10 2.5829242587e-10 5.3293348216e-10 5.3293348216e-10 -3.8537135696e-11 1.1381058216e-10 
3.0267935354e-10 3.0267935354e-10 1.8780576807e-10 4.4006190241e-10 4.9658032952e-10 4.9658032952e-10 -1.1500826935e-10 5.3787201797e-11 1.8872326755e-10 
1.8872326755e-10 -3.7486176652e-10 -1.4589438837e-10 3.1391654887e-11 -3.7486176652e-10 -2.6038659189e-11 1.7342191993e-10 5.7695073926e-10 5.7695073926e-10 
-8.1839754742e-11 1.9367951228e-11 3.2597660351e-10 3.2597660351e-10 -1.2205111989e-10 1.7402593097e-10 3.6240718892e-10 3.6240718892e-10 -2.1284837638e-10 
-1.8939283782e-11 4.782066016e-11 -2.1284837638e-10 -9.7513961255e-11 1.2542883074e-10 3.5489493052e-10 3.5489493052e-10 -4.7471951931e-11 -2.5414008457e-11 
7.5968399388e-11 7.5968399388e-11 -1.8831563892e-10 4.2086220719e-11 1.474437432e-10 -1.8831563892e-10 -7.7830294504e-11 2.7846102289e-10 4.3596927162e-10 
4.3596927162e-10 1.3207020626e-10 2.6071154258e-10 3.0301625116e-10 3.0301625116e-10 -2.4568982289e-10 -1.64053499e-10 -1.020866781e-10 -2.4568982289e-10 
-6.579861562e-10 -4.6889631571e-10 -2.7034252809e-10 -6.579861562e-10 3.4070223228e-11 1.6781421036e-10 4.7470556641e-10 4.7470556641e-10 8.566574506e-11 
1.3743208393e-10 4.4819217101e-10 4.4819217101e-10 -4.2435503962e-10 -3.2727542793e-11 1.0371904242e-10 -4.2435503962e-10 -8.5474612232e-10 -4.642680654e-10 
1.6542318772e-10 -8.5474612232e-10 -3.6479212993e-11 6.9929617816e-11 1.0034419518e-10 1.0034419518e-10 -2.2562169081e-10 -4.9008947081e-11 3.852343789e-11 
-2.2562169081e-10 -2.0149741367e-10 -8.111125488e-11 2.9197968554e-11 -2.0149741367e-10 -4.6322346986e-10 -1.8823596153e-10 3.4209183139e-10 -4.6322346986e-10 
-3.4280205261e-10 -1.3027665545e-10 1.5879350806e-10 -3.4280205261e-10 5.8244380188e-11 3.8290950596e-10 4.9871911385e-10 4.9871911385e-10 1.9166662538e-11 
3.6323240263e-11 1.749243972e-10 1.749243972e-10 2.6619212444e-11 7.8343673847e-11 4.1050911371e-10 4.1050911371e-10 -9.1070006896e-11 3.3344106163e-11 
2.8389040073e-10 2.8389040073e-10 -3.2146319555e-10 -1.6733595953e-10 1.4059695509e-10 -3.2146319555e-10 5.9828212138e-12 1.4091595863e-10 3.7586022016e-10 
3.7586022016e-10 -1.8516103229e-10 -1.4409104073e-10 1.444287302e-11 -1.8516103229e-10 2.6508861034e-11 1.0606915978e-10 2.4233927919e-10 2.4233927919e-10 
-2.2329214012e-10 -6.7006478547e-11 3.0436818663e-11 -2.2329214012e-10 -4.37414348e-10 -2.9433986286e-10 -1.6036789138e-11 -4.37414348e-10 -4.7177255187e-11 
1.6096077145e-10 4.1178998374e-10 4.1178998374e-10 -3.9753995823e-10 -2.5968420236e-10 -5.223383941e-11 -3.9753995823e-10 -6.6729686659e-10 -2.6980798745e-10 
2.9409854047e-11 -6.6729686659e-10 -4.8869436651e-11 2.2069860524e-10 4.5900383141e-10 4.5900383141e-10 3.7139275348e-11 3.6366384183e-10 6.6624088282e-10 
6.6624088282e-10 -3.922205468e-10 -3.281595968e-10 -8.5366856406e-11 -3.922205468e-10 -4.0577057393e-10 -2.6003294576e-10 -8.2208480311e-11 -4.0577057393e-10 
2.7838585295e-11 1.2593709617e-10 8.9983731854e-10 8.9983731854e-10 -3.3319962845e-10 2.1305697021e-11 2.7758979143e-10 -3.3319962845e-10 -1.8146604089e-10 
1.1476853034e-10 5.7339401054e-10 5.7339401054e-10 1.1040091953e-10 2.1910413577e-10 5.367009447e-10 5.367009447e-10 -3.6196981161e-10 -3.0171847791e-10 
-1.8146871048e-10 -3.6196981161e-10 -3.2456123668e-11 9.1452065424e-11 1.4865085824e-10 1.4865085824e-10 -4.9915812018e-10 -3.8519314322e-10 -2.634717366e-10 
-4.9915812018e-10 -1.5089739813e-10 1.9942489828e-11 2.005014883e-10 2.005014883e-10 -1.0630817731e-10 1.0667751925e-10 3.3558885806e-10 3.3558885806e-10 
-5.9163179672e-10 -6.6250634291e-11 6.0140431009e-11 -5.9163179672e-10 2.9134594577e-12 9.380908661e-11 3.6309515393e-10 3.6309515393e-10 -5.2927330579e-10 
-3.6254646547e-10 -1.3217222874e-10 -5.2927330579e-10 -2.415656823e-10 -1.067229217e-10 2.53269504e-10 2.53269504e-10 2.6294090081e-10 4.6542577003e-10 
1.1575733292e-09 1.1575733292e-09 -7.9460854901e-11 1.801827777e-10 2.908914772e-10 2.908914772e-10 6.4204118923e-10 1.0069522837e-09 1.9670585271e-09 
1.9670585271e-09 -1.9653077914e-10 -1.9277453078e-11 3.9582232215e-11 -1.9653077914e-10 1.7163086671e-10 3.4063123413e-10 8.9670789916e-10 8.9670789916e-10 
-1.0252824654e-10 -2.5075595161e-11 1.086086617e-10 1.086086617e-10 -2.1913601835e-10 -9.9347168719e-11 -4.1862412932e-11 -2.1913601835e-10 8.6066939332e-11 
1.6595940083e-10 3.9475765984e-10 3.9475765984e-10 3.0179570938e-10 3.3020451714e-10 7.9290077348e-10 7.9290077348e-10 3.5015011789e-11 2.0653795982e-10 
5.2012102839e-10 5.2012102839e-10 -7.5896707522e-11 1.4243604007e-10 2.8578256745e-10 2.8578256745e-10 -9.3191312614e-12 1.1878407556e-10 2.8363935571e-10 
2.8363935571e-10 -2.5963013563e-10 8.256135778e-11 1.1453197785e-10 -2.5963013563e-10 -3.0082222493e-11 8.9393015697e-11 2.024589368e-10 2.024589368e-10 
-3.8619138515e-10 -3.4160997175e-10 4.2151356903e-11 -3.8619138515e-10 -2.0778440631e-10 1.8199676305e-10 3.7186464326e-10 3.7186464326e-10 -3.8712009479e-10 
-2.0519269995e-10 -7.7653205269e-11 -3.8712009479e-10 -4.0268239489e-10 -6.2889859186e-11 -3.4287745928e-11 -4.0268239489e-10 -2.3954047861e-10 -4.4728124288e-11 
-2.2207971006e-12 -2.3954047861e-10 -9.1789889902e-11 1.1125611306e-10 5.0025677685e-10 5.0025677685e-10 2.78500993e-10 4.6751298754e-10 1.0171590195e-09 
1.0171590195e-09 5.4365775812e-11 1.7992055413e-10 5.0036867006e-10 5.0036867006e-10 1.6455116031e-10 4.2606787777e-10 5.8027596192e-10 5.8027596192e-10 
-1.8578785586e-10 4.1256011014e-12 1.4551328476e-10 -1.8578785586e-10 -9.2587860347e-11 6.4599515034e-12 1.2057009884e-10 1.2057009884e-10 -1.186744639e-10 
1.5414950746e-11 6.5615993156e-11 -1.186744639e-10 -1.2328285224e-11 8.4152198338e-11 1.0701028689e-10 1.0701028689e-10 -3.961468698e-10 -8.9343680576e-11 
3.939925038e-11 -3.961468698e-10 1.2542298416e-10 3.4672749827e-10 1.0025695176e-09 1.0025695176e-09 -1.5565523322e-09 -5.2826362243e-10 -2.958340454e-10 
-1.5565523322e-09 -4.4314872967e-10 -1.8796213647e-10 -1.5075113386e-10 -4.4314872967e-10 -1.0334086447e-10 1.5180703325e-10 4.7449443122e-10 4.7449443122e-10 
-2.7296652495e-10 -2.1879992102e-10 -7.31355403e-12 -2.7296652495e-10 -3.2605792971e-10 9.6484414293e-11 2.0625850541e-10 -3.2605792971e-10 -2.9842478593e-10 
-1.2640806267e-10 1.9375648605e-11 -2.9842478593e-10 -1.2026914571e-10 5.2238146072e-11 4.7073969964e-10 4.7073969964e-10 -7.5678327795e-11 2.2835680902e-10 
4.4509151878e-10 4.4509151878e-10 -6.775406737e-12 6.5916694451e-11 2.8511481229e-10 2.8511481229e-10 3.6395541405e-10 4.721982738e-10 1.1553063121e-09 
1.1553063121e-09 -2.5919122769e-10 -4.9399240142e-11 9.5844467829e-11 -2.5919122769e-10 3.4483764654e-11 1.071409353e-10 2.8496120005e-10 2.8496120005e-10 
-8.6484799423e-11 5.7386533552e-11 3.4883436587e-10 3.4883436587e-10 1.3185523055e-10 2.563095902e-10 5.8925817925e-10 5.8925817925e-10 6.6046991844e-11 
1.1527936035e-10 2.278018478e-10 2.278018478e-10 8.3123903446e-11 1.8037170193e-10 5.1132539462e-10 5.1132539462e-10 4.5865418458e-11 1.1573170801e-10 
3.4028487353e-10 3.4028487353e-10 -4.4400674167e-10 -1.7799527702e-10 2.1156681869e-10 -4.4400674167e-10 -6.8555730337e-11 1.4071653181e-10 4.5043199852e-10 
4.5043199852e-10 -2.579007076e-10 -1.0247113508e-10 1.1762104268e-10 -2.579007076e-10 -3.1299821507e-10 -6.2939535059e-11 2.3320165013e-10 -3.1299821507e-10 
-2.7340588472e-11 8.3133448963e-11 3.6790663951e-10 3.6790663951e-10 -1.948024224e-10 -7.7089769754e-11 7.2092492156e-11 -1.948024224e-10 -4.0751744519e-10 
-2.7368684339e-10 3.7527288582e-11 -4.0751744519e-10 -9.1732301932e-11 9.8764389335e-12 1.17444403e-10 1.17444403e-10 -4.2774222585e-10 -1.2209271455e-10 
-5.7972059608e-11 -4.2774222585e-10 -1.2810536781e-10 7.7213113009e-11 3.008526548e-10 3.008526548e-10 -1.2108506437e-10 -2.7214454689e-11 2.5982931906e-10 
2.5982931906e-10 -4.6704245288e-10 -1.268432466e-10 7.3859399482e-11 -4.6704245288e-10 -3.1034328453e-10 -8.7161447584e-11 4.7784132117e-11 -3.1034328453e-10 
-5.2379377248e-10 -1.0777201781e-10 -1.0498209707e-11 -5.2379377248e-10 2.5642717418e-10 4.2824683824e-10 6.8643098758e-10 6.8643098758e-10 -2.1124842052e-10 
-5.8115823283e-12 4.0417408285e-10 4.0417408285e-10 -4.086831523e-10 -1.4855981108e-10 -7.0664036618e-11 -4.086831523e-10 -4.8674658839e-10 -2.5122132082e-10 
-7.5861090786e-11 -4.8674658839e-10 -3.291673994e-10 -2.4981074404e-10 -2.0646856559e-11 -3.291673994e-10 -5.8619661453e-10 -3.6322016589e-10 -2.4155721958e-10 
-5.8619661453e-10 -3.5609238072e-10 -9.7207743148e-11 2.9160723864e-11 -3.5609238072e-10 -1.5116411967e-09 -6.2772180614e-10 -5.0439899714e-10 -1.5116411967e-09 
-4.3080337303e-10 -1.3087604296e-10 -6.1922584006e-11 -4.3080337303e-10 -1.4676667521e-10 -3.0517478583e-11 1.4788071379e-10 1.4788071379e-10 1.4746699572e-10 
2.8674779367e-10 6.9691221061e-10 6.9691221061e-10 6.4936243166e-11 1.2530739779e-10 3.4253335904e-10 3.4253335904e-10 5.5464111865e-11 1.1901869035e-10 
2.5993519779e-10 2.5993519779e-10 -2.1119550034e-10 -3.9949242472e-11 5.7462782812e-11 -2.1119550034e-10 -3.7796445319e-10 -7.9920761266e-11 -4.5748385548e-11 
-3.7796445319e-10 2.2312188248e-10 3.2793303485e-10 4.3496208267e-10 4.3496208267e-10 -3.6389571462e-11 2.2385339103e-10 3.8417088043e-10 3.8417088043e-10 
-1.6634784187e-10 -5.2774187488e-11 9.1012729353e-11 -1.6634784187e-10 3.9236838783e-12 4.1965825941e-11 1.3413089018e-10 1.3413089018e-10 -2.5295137464e-10 
-1.1274509166e-10 -2.31852337e-11 -2.5295137464e-10 -3.9345076199e-10 -1.7317883074e-10 -6.1166407268e-11 -3.9345076199e-10 -3.8394068006e-11 1.3906418399e-10 
3.9264188402e-10 3.9264188402e-10 -7.0066550782e-10 -3.3386784754e-10 -2.3775664464e-10 -7.0066550782e-10 -2.8095664861e-10 -2.373282043e-11 9.2489569042e-11 
-2.8095664861e-10 -4.1327004934e-10 -9.9580476415e-11 -9.604474241e-12 -4.1327004934e-10 -2.6568191343e-10 5.0318361056e-11 2.8700775237e-10 2.8700775237e-10 
-2.9960156413e-10 -1.7398503937e-10 -9.0155396495e-11 -2.9960156413e-10 -7.400773866e-10 -3.1281398534e-10 -2.1575562807e-10 -7.400773866e-10 9.8036933793e-11 
1.6230946339e-10 4.0387860282e-10 4.0387860282e-10 -8.3378912606e-11 -1.9670163708e-12 6.3239062898e-10 6.3239062898e-10 1.1281582816e-10 2.0099198053e-10 
3.5041819131e-10 3.5041819131e-10 -1.916521681e-10 -1.1586637499e-10 -4.2505556915e-11 -1.916521681e-10 -2.0485341496e-10 -4.5507368606e-11 1.4481783564e-11 
-2.0485341496e-10 -6.1070254209e-11 1.3964583306e-10 3.0575252115e-10 3.0575252115e-10 -4.0114776799e-10 -1.2592793511e-10 -5.3189296897e-11 -4.0114776799e-10 
3.8166808054e-10 5.6979122558e-10 8.8229569388e-10 8.8229569388e-10 -7.3389641016e-10 -6.5948036908e-10 -3.7526022076e-10 -7.3389641016e-10 7.0429959092e-11 
1.8664725848e-10 3.3391678243e-10 3.3391678243e-10 -7.3130228903e-10 -4.0260226358e-10 -2.2294244739e-10 -7.3130228903e-10 -1.0458793098e-09 -6.6605092224e-10 
-5.0963876799e-10 -1.0458793098e-09 2.5190353718e-10 2.651164752e-10 7.1367998762e-10 7.1367998762e-10 -6.3806206338e-11 1.418175986e-10 3.6666760773e-10 
3.6666760773e-10 -2.3358118988e-10 -2.411053135e-11 3.8106532123e-10 3.8106532123e-10 5.4999499825e-10 6.9566049199e-10 1.5905635098e-09 1.5905635098e-09 
1.2989563356e-10 1.490992289e-10 3.5973013754e-10 3.5973013754e-10 3.0607264584e-10 4.2400810564e-10 8.7644624852e-10 8.7644624852e-10 -3.0335068909e-10 
-1.6058820519e-10 -9.6077105724e-11 -3.0335068909e-10 -8.5420881434e-10 -1.6266177368e-10 -5.3662411981e-11 -8.5420881434e-10 -1.3009712006e-10 4.8888664822e-11 
1.6815235524e-10 1.6815235524e-10 
METADATA
COMPONENT_NAMES
Min
Mid
Max
Worst

ERROR 1 13235 double
0 0 0 0 0 0 0 0 0 
0 0 0 0 0 0 0 0 0 
0 0 0 0 0 0 0 0 0 
0 0 0 0 0 0 0 0 0 
0 0 0 0 0 0 0 0 0 
0 0 0 0 0 0 0 0 0 
0 0 0 0 0 0 0 0 0 
0 0 0 0 0 0 0 0 0 
0 0 0 0 0 0 0 0 0 
0 0 0 0 0 0 0 0 0 
0 0 0 0 0 0 0 0 0 
0 0 0 0 0 0 0 0 0 
0 0 0 0 0 0 0 0 0 
0 0 0 0 0 0 0 0 0 
0 0 0 0 0 0 0 0 0 
0 0 0 0 0 0 0 0 0 
0 0 0 0 0 0 0 0 0 
0 0 0 0 0 0 0 0 0 
0 0 0 0 0 0 0 0 0 
0 0 0 0 0 0 0 0 0 
0 0 0 0 0 0 0 0 0 
0 0 0 0 0 0 0 0 0 
0 0 0 0 0 0 0 0 0 
0 0 0 0 0 0 0 0 0 
0 0 0 0 0 0 0 0 0 
0 0 0 0 0 0 0 0 0 
0 0 0 0 0 0 0 0 0 
0 0 0 0 0 0 0 0 0 
0 0 0 0 0 0 0 0 0 
0 0 0 0 0 0 0 0 0 
0 0 0 0 0 0 0 0 0 
0 0 0 0 0 0 0 0 0 
0 0 0 0 0 0 0 0 0 
0 0 0 0 0 0 0 0 0 
0 0 0 0 0 0 0 0 0 
0 0 0 0 0 0 0 0 0 
0 0 0 0 0 0 0 0 0 
0 0 0 0 0 0 0 0 0 
0 0 0 0 0 0 0 0 0 
0 0 0 0 0 0 0 0 0 
0 0 0 0 0 0 0 0 0 
0 0 0 0 0 0 0 0 0 
0 0 0 0 0 0 0 0 0 
0 0 0 0 0 0 0 0 0 
0 0 0 0 0 0 0 0 0 
0 0 0 0 0 0 0 0 0 
0 0 0 0 0 0 0 0 0 
0 0 0 0 0 0 0 0 0 
0 0 0 0 0 0 0 0 0 
0 0 0 0 0 0 0 0 0 
0 0 0 0 0 0 0 0 0 
0 0 0 0 0 0 0 0 0 
0 0 0 0 0 0 0 0 0 
0 0 0 0 0 0 0 0 0 
0 0 0 0 0 0 0 0 0 
0 0 0 0 0 0 0 0 0 
0 0 0 0 0 0 0 0 0 
0 0 0 0 0 0 0 0 0 
0 0 0 0 0 0 0 0 0 
0 0 0 0 0 0 0 0 0 
0 0 0 0 0 0 0 0 0 
0 0 0 0 0 0 0 0 0 
0 0 0 0 0 0 0 0 0 
0 0 0 0 0 0 0 0 0 
0 0 0 0 0 0 0 0 0 
0 0 0 0 0 0 0 0 0 
0 0 0 0 0 0 0 0 0 
0 0 0 0 0 0 0 0 0 
0 0 0 0 0 0 0 0 0 
0 0 0 0 0 0 0 0 0 
0 0 0 0 0 0 0 0 0 
0 0 0 0 0 0 0 0 0 
0 0 0 0 0 0 0 0 0 
0 0 0 0 0 0 0 0 0 
0 0 0 0 0 0 0 0 0 
0 0 0 0 0 0 0 0 0 
0 0 0 0 0 0 0 0 0 
0 0 0 0 0 0 0 0 0 
0 0 0 0 0 0 0 0 0 
0 0 0 0 0 0 0 0 0 
0 0 0 0 0 0 0 0 0 
0 0 0 0 0 0 0 0 0 
0 0 0 0 0 0 0 0 0 
0 0 0 0 0 0 0 0 0 
0 0 0 0 0 0 0 0 0 
0 0 0 0 0 0 0 0 0 
0 0 0 0 0 0 0 0 0 
0 0 0 0 0 0 0 0 0 
0 0 0 0 0 0 0 0 0 
0 0 0 0 0 0 0 0 0 
0 0 0 0 0 0 0 0 0 
0 0 0 0 0 0 0 0 0 
0 0 0 0 0 0 0 0 0 
0 0 0 0 0 0 0 0 0 
0 0 0 0 0 0 0 0 0 
0 0 0 0 0 0 0 0 0 
0 0 0 0 0 0 0 0 0 
0 0 0 0 0 0 0 0 0 
0 0 0 0 0 0 0 0 0 
0 0 0 0 0 0 0 0 0 
0 0 0 0 0 0 0 0 0 
0 0 0 0 0 0 0 0 0 
0 0 0 0 0 0 0 0 0 
0 0 0 0 0 0 0 0 0 
0 0 0 0 0 0 0 0 0 
0 0 0 0 0 0 0 0 0 
0 0 0 0 0 0 0 0 0 
0 0 0 0 0 0 0 0 0 
0 0 0 0 0 0 0 0 0 
0 0 0 0 0 0 0 0 0 
0 0 0 0 0 0 0 0 0 
0 0 0 0 0 0 0 0 0 
0 0 0 0 0 0 0 0 0 
0 0 0 0 0 0 0 0 0 
0 0 0 0 0 0 0 0 0 
0 0 0 0 0 0 0 0 0 
0 0 0 0 0 0 0 0 0 
0 0 0 0 0 0 0 0 0 
0 0 0 0 0 0 0 0 0 
0 0 0 0 0 0 0 0 0 
0 0 0 0 0 0 0 0 0 
0 0 0 0 0 0 0 0 0 
0 0 0 0 0 0 0 0 0 
0 0 0 0 0 0 0 0 0 
0 0 0 0 0 0 0 0 0 
0 0 0 0 0 0 0 0 0 
0 0 0 0 0 0 0 0 0 
0 0 0 0 0 0 0 0 0 
0 0 0 0 0 0 0 0 0 
0 0 0 0 0 0 0 0 0 
0 0 0 0 0 0 0 0 0 
0 0 0 0 0 0 0 0 0 
0 0 0 0 0 0 0 0 0 
0 0 0 0 0 0 0 0 0 
0 0 0 0 0 0 0 0 0 
0 0 0 0 0 0 0 0 0 
0 0 0 0 0 0 0 0 0 
0 0 0 0 0 0 0 0 0 
0 0 0 0 0 0 0 0 0 
0 0 0 0 0 0 0 0 0 
0 0 0 0 0 0 0 0 0 
0 0 0 0 0 0 0 0 0 
0 0 0 0 0 0 0 0 0 
0 0 0 0 0 0 0 0 0 
0 0 0 0 0 0 0 0 0 
0 0 0 0 0 0 0 0 0 
0 0 0 0 0 0 0 0 0 
0 0 0 0 0 0 0 0 0 
0 0 0 0 0 0 0 0 0 
0 0 0 0 0 0 0 0 0 
0 0 0 0 0 0 0 0 0 
0 0 0 0 0 0 0 0 0 
0 0 0 0 0 0 0 0 0 
0 0 0 0 0 0 0 0 0 
0 0 0 0 0 0 0 0 0 
0 0 0 0 0 0 0 0 0 
0 0 0 0 0 0 0 0 0 
0 0 0 0 0 0 0 0 0 
0 0 0 0 0 0 0 0 0 
0 0 0 0 0 0 0 0 0 
0 0 0 0 0 0 0 0 0 
0 0 0 0 0 0 0 0 0 
0 0 0 0 0 0 0 0 0 
0 0 0 0 0 0 0 0 0 
0 0 0 0 0 0 0 0 0 
0 0 0 0 0 0 0 0 0 
0 0 0 0 0 0 0 0 0 
0 0 0 0 0 0 0 0 0 
0 0 0 0 0 0 0 0 0 
0 0 0 0 0 0 0 0 0 
0 0 0 0 0 0 0 0 0 
0 0 0 0 0 0 0 0 0 
0 0 0 0 0 0 0 0 0 
0 0 0 0 0 0 0 0 0 
0 0 0 0 0 0 0 0 0 
0 0 0 0 0 0 0 0 0 
0 0 0 0 0 0 0 0 0 
0 0 0 0 0 0 0 0 0 
0 0 0 0 0 0 0 0 0 
0 0 0 0 0 0 0 0 0 
0 0 0 0 0 0 0 0 0 
0 0 0 0 0 0 0 0 0 
0 0 0 0 0 0 0 0 0 
0 0 0 0 0 0 0 0 0 
0 0 0 0 0 0 0 0 0 
0 0 0 0 0 0 0 0 0 
0 0 0 0 0 0 0 0 0 
0 0 0 0 0 0 0 0 0 
0 0 0 0 0 0 0 0 0 
0 0 0 0 0 0 0 0 0 
0 0 0 0 0 0 0 0 0 
0 0 0 0 0 0 0 0 0 
0 0 0 0 0 0 0 0 0 
0 0 0 0 0 0 0 0 0 
0 0 0 0 0 0 0 0 0 
0 0 0 0 0 0 0 0 0 
0 0 0 0 0 0 0 0 0 
0 0 0 0 0 0 0 0 0 
0 0 0 0 0 0 0 0 0 
0 0 0 0 0 0 0 0 0 
0 0 0 0 0 0 0 0 0 
0 0 0 0 0 0 0 0 0 
0 0 0 0 0 0 0 0 0 
0 0 0 0 0 0 0 0 0 
0 0 0 0 0 0 0 0 0 
0 0 0 0 0 0 0 0 0 
0 0 0 0 0 0 0 0 0 
0 0 0 0 0 0 0 0 0 
0 0 0 0 0 0 0 0 0 
0 0 0 0 0 0 0 0 0 
0 0 0 0 0 0 0 0 0 
0 0 0 0 0 0 0 0 0 
0 0 0 0 0 0 0 0 0 
0 0 0 0 0 0 0 0 0 
0 0 0 0 0 0 0 0 0 
0 0 0 0 0 0 0 0 0 
0 0 0 0 0 0 0 0 0 
0 0 0 0 0 0 0 0 0 
0 0 0 0 0 0 0 0 0 
0 0 0 0 0 0 0 0 0 
0 0 0 0 0 0 0 0 0 
0 0 0 0 0 0 0 0 0 
0 0 0 0 0 0 0 0 0 
0 0 0 0 0 0 0 0 0 
0 0 0 0 0 0 0 0 0 
0 0 0 0 0 0 0 0 0 
0 0 0 0 0 0 0 0 0 
0 0 0 0 0 0 0 0 0 
0 0 0 0 0 0 0 0 0 
0 0 0 0 0 0 0 0 0 
0 0 0 0 0 0 0 0 0 
0 0 0 0 0 0 0 0 0 
0 0 0 0 0 0 0 0 0 
0 0 0 0 0 0 0 0 0 
0 0 0 0 0 0 0 0 0 
0 0 0 0 0 0 0 0 0 
0 0 0 0 0 0 0 0 0 
0 0 0 0 0 0 0 0 0 
0 0 0 0 0 0 0 0 0 
0 0 0 0 0 0 0 0 0 
0 0 0 0 0 0 0 0 0 
0 0 0 0 0 0 0 0 0 
0 0 0 0 0 0 0 0 0 
0 0 0 0 0 0 0 0 0 
0 0 0 0 0 0 0 0 0 
0 0 0 0 0 0 0 0 0 
0 0 0 0 0 0 0 0 0 
0 0 0 0 0 0 0 0 0 
0 0 0 0 0 0 0 0 0 
0 0 0 0 0 0 0 0 0 
0 0 0 0 0 0 0 0 0 
0 0 0 0 0 0 0 0 0 
0 0 0 0 0 0 0 0 0 
0 0 0 0 0 0 0 0 0 
0 0 0 0 0 0 0 0 0 
0 0 0 0 0 0 0 0 0 
0 0 0 0 0 0 0 0 0 
0 0 0 0 0 0 0 0 0 
0 0 0 0 0 0 0 0 0 
0 0 0 0 0 0 0 0 0 
0 0 0 0 0 0 0 0 0 
0 0 0 0 0 0 0 0 0 
0 0 0 0 0 0 0 0 0 
0 0 0 0 0 0 0 0 0 
0 0 0 0 0 0 0 0 0 
0 0 0 0 0 0 0 0 0 
0 0 0 0 0 0 0 0 0 
0 0 0 0 0 0 0 0 0 
0 0 0 0 0 0 0 0 0 
0 0 0 0 0 0 0 0 0 
0 0 0 0 0 0 0 0 0 
0 0 0 0 0 0 0 0 0 
0 0 0 0 0 0 0 0 0 
0 0 0 0 0 0 0 0 0 
0 0 0 0 0 0 0 0 0 
0 0 0 0 0 0 0 0 0 
0 0 0 0 0 0 0 0 0 
0 0 0 0 0 0 0 0 0 
0 0 0 0 0 0 0 0 0 
0 0 0 0 0 0 0 0 0 
0 0 0 0 0 0 0 0 0 
0 0 0 0 0 0 0 0 0 
0 0 0 0 0 0 0 0 0 
0 0 0 0 0 0 0 0 0 
0 0 0 0 0 0 0 0 0 
0 0 0 0 0 0 0 0 0 
0 0 0 0 0 0 0 0 0 
0 0 0 0 0 0 0 0 0 
0 0 0 0 0 0 0 0 0 
0 0 0 0 0 0 0 0 0 
0 0 0 0 0 0 0 0 0 
0 0 0 0 0 0 0 0 0 
0 0 0 0 0 0 0 0 0 
0 0 0 0 0 0 0 0 0 
0 0 0 0 0 0 0 0 0 
0 0 0 0 0 0 0 0 0 
0 0 0 0 0 0 0 0 0 
0 0 0 0 0 0 0 0 0 
0 0 0 0 0 0 0 0 0 
0 0 0 0 0 0 0 0 0 
0 0 0 0 0 0 0 0 0 
0 0 0 0 0 0 0 0 0 
0 0 0 0 0 0 0 0 0 
0 0 0 0 0 0 0 0 0 
0 0 0 0 0 0 0 0 0 
0 0 0 0 0 0 0 0 0 
0 0 0 0 0 0 0 0 0 
0 0 0 0 0 0 0 0 0 
0 0 0 0 0 0 0 0 0 
0 0 0 0 0 0 0 0 0 
0 0 0 0 0 0 0 0 0 
0 0 0 0 0 0 0 0 0 
0 0 0 0 0 0 0 0 0 
0 0 0 0 0 0 0 0 0 
0 0 0 0 0 0 0 0 0 
0 0 0 0 0 0 0 0 0 
0 0 0 0 0 0 0 0 0 
0 0 0 0 0 0 0 0 0 
0 0 0 0 0 0 0 0 0 
0 0 0 0 0 0 0 0 0 
0 0 0 0 0 0 0 0 0 
0 0 0 0 0 0 0 0 0 
0 0 0 0 0 0 0 0 0 
0 0 0 0 0 0 0 0 0 
0 0 0 0 0 0 0 0 0 
0 0 0 0 0 0 0 0 0 
0 0 0 0 0 0 0 0 0 
0 0 0 0 0 0 0 0 0 
0 0 0 0 0 0 0 0 0 
0 0 0 0 0 0 0 0 0 
0 0 0 0 0 0 0 0 0 
0 0 0 0 0 0 0 0 0 
0 0 0 0 0 0 0 0 0 
0 0 0 0 0 0 0 0 0 
0 0 0 0 0 0 0 0 0 
0 0 0 0 0 0 0 0 0 
0 0 0 0 0 0 0 0 0 
0 0 0 0 0 0 0 0 0 
0 0 0 0 0 0 0 0 0 
0 0 0 0 0 0 0 0 0 
0 0 0 0 0 0 0 0 0 
0 0 0 0 0 0 0 0 0 
0 0 0 0 0 0 0 0 0 
0 0 0 0 0 0 0 0 0 
0 0 0 0 0 0 0 0 0 
0 0 0 0 0 0 0 0 0 
0 0 0 0 0 0 0 0 0 
0 0 0 0 0 0 0 0 0 
0 0 0 0 0 0 0 0 0 
0 0 0 0 0 0 0 0 0 
0 0 0 0 0 0 0 0 0 
0 0 0 0 0 0 0 0 0 
0 0 0 0 0 0 0 0 0 
0 0 0 0 0 0 0 0 0 
0 0 0 0 0 0 0 0 0 
0 0 0 0 0 0 0 0 0 
0 0 0 0 0 0 0 0 0 
0 0 0 0 0 0 0 0 0 
0 0 0 0 0 0 0 0 0 
0 0 0 0 0 0 0 0 0 
0 0 0 0 0 0 0 0 0 
0 0 0 0 0 0 0 0 0 
0 0 0 0 0 0 0 0 0 
0 0 0 0 0 0 0 0 0 
0 0 0 0 0 0 0 0 0 
0 0 0 0 0 0 0 0 0 
0 0 0 0 0 0 0 0 0 
0 0 0 0 0 0 0 0 0 
0 0 0 0 0 0 0 0 0 
0 0 0 0 0 0 0 0 0 
0 0 0 0 0 0 0 0 0 
0 0 0 0 0 0 0 0 0 
0 0 0 0 0 0 0 0 0 
0 0 0 0 0 0 0 0 0 
0 0 0 0 0 0 0 0 0 
0 0 0 0 0 0 0 0 0 
0 0 0 0 0 0 0 0 0 
0 0 0 0 0 0 0 0 0 
0 0 0 0 0 0 0 0 0 
0 0 0 0 0 0 0 0 0 
0 0 0 0 0 0 0 0 0 
0 0 0 0 0 0 0 0 0 
0 0 0 0 0 0 0 0 0 
0 0 0 0 0 0 0 0 0 
0 0 0 0 0 0 0 0 0 
0 0 0 0 0 0 0 0 0 
0 0 0 0 0 0 0 0 0 
0 0 0 0 0 0 0 0 0 
0 0 0 0 0 0 0 0 0 
0 0 0 0 0 0 0 0 0 
0 0 0 0 0 0 0 0 0 
0 0 0 0 0 0 0 0 0 
0 0 0 0 0 0 0 0 0 
0 0 0 0 0 0 0 0 0 
0 0 0 0 0 0 0 0 0 
0 0 0 0 0 0 0 0 0 
0 0 0 0 0 0 0 0 0 
0 0 0 0 0 0 0 0 0 
0 0 0 0 0 0 0 0 0 
0 0 0 0 0 0 0 0 0 
0 0 0 0 0 0 0 0 0 
0 0 0 0 0 0 0 0 0 
0 0 0 0 0 0 0 0 0 
0 0 0 0 0 0 0 0 0 
0 0 0 0 0 0 0 0 0 
0 0 0 0 0 0 0 0 0 
0 0 0 0 0 0 0 0 0 
0 0 0 0 0 0 0 0 0 
0 0 0 0 0 0 0 0 0 
0 0 0 0 0 0 0 0 0 
0 0 0 0 0 0 0 0 0 
0 0 0 0 0 0 0 0 0 
0 0 0 0 0 0 0 0 0 
0 0 0 0 0 0 0 0 0 
0 0 0 0 0 0 0 0 0 
0 0 0 0 0 0 0 0 0 
0 0 0 0 0 0 0 0 0 
0 0 0 0 0 0 0 0 0 
0 0 0 0 0 0 0 0 0 
0 0 0 0 0 0 0 0 0 
0 0 0 0 0 0 0 0 0 
0 0 0 0 0 0 0 0 0 
0 0 0 0 0 0 0 0 0 
0 0 0 0 0 0 0 0 0 
0 0 0 0 0 0 0 0 0 
0 0 0 0 0 0 0 0 0 
0 0 0 0 0 0 0 0 0 
0 0 0 0 0 0 0 0 0 
0 0 0 0 0 0 0 0 0 
0 0 0 0 0 0 0 0 0 
0 0 0 0 0 0 0 0 0 
0 0 0 0 0 0 0 0 0 
0 0 0 0 0 0 0 0 0 
0 0 0 0 0 0 0 0 0 
0 0 0 0 0 0 0 0 0 
0 0 0 0 0 0 0 0 0 
0 0 0 0 0 0 0 0 0 
0 0 0 0 0 0 0 0 0 
0 0 0 0 0 0 0 0 0 
0 0 0 0 0 0 0 0 0 
0 0 0 0 0 0 0 0 0 
0 0 0 0 0 0 0 0 0 
0 0 0 0 0 0 0 0 0 
0 0 0 0 0 0 0 0 0 
0 0 0 0 0 0 0 0 0 
0 0 0 0 0 0 0 0 0 
0 0 0 0 0 0 0 0 0 
0 0 0 0 0 0 0 0 0 
0 0 0 0 0 0 0 0 0 
0 0 0 0 0 0 0 0 0 
0 0 0 0 0 0 0 0 0 
0 0 0 0 0 0 0 0 0 
0 0 0 0 0 0 0 0 0 
0 0 0 0 0 0 0 0 0 
0 0 0 0 0 0 0 0 0 
0 0 0 0 0 0 0 0 0 
0 0 0 0 0 0 0 0 0 
0 0 0 0 0 0 0 0 0 
0 0 0 0 0 0 0 0 0 
0 0 0 0 0 0 0 0 0 
0 0 0 0 0 0 0 0 0 
0 0 0 0 0 0 0 0 0 
0 0 0 0 0 0 0 0 0 
0 0 0 0 0 0 0 0 0 
0 0 0 0 0 0 0 0 0 
0 0 0 0 0 0 0 0 0 
0 0 0 0 0 0 0 0 0 
0 0 0 0 0 0 0 0 0 
0 0 0 0 0 0 0 0 0 
0 0 0 0 0 0 0 0 0 
0 0 0 0 0 0 0 0 0 
0 0 0 0 0 0 0 0 0 
0 0 0 0 0 0 0 0 0 
0 0 0 0 0 0 0 0 0 
0 0 0 0 0 0 0 0 0 
0 0 0 0 0 0 0 0 0 
0 0 0 0 0 0 0 0 0 
0 0 0 0 0 0 0 0 0 
0 0 0 0 0 0 0 0 0 
0 0 0 0 0 0 0 0 0 
0 0 0 0 0 0 0 0 0 
0 0 0 0 0 0 0 0 0 
0 0 0 0 0 0 0 0 0 
0 0 0 0 0 0 0 0 0 
0 0 0 0 0 0 0 0 0 
0 0 0 0 0 0 0 0 0 
0 0 0 0 0 0 0 0 0 
0 0 0 0 0 0 0 0 0 
0 0 0 0 0 0 0 0 0 
0 0 0 0 0 0 0 0 0 
0 0 0 0 0 0 0 0 0 
0 0 0 0 0 0 0 0 0 
0 0 0 0 0 0 0 0 0 
0 0 0 0 0 0 0 0 0 
0 0 0 0 0 0 0 0 0 
0 0 0 0 0 0 0 0 0 
0 0 0 0 0 0 0 0 0 
0 0 0 0 0 0 0 0 0 
0 0 0 0 0 0 0 0 0 
0 0 0 0 0 0 0 0 0 
0 0 0 0 0 0 0 0 0 
0 0 0 0 0 0 0 0 0 
0 0 0 0 0 0 0 0 0 
0 0 0 0 0 0 0 0 0 
0 0 0 0 0 0 0 0 0 
0 0 0 0 0 0 0 0 0 
0 0 0 0 0 0 0 0 0 
0 0 0 0 0 0 0 0 0 
0 0 0 0 0 0 0 0 0 
0 0 0 0 0 0 0 0 0 
0 0 0 0 0 0 0 0 0 
0 0 0 0 0 0 0 0 0 
0 0 0 0 0 0 0 0 0 
0 0 0 0 0 0 0 0 0 
0 0 0 0 0 0 0 0 0 
0 0 0 0 0 0 0 0 0 
0 0 0 0 0 0 0 0 0 
0 0 0 0 0 0 0 0 0 
0 0 0 0 0 0 0 0 0 
0 0 0 0 0 0 0 0 0 
0 0 0 0 0 0 0 0 0 
0 0 0 0 0 0 0 0 0 
0 0 0 0 0 0 0 0 0 
0 0 0 0 0 0 0 0 0 
0 0 0 0 0 0 0 0 0 
0 0 0 0 0 0 0 0 0 
0 0 0 0 0 0 0 0 0 
0 0 0 0 0 0 0 0 0 
0 0 0 0 0 0 0 0 0 
0 0 0 0 0 0 0 0 0 
0 0 0 0 0 0 0 0 0 
0 0 0 0 0 0 0 0 0 
0 0 0 0 0 0 0 0 0 
0 0 0 0 0 0 0 0 0 
0 0 0 0 0 0 0 0 0 
0 0 0 0 0 0 0 0 0 
0 0 0 0 0 0 0 0 0 
0 0 0 0 0 0 0 0 0 
0 0 0 0 0 0 0 0 0 
0 0 0 0 0 0 0 0 0 
0 0 0 0 0 0 0 0 0 
0 0 0 0 0 0 0 0 0 
0 0 0 0 0 0 0 0 0 
0 0 0 0 0 0 0 0 0 
0 0 0 0 0 0 0 0 0 
0 0 0 0 0 0 0 0 0 
0 0 0 0 0 0 0 0 0 
0 0 0 0 0 0 0 0 0 
0 0 0 0 0 0 0 0 0 
0 0 0 0 0 0 0 0 0 
0 0 0 0 0 0 0 0 0 
0 0 0 0 0 0 0 0 0 
0 0 0 0 0 0 0 0 0 
0 0 0 0 0 0 0 0 0 
0 0 0 0 0 0 0 0 0 
0 0 0 0 0 0 0 0 0 
0 0 0 0 0 0 0 0 0 
0 0 0 0 0 0 0 0 0 
0 0 0 0 0 0 0 0 0 
0 0 0 0 0 0 0 0 0 
0 0 0 0 0 0 0 0 0 
0 0 0 0 0 0 0 0 0 
0 0 0 0 0 0 0 0 0 
0 0 0 0 0 0 0 0 0 
0 0 0 0 0 0 0 0 0 
0 0 0 0 0 0 0 0 0 
0 0 0 0 0 0 0 0 0 
0 0 0 0 0 0 0 0 0 
0 0 0 0 0 0 0 0 0 
0 0 0 0 0 0 0 0 0 
0 0 0 0 0 0 0 0 0 
0 0 0 0 0 0 0 0 0 
0 0 0 0 0 0 0 0 0 
0 0 0 0 0 0 0 0 0 
0 0 0 0 0 0 0 0 0 
0 0 0 0 0 0 0 0 0 
0 0 0 0 0 0 0 0 0 
0 0 0 0 0 0 0 0 0 
0 0 0 0 0 0 0 0 0 
0 0 0 0 0 0 0 0 0 
0 0 0 0 0 0 0 0 0 
0 0 0 0 0 0 0 0 0 
0 0 0 0 0 0 0 0 0 
0 0 0 0 0 0 0 0 0 
0 0 0 0 0 0 0 0 0 
0 0 0 0 0 0 0 0 0 
0 0 0 0 0 0 0 0 0 
0 0 0 0 0 0 0 0 0 
0 0 0 0 0 0 0 0 0 
0 0 0 0 0 0 0 0 0 
0 0 0 0 0 0 0 0 0 
0 0 0 0 0 0 0 0 0 
0 0 0 0 0 0 0 0 0 
0 0 0 0 0 0 0 0 0 
0 0 0 0 0 0 0 0 0 
0 0 0 0 0 0 0 0 0 
0 0 0 0 0 0 0 0 0 
0 0 0 0 0 0 0 0 0 
0 0 0 0 0 0 0 0 0 
0 0 0 0 0 0 0 0 0 
0 0 0 0 0 0 0 0 0 
0 0 0 0 0 0 0 0 0 
0 0 0 0 0 0 0 0 0 
0 0 0 0 0 0 0 0 0 
0 0 0 0 0 0 0 0 0 
0 0 0 0 0 0 0 0 0 
0 0 0 0 0 0 0 0 0 
0 0 0 0 0 0 0 0 0 
0 0 0 0 0 0 0 0 0 
0 0 0 0 0 0 0 0 0 
0 0 0 0 0 0 0 0 0 
0 0 0 0 0 0 0 0 0 
0 0 0 0 0 0 0 0 0 
0 0 0 0 0 0 0 0 0 
0 0 0 0 0 0 0 0 0 
0 0 0 0 0 0 0 0 0 
0 0 0 0 0 0 0 0 0 
0 0 0 0 0 0 0 0 0 
0 0 0 0 0 0 0 0 0 
0 0 0 0 0 0 0 0 0 
0 0 0 0 0 0 0 0 0 
0 0 0 0 0 0 0 0 0 
0 0 0 0 0 0 0 0 0 
0 0 0 0 0 0 0 0 0 
0 0 0 0 0 0 0 0 0 
0 0 0 0 0 0 0 0 0 
0 0 0 0 0 0 0 0 0 
0 0 0 0 0 0 0 0 0 
0 0 0 0 0 0 0 0 0 
0 0 0 0 0 0 0 0 0 
0 0 0 0 0 0 0 0 0 
0 0 0 0 0 0 0 0 0 
0 0 0 0 0 0 0 0 0 
0 0 0 0 0 0 0 0 0 
0 0 0 0 0 0 0 0 0 
0 0 0 0 0 0 0 0 0 
0 0 0 0 0 0 0 0 0 
0 0 0 0 0 0 0 0 0 
0 0 0 0 0 0 0 0 0 
0 0 0 0 0 0 0 0 0 
0 0 0 0 0 0 0 0 0 
0 0 0 0 0 0 0 0 0 
0 0 0 0 0 0 0 0 0 
0 0 0 0 0 0 0 0 0 
0 0 0 0 0 0 0 0 0 
0 0 0 0 0 0 0 0 0 
0 0 0 0 0 0 0 0 0 
0 0 0 0 0 0 0 0 0 
0 0 0 0 0 0 0 0 0 
0 0 0 0 0 0 0 0 0 
0 0 0 0 0 0 0 0 0 
0 0 0 0 0 0 0 0 0 
0 0 0 0 0 0 0 0 0 
0 0 0 0 0 0 0 0 0 
0 0 0 0 0 0 0 0 0 
0 0 0 0 0 0 0 0 0 
0 0 0 0 0 0 0 0 0 
0 0 0 0 0 0 0 0 0 
0 0 0 0 0 0 0 0 0 
0 0 0 0 0 0 0 0 0 
0 0 0 0 0 0 0 0 0 
0 0 0 0 0 0 0 0 0 
0 0 0 0 0 0 0 0 0 
0 0 0 0 0 0 0 0 0 
0 0 0 0 0 0 0 0 0 
0 0 0 0 0 0 0 0 0 
0 0 0 0 0 0 0 0 0 
0 0 0 0 0 0 0 0 0 
0 0 0 0 0 0 0 0 0 
0 0 0 0 0 0 0 0 0 
0 0 0 0 0 0 0 0 0 
0 0 0 0 0 0 0 0 0 
0 0 0 0 0 0 0 0 0 
0 0 0 0 0 0 0 0 0 
0 0 0 0 0 0 0 0 0 
0 0 0 0 0 0 0 0 0 
0 0 0 0 0 0 0 0 0 
0 0 0 0 0 0 0 0 0 
0 0 0 0 0 0 0 0 0 
0 0 0 0 0 0 0 0 0 
0 0 0 0 0 0 0 0 0 
0 0 0 0 0 0 0 0 0 
0 0 0 0 0 0 0 0 0 
0 0 0 0 0 0 0 0 0 
0 0 0 0 0 0 0 0 0 
0 0 0 0 0 0 0 0 0 
0 0 0 0 0 0 0 0 0 
0 0 0 0 0 0 0 0 0 
0 0 0 0 0 0 0 0 0 
0 0 0 0 0 0 0 0 0 
0 0 0 0 0 0 0 0 0 
0 0 0 0 0 0 0 0 0 
0 0 0 0 0 0 0 0 0 
0 0 0 0 0 0 0 0 0 
0 0 0 0 0 0 0 0 0 
0 0 0 0 0 0 0 0 0 
0 0 0 0 0 0 0 0 0 
0 0 0 0 0 0 0 0 0 
0 0 0 0 0 0 0 0 0 
0 0 0 0 0 0 0 0 0 
0 0 0 0 0 0 0 0 0 
0 0 0 0 0 0 0 0 0 
0 0 0 0 0 0 0 0 0 
0 0 0 0 0 0 0 0 0 
0 0 0 0 0 0 0 0 0 
0 0 0 0 0 0 0 0 0 
0 0 0 0 0 0 0 0 0 
0 0 0 0 0 0 0 0 0 
0 0 0 0 0 0 0 0 0 
0 0 0 0 0 0 0 0 0 
0 0 0 0 0 0 0 0 0 
0 0 0 0 0 0 0 0 0 
0 0 0 0 0 0 0 0 0 
0 0 0 0 0 0 0 0 0 
0 0 0 0 0 0 0 0 0 
0 0 0 0 0 0 0 0 0 
0 0 0 0 0 0 0 0 0 
0 0 0 0 0 0 0 0 0 
0 0 0 0 0 0 0 0 0 
0 0 0 0 0 0 0 0 0 
0 0 0 0 0 0 0 0 0 
0 0 0 0 0 0 0 0 0 
0 0 0 0 0 0 0 0 0 
0 0 0 0 0 0 0 0 0 
0 0 0 0 0 0 0 0 0 
0 0 0 0 0 0 0 0 0 
0 0 0 0 0 0 0 0 0 
0 0 0 0 0 0 0 0 0 
0 0 0 0 0 0 0 0 0 
0 0 0 0 0 0 0 0 0 
0 0 0 0 0 0 0 0 0 
0 0 0 0 0 0 0 0 0 
0 0 0 0 0 0 0 0 0 
0 0 0 0 0 0 0 0 0 
0 0 0 0 0 0 0 0 0 
0 0 0 0 0 0 0 0 0 
0 0 0 0 0 0 0 0 0 
0 0 0 0 0 0 0 0 0 
0 0 0 0 0 0 0 0 0 
0 0 0 0 0 0 0 0 0 
0 0 0 0 0 0 0 0 0 
0 0 0 0 0 0 0 0 0 
0 0 0 0 0 0 0 0 0 
0 0 0 0 0 0 0 0 0 
0 0 0 0 0 0 0 0 0 
0 0 0 0 0 0 0 0 0 
0 0 0 0 0 0 0 0 0 
0 0 0 0 0 0 0 0 0 
0 0 0 0 0 0 0 0 0 
0 0 0 0 0 0 0 0 0 
0 0 0 0 0 0 0 0 0 
0 0 0 0 0 0 0 0 0 
0 0 0 0 0 0 0 0 0 
0 0 0 0 0 0 0 0 0 
0 0 0 0 0 0 0 0 0 
0 0 0 0 0 0 0 0 0 
0 0 0 0 0 0 0 0 0 
0 0 0 0 0 0 0 0 0 
0 0 0 0 0 0 0 0 0 
0 0 0 0 0 0 0 0 0 
0 0 0 0 0 0 0 0 0 
0 0 0 0 0 0 0 0 0 
0 0 0 0 0 0 0 0 0 
0 0 0 0 0 0 0 0 0 
0 0 0 0 0 0 0 0 0 
0 0 0 0 0 0 0 0 0 
0 0 0 0 0 0 0 0 0 
0 0 0 0 0 0 0 0 0 
0 0 0 0 0 0 0 0 0 
0 0 0 0 0 0 0 0 0 
0 0 0 0 0 0 0 0 0 
0 0 0 0 0 0 0 0 0 
0 0 0 0 0 0 0 0 0 
0 0 0 0 0 0 0 0 0 
0 0 0 0 0 0 0 0 0 
0 0 0 0 0 0 0 0 0 
0 0 0 0 0 0 0 0 0 
0 0 0 0 0 0 0 0 0 
0 0 0 0 0 0 0 0 0 
0 0 0 0 0 0 0 0 0 
0 0 0 0 0 0 0 0 0 
0 0 0 0 0 0 0 0 0 
0 0 0 0 0 0 0 0 0 
0 0 0 0 0 0 0 0 0 
0 0 0 0 0 0 0 0 0 
0 0 0 0 0 0 0 0 0 
0 0 0 0 0 0 0 0 0 
0 0 0 0 0 0 0 0 0 
0 0 0 0 0 0 0 0 0 
0 0 0 0 0 0 0 0 0 
0 0 0 0 0 0 0 0 0 
0 0 0 0 0 0 0 0 0 
0 0 0 0 0 0 0 0 0 
0 0 0 0 0 0 0 0 0 
0 0 0 0 0 0 0 0 0 
0 0 0 0 0 0 0 0 0 
0 0 0 0 0 0 0 0 0 
0 0 0 0 0 0 0 0 0 
0 0 0 0 0 0 0 0 0 
0 0 0 0 0 0 0 0 0 
0 0 0 0 0 0 0 0 0 
0 0 0 0 0 0 0 0 0 
0 0 0 0 0 0 0 0 0 
0 0 0 0 0 0 0 0 0 
0 0 0 0 0 0 0 0 0 
0 0 0 0 0 0 0 0 0 
0 0 0 0 0 0 0 0 0 
0 0 0 0 0 0 0 0 0 
0 0 0 0 0 0 0 0 0 
0 0 0 0 0 0 0 0 0 
0 0 0 0 0 0 0 0 0 
0 0 0 0 0 0 0 0 0 
0 0 0 0 0 0 0 0 0 
0 0 0 0 0 0 0 0 0 
0 0 0 0 0 0 0 0 0 
0 0 0 0 0 0 0 0 0 
0 0 0 0 0 0 0 0 0 
0 0 0 0 0 0 0 0 0 
0 0 0 0 0 0 0 0 0 
0 0 0 0 0 0 0 0 0 
0 0 0 0 0 0 0 0 0 
0 0 0 0 0 0 0 0 0 
0 0 0 0 0 0 0 0 0 
0 0 0 0 0 0 0 0 0 
0 0 0 0 0 0 0 0 0 
0 0 0 0 0 0 0 0 0 
0 0 0 0 0 0 0 0 0 
0 0 0 0 0 0 0 0 0 
0 0 0 0 0 0 0 0 0 
0 0 0 0 0 0 0 0 0 
0 0 0 0 0 0 0 0 0 
0 0 0 0 0 0 0 0 0 
0 0 0 0 0 0 0 0 0 
0 0 0 0 0 0 0 0 0 
0 0 0 0 0 0 0 0 0 
0 0 0 0 0 0 0 0 0 
0 0 0 0 0 0 0 0 0 
0 0 0 0 0 0 0 0 0 
0 0 0 0 0 0 0 0 0 
0 0 0 0 0 0 0 0 0 
0 0 0 0 0 0 0 0 0 
0 0 0 0 0 0 0 0 0 
0 0 0 0 0 0 0 0 0 
0 0 0 0 0 0 0 0 0 
0 0 0 0 0 0 0 0 0 
0 0 0 0 0 0 0 0 0 
0 0 0 0 0 0 0 0 0 
0 0 0 0 0 0 0 0 0 
0 0 0 0 0 0 0 0 0 
0 0 0 0 0 0 0 0 0 
0 0 0 0 0 0 0 0 0 
0 0 0 0 0 0 0 0 0 
0 0 0 0 0 0 0 0 0 
0 0 0 0 0 0 0 0 0 
0 0 0 0 0 0 0 0 0 
0 0 0 0 0 0 0 0 0 
0 0 0 0 0 0 0 0 0 
0 0 0 0 0 0 0 0 0 
0 0 0 0 0 0 0 0 0 
0 0 0 0 0 0 0 0 0 
0 0 0 0 0 0 0 0 0 
0 0 0 0 0 0 0 0 0 
0 0 0 0 0 0 0 0 0 
0 0 0 0 0 0 0 0 0 
0 0 0 0 0 0 0 0 0 
0 0 0 0 0 0 0 0 0 
0 0 0 0 0 0 0 0 0 
0 0 0 0 0 0 0 0 0 
0 0 0 0 0 0 0 0 0 
0 0 0 0 0 0 0 0 0 
0 0 0 0 0 0 0 0 0 
0 0 0 0 0 0 0 0 0 
0 0 0 0 0 0 0 0 0 
0 0 0 0 0 0 0 0 0 
0 0 0 0 0 0 0 0 0 
0 0 0 0 0 0 0 0 0 
0 0 0 0 0 0 0 0 0 
0 0 0 0 0 0 0 0 0 
0 0 0 0 0 0 0 0 0 
0 0 0 0 0 0 0 0 0 
0 0 0 0 0 0 0 0 0 
0 0 0 0 0 0 0 0 0 
0 0 0 0 0 0 0 0 0 
0 0 0 0 0 0 0 0 0 
0 0 0 0 0 0 0 0 0 
0 0 0 0 0 0 0 0 0 
0 0 0 0 0 0 0 0 0 
0 0 0 0 0 0 0 0 0 
0 0 0 0 0 0 0 0 0 
0 0 0 0 0 0 0 0 0 
0 0 0 0 0 0 0 0 0 
0 0 0 0 0 0 0 0 0 
0 0 0 0 0 0 0 0 0 
0 0 0 0 0 0 0 0 0 
0 0 0 0 0 0 0 0 0 
0 0 0 0 0 0 0 0 0 
0 0 0 0 0 0 0 0 0 
0 0 0 0 0 0 0 0 0 
0 0 0 0 0 0 0 0 0 
0 0 0 0 0 0 0 0 0 
0 0 0 0 0 0 0 0 0 
0 0 0 0 0 0 0 0 0 
0 0 0 0 0 0 0 0 0 
0 0 0 0 0 0 0 0 0 
0 0 0 0 0 0 0 0 0 
0 0 0 0 0 0 0 0 0 
0 0 0 0 0 0 0 0 0 
0 0 0 0 0 0 0 0 0 
0 0 0 0 0 0 0 0 0 
0 0 0 0 0 0 0 0 0 
0 0 0 0 0 0 0 0 0 
0 0 0 0 0 0 0 0 0 
0 0 0 0 0 0 0 0 0 
0 0 0 0 0 0 0 0 0 
0 0 0 0 0 0 0 0 0 
0 0 0 0 0 0 0 0 0 
0 0 0 0 0 0 0 0 0 
0 0 0 0 0 0 0 0 0 
0 0 0 0 0 0 0 0 0 
0 0 0 0 0 0 0 0 0 
0 0 0 0 0 0 0 0 0 
0 0 0 0 0 0 0 0 0 
0 0 0 0 0 0 0 0 0 
0 0 0 0 0 0 0 0 0 
0 0 0 0 0 0 0 0 0 
0 0 0 0 0 0 0 0 0 
0 0 0 0 0 0 0 0 0 
0 0 0 0 0 0 0 0 0 
0 0 0 0 0 0 0 0 0 
0 0 0 0 0 0 0 0 0 
0 0 0 0 0 0 0 0 0 
0 0 0 0 0 0 0 0 0 
0 0 0 0 0 0 0 0 0 
0 0 0 0 0 0 0 0 0 
0 0 0 0 0 0 0 0 0 
0 0 0 0 0 0 0 0 0 
0 0 0 0 0 0 0 0 0 
0 0 0 0 0 0 0 0 0 
0 0 0 0 0 0 0 0 0 
0 0 0 0 0 0 0 0 0 
0 0 0 0 0 0 0 0 0 
0 0 0 0 0 0 0 0 0 
0 0 0 0 0 0 0 0 0 
0 0 0 0 0 0 0 0 0 
0 0 0 0 0 0 0 0 0 
0 0 0 0 0 0 0 0 0 
0 0 0 0 0 0 0 0 0 
0 0 0 0 0 0 0 0 0 
0 0 0 0 0 0 0 0 0 
0 0 0 0 0 0 0 0 0 
0 0 0 0 0 0 0 0 0 
0 0 0 0 0 0 0 0 0 
0 0 0 0 0 0 0 0 0 
0 0 0 0 0 0 0 0 0 
0 0 0 0 0 0 0 0 0 
0 0 0 0 0 0 0 0 0 
0 0 0 0 0 0 0 0 0 
0 0 0 0 0 0 0 0 0 
0 0 0 0 0 0 0 0 0 
0 0 0 0 0 0 0 0 0 
0 0 0 0 0 0 0 0 0 
0 0 0 0 0 0 0 0 0 
0 0 0 0 0 0 0 0 0 
0 0 0 0 0 0 0 0 0 
0 0 0 0 0 0 0 0 0 
0 0 0 0 0 0 0 0 0 
0 0 0 0 0 0 0 0 0 
0 0 0 0 0 0 0 0 0 
0 0 0 0 0 0 0 0 0 
0 0 0 0 0 0 0 0 0 
0 0 0 0 0 0 0 0 0 
0 0 0 0 0 0 0 0 0 
0 0 0 0 0 0 0 0 0 
0 0 0 0 0 0 0 0 0 
0 0 0 0 0 0 0 0 0 
0 0 0 0 0 0 0 0 0 
0 0 0 0 0 0 0 0 0 
0 0 0 0 0 0 0 0 0 
0 0 0 0 0 0 0 0 0 
0 0 0 0 0 0 0 0 0 
0 0 0 0 0 0 0 0 0 
0 0 0 0 0 0 0 0 0 
0 0 0 0 0 0 0 0 0 
0 0 0 0 0 0 0 0 0 
0 0 0 0 0 0 0 0 0 
0 0 0 0 0 0 0 0 0 
0 0 0 0 0 0 0 0 0 
0 0 0 0 0 0 0 0 0 
0 0 0 0 0 0 0 0 0 
0 0 0 0 0 0 0 0 0 
0 0 0 0 0 0 0 0 0 
0 0 0 0 0 0 0 0 0 
0 0 0 0 0 0 0 0 0 
0 0 0 0 0 0 0 0 0 
0 0 0 0 0 0 0 0 0 
0 0 0 0 0 0 0 0 0 
0 0 0 0 0 0 0 0 0 
0 0 0 0 0 0 0 0 0 
0 0 0 0 0 0 0 0 0 
0 0 0 0 0 0 0 0 0 
0 0 0 0 0 0 0 0 0 
0 0 0 0 0 0 0 0 0 
0 0 0 0 0 0 0 0 0 
0 0 0 0 0 0 0 0 0 
0 0 0 0 0 0 0 0 0 
0 0 0 0 0 0 0 0 0 
0 0 0 0 0 0 0 0 0 
0 0 0 0 0 0 0 0 0 
0 0 0 0 0 0 0 0 0 
0 0 0 0 0 0 0 0 0 
0 0 0 0 0 0 0 0 0 
0 0 0 0 0 0 0 0 0 
0 0 0 0 0 0 0 0 0 
0 0 0 0 0 0 0 0 0 
0 0 0 0 0 0 0 0 0 
0 0 0 0 0 0 0 0 0 
0 0 0 0 0 0 0 0 0 
0 0 0 0 0 0 0 0 0 
0 0 0 0 0 0 0 0 0 
0 0 0 0 0 0 0 0 0 
0 0 0 0 0 0 0 0 0 
0 0 0 0 0 0 0 0 0 
0 0 0 0 0 0 0 0 0 
0 0 0 0 0 0 0 0 0 
0 0 0 0 0 0 0 0 0 
0 0 0 0 0 0 0 0 0 
0 0 0 0 0 0 0 0 0 
0 0 0 0 0 0 0 0 0 
0 0 0 0 0 0 0 0 0 
0 0 0 0 0 0 0 0 0 
0 0 0 0 0 0 0 0 0 
0 0 0 0 0 0 0 0 0 
0 0 0 0 0 0 0 0 0 
0 0 0 0 0 0 0 0 0 
0 0 0 0 0 0 0 0 0 
0 0 0 0 0 0 0 0 0 
0 0 0 0 0 0 0 0 0 
0 0 0 0 0 0 0 0 0 
0 0 0 0 0 0 0 0 0 
0 0 0 0 0 0 0 0 0 
0 0 0 0 0 0 0 0 0 
0 0 0 0 0 0 0 0 0 
0 0 0 0 0 0 0 0 0 
0 0 0 0 0 0 0 0 0 
0 0 0 0 0 0 0 0 0 
0 0 0 0 0 0 0 0 0 
0 0 0 0 0 0 0 0 0 
0 0 0 0 0 0 0 0 0 
0 0 0 0 0 0 0 0 0 
0 0 0 0 0 0 0 0 0 
0 0 0 0 0 0 0 0 0 
0 0 0 0 0 0 0 0 0 
0 0 0 0 0 0 0 0 0 
0 0 0 0 0 0 0 0 0 
0 0 0 0 0 0 0 0 0 
0 0 0 0 0 0 0 0 0 
0 0 0 0 0 0 0 0 0 
0 0 0 0 0 0 0 0 0 
0 0 0 0 0 0 0 0 0 
0 0 0 0 0 0 0 0 0 
0 0 0 0 0 0 0 0 0 
0 0 0 0 0 0 0 0 0 
0 0 0 0 0 0 0 0 0 
0 0 0 0 0 0 0 0 0 
0 0 0 0 0 0 0 0 0 
0 0 0 0 0 0 0 0 0 
0 0 0 0 0 0 0 0 0 
0 0 0 0 0 0 0 0 0 
0 0 0 0 0 0 0 0 0 
0 0 0 0 0 0 0 0 0 
0 0 0 0 0 0 0 0 0 
0 0 0 0 0 0 0 0 0 
0 0 0 0 0 0 0 0 0 
0 0 0 0 0 0 0 0 0 
0 0 0 0 0 0 0 0 0 
0 0 0 0 0 0 0 0 0 
0 0 0 0 0 0 0 0 0 
0 0 0 0 0 0 0 0 0 
0 0 0 0 0 0 0 0 0 
0 0 0 0 0 0 0 0 0 
0 0 0 0 0 0 0 0 0 
0 0 0 0 0 0 0 0 0 
0 0 0 0 0 0 0 0 0 
0 0 0 0 0 0 0 0 0 
0 0 0 0 0 0 0 0 0 
0 0 0 0 0 0 0 0 0 
0 0 0 0 0 0 0 0 0 
0 0 0 0 0 0 0 0 0 
0 0 0 0 0 0 0 0 0 
0 0 0 0 0 0 0 0 0 
0 0 0 0 0 0 0 0 0 
0 0 0 0 0 0 0 0 0 
0 0 0 0 0 0 0 0 0 
0 0 0 0 0 0 0 0 0 
0 0 0 0 0 0 0 0 0 
0 0 0 0 0 0 0 0 0 
0 0 0 0 0 0 0 0 0 
0 0 0 0 0 0 0 0 0 
0 0 0 0 0 0 0 0 0 
0 0 0 0 0 0 0 0 0 
0 0 0 0 0 0 0 0 0 
0 0 0 0 0 0 0 0 0 
0 0 0 0 0 0 0 0 0 
0 0 0 0 0 0 0 0 0 
0 0 0 0 0 0 0 0 0 
0 0 0 0 0 0 0 0 0 
0 0 0 0 0 0 0 0 0 
0 0 0 0 0 0 0 0 0 
0 0 0 0 0 0 0 0 0 
0 0 0 0 0 0 0 0 0 
0 0 0 0 0 0 0 0 0 
0 0 0 0 0 0 0 0 0 
0 0 0 0 0 0 0 0 0 
0 0 0 0 0 0 0 0 0 
0 0 0 0 0 0 0 0 0 
0 0 0 0 0 0 0 0 0 
0 0 0 0 0 0 0 0 0 
0 0 0 0 0 0 0 0 0 
0 0 0 0 0 0 0 0 0 
0 0 0 0 0 0 0 0 0 
0 0 0 0 0 0 0 0 0 
0 0 0 0 0 0 0 0 0 
0 0 0 0 0 0 0 0 0 
0 0 0 0 0 0 0 0 0 
0 0 0 0 0 0 0 0 0 
0 0 0 0 0 0 0 0 0 
0 0 0 0 0 0 0 0 0 
0 0 0 0 0 0 0 0 0 
0 0 0 0 0 0 0 0 0 
0 0 0 0 0 0 0 0 0 
0 0 0 0 0 0 0 0 0 
0 0 0 0 0 0 0 0 0 
0 0 0 0 0 0 0 0 0 
0 0 0 0 0 0 0 0 0 
0 0 0 0 0 0 0 0 0 
0 0 0 0 0 0 0 0 0 
0 0 0 0 0 0 0 0 0 
0 0 0 0 0 0 0 0 0 
0 0 0 0 0 0 0 0 0 
0 0 0 0 0 0 0 0 0 
0 0 0 0 0 0 0 0 0 
0 0 0 0 0 0 0 0 0 
0 0 0 0 0 0 0 0 0 
0 0 0 0 0 0 0 0 0 
0 0 0 0 0 0 0 0 0 
0 0 0 0 0 0 0 0 0 
0 0 0 0 0 0 0 0 0 
0 0 0 0 0 0 0 0 0 
0 0 0 0 0 0 0 0 0 
0 0 0 0 0 0 0 0 0 
0 0 0 0 0 0 0 0 0 
0 0 0 0 0 0 0 0 0 
0 0 0 0 0 0 0 0 0 
0 0 0 0 0 0 0 0 0 
0 0 0 0 0 0 0 0 0 
0 0 0 0 0 0 0 0 0 
0 0 0 0 0 0 0 0 0 
0 0 0 0 0 0 0 0 0 
0 0 0 0 0 0 0 0 0 
0 0 0 0 0 0 0 0 0 
0 0 0 0 0 0 0 0 0 
0 0 0 0 0 0 0 0 0 
0 0 0 0 0 0 0 0 0 
0 0 0 0 0 0 0 0 0 
0 0 0 0 0 0 0 0 0 
0 0 0 0 0 0 0 0 0 
0 0 0 0 0 0 0 0 0 
0 0 0 0 0 0 0 0 0 
0 0 0 0 0 0 0 0 0 
0 0 0 0 0 0 0 0 0 
0 0 0 0 0 0 0 0 0 
0 0 0 0 0 0 0 0 0 
0 0 0 0 0 0 0 0 0 
0 0 0 0 0 0 0 0 0 
0 0 0 0 0 0 0 0 0 
0 0 0 0 0 0 0 0 0 
0 0 0 0 0 0 0 0 0 
0 0 0 0 0 0 0 0 0 
0 0 0 0 0 0 0 0 0 
0 0 0 0 0 0 0 0 0 
0 0 0 0 0 0 0 0 0 
0 0 0 0 0 0 0 0 0 
0 0 0 0 0 0 0 0 0 
0 0 0 0 0 0 0 0 0 
0 0 0 0 0 0 0 0 0 
0 0 0 0 0 0 0 0 0 
0 0 0 0 0 0 0 0 0 
0 0 0 0 0 0 0 0 0 
0 0 0 0 0 0 0 0 0 
0 0 0 0 0 0 0 0 0 
0 0 0 0 0 0 0 0 0 
0 0 0 0 0 0 0 0 0 
0 0 0 0 0 0 0 0 0 
0 0 0 0 0 0 0 0 0 
0 0 0 0 0 0 0 0 0 
0 0 0 0 0 0 0 0 0 
0 0 0 0 0 0 0 0 0 
0 0 0 0 0 0 0 0 0 
0 0 0 0 0 0 0 0 0 
0 0 0 0 0 0 0 0 0 
0 0 0 0 0 0 0 0 0 
0 0 0 0 0 0 0 0 0 
0 0 0 0 0 0 0 0 0 
0 0 0 0 0 0 0 0 0 
0 0 0 0 0 0 0 0 0 
0 0 0 0 0 0 0 0 0 
0 0 0 0 0 0 0 0 0 
0 0 0 0 0 0 0 0 0 
0 0 0 0 0 0 0 0 0 
0 0 0 0 0 0 0 0 0 
0 0 0 0 0 0 0 0 0 
0 0 0 0 0 0 0 0 0 
0 0 0 0 0 0 0 0 0 
0 0 0 0 0 0 0 0 0 
0 0 0 0 0 0 0 0 0 
0 0 0 0 0 0 0 0 0 
0 0 0 0 0 0 0 0 0 
0 0 0 0 0 0 0 0 0 
0 0 0 0 0 0 0 0 0 
0 0 0 0 0 0 0 0 0 
0 0 0 0 0 0 0 0 0 
0 0 0 0 0 0 0 0 0 
0 0 0 0 0 0 0 0 0 
0 0 0 0 0 0 0 0 0 
0 0 0 0 0 0 0 0 0 
0 0 0 0 0 0 0 0 0 
0 0 0 0 0 0 0 0 0 
0 0 0 0 0 0 0 0 0 
0 0 0 0 0 0 0 0 0 
0 0 0 0 0 0 0 0 0 
0 0 0 0 0 0 0 0 0 
0 0 0 0 0 0 0 0 0 
0 0 0 0 0 0 0 0 0 
0 0 0 0 0 0 0 0 0 
0 0 0 0 0 0 0 0 0 
0 0 0 0 0 0 0 0 0 
0 0 0 0 0 0 0 0 0 
0 0 0 0 0 0 0 0 0 
0 0 0 0 0 0 0 0 0 
0 0 0 0 0 0 0 0 0 
0 0 0 0 0 0 0 0 0 
0 0 0 0 0 0 0 0 0 
0 0 0 0 0 0 0 0 0 
0 0 0 0 0 0 0 0 0 
0 0 0 0 0 0 0 0 0 
0 0 0 0 0 0 0 0 0 
0 0 0 0 0 0 0 0 0 
0 0 0 0 0 0 0 0 0 
0 0 0 0 0 0 0 0 0 
0 0 0 0 0 0 0 0 0 
0 0 0 0 0 0 0 0 0 
0 0 0 0 0 0 0 0 0 
0 0 0 0 0 0 0 0 0 
0 0 0 0 0 0 0 0 0 
0 0 0 0 0 0 0 0 0 
0 0 0 0 0 0 0 0 0 
0 0 0 0 0 0 0 0 0 
0 0 0 0 0 0 0 0 0 
0 0 0 0 0 0 0 0 0 
0 0 0 0 0 0 0 0 0 
0 0 0 0 0 0 0 0 0 
0 0 0 0 0 0 0 0 0 
0 0 0 0 0 0 0 0 0 
0 0 0 0 0 0 0 0 0 
0 0 0 0 0 0 0 0 0 
0 0 0 0 0 0 0 0 0 
0 0 0 0 0 0 0 0 0 
0 0 0 0 0 0 0 0 0 
0 0 0 0 0 0 0 0 0 
0 0 0 0 0 0 0 0 0 
0 0 0 0 0 0 0 0 0 
0 0 0 0 0 0 0 0 0 
0 0 0 0 0 0 0 0 0 
0 0 0 0 0 0 0 0 0 
0 0 0 0 0 0 0 0 0 
0 0 0 0 0 0 0 0 0 
0 0 0 0 0 0 0 0 0 
0 0 0 0 0 0 0 0 0 
0 0 0 0 0 0 0 0 0 
0 0 0 0 0 0 0 0 0 
0 0 0 0 0 0 0 0 0 
0 0 0 0 0 0 0 0 0 
0 0 0 0 0 0 0 0 0 
0 0 0 0 0 0 0 0 0 
0 0 0 0 0 0 0 0 0 
0 0 0 0 0 0 0 0 0 
0 0 0 0 0 0 0 0 0 
0 0 0 0 0 0 0 0 0 
0 0 0 0 0 0 0 0 0 
0 0 0 0 0 0 0 0 0 
0 0 0 0 0 0 0 0 0 
0 0 0 0 0 0 0 0 0 
0 0 0 0 0 0 0 0 0 
0 0 0 0 0 0 0 0 0 
0 0 0 0 0 0 0 0 0 
0 0 0 0 0 0 0 0 0 
0 0 0 0 0 0 0 0 0 
0 0 0 0 0 0 0 0 0 
0 0 0 0 0 0 0 0 0 
0 0 0 0 0 0 0 0 0 
0 0 0 0 0 0 0 0 0 
0 0 0 0 0 0 0 0 0 
0 0 0 0 0 0 0 0 0 
0 0 0 0 0 0 0 0 0 
0 0 0 0 0 0 0 0 0 
0 0 0 0 0 0 0 0 0 
0 0 0 0 0 0 0 0 0 
0 0 0 0 0 0 0 0 0 
0 0 0 0 0 0 0 0 0 
0 0 0 0 0 0 0 0 0 
0 0 0 0 0 0 0 0 0 
0 0 0 0 0 0 0 0 0 
0 0 0 0 0 0 0 0 0 
0 0 0 0 0 0 0 0 0 
0 0 0 0 0 0 0 0 0 
0 0 0 0 0 0 0 0 0 
0 0 0 0 0 0 0 0 0 
0 0 0 0 0 0 0 0 0 
0 0 0 0 0 0 0 0 0 
0 0 0 0 0 0 0 0 0 
0 0 0 0 0 0 0 0 0 
0 0 0 0 0 0 0 0 0 
0 0 0 0 0 0 0 0 0 
0 0 0 0 0 0 0 0 0 
0 0 0 0 0 0 0 0 0 
0 0 0 0 0 0 0 0 0 
0 0 0 0 0 0 0 0 0 
0 0 0 0 0 0 0 0 0 
0 0 0 0 0 0 0 0 0 
0 0 0 0 0 0 0 0 0 
0 0 0 0 0 0 0 0 0 
0 0 0 0 0 0 0 0 0 
0 0 0 0 0 0 0 0 0 
0 0 0 0 0 0 0 0 0 
0 0 0 0 0 0 0 0 0 
0 0 0 0 0 0 0 0 0 
0 0 0 0 0 0 0 0 0 
0 0 0 0 0 0 0 0 0 
0 0 0 0 0 0 0 0 0 
0 0 0 0 0 0 0 0 0 
0 0 0 0 0 0 0 0 0 
0 0 0 0 0 0 0 0 0 
0 0 0 0 0 0 0 0 0 
0 0 0 0 0 0 0 0 0 
0 0 0 0 0 0 0 0 0 
0 0 0 0 0 0 0 0 0 
0 0 0 0 0 0 0 0 0 
0 0 0 0 0 0 0 0 0 
0 0 0 0 0 0 0 0 0 
0 0 0 0 0 0 0 0 0 
0 0 0 0 0 0 0 0 0 
0 0 0 0 0 0 0 0 0 
0 0 0 0 0 0 0 0 0 
0 0 0 0 0 0 0 0 0 
0 0 0 0 0 0 0 0 0 
0 0 0 0 0 0 0 0 0 
0 0 0 0 0 0 0 0 0 
0 0 0 0 0 0 0 0 0 
0 0 0 0 0 0 0 0 0 
0 0 0 0 0 0 0 0 0 
0 0 0 0 0 0 0 0 0 
0 0 0 0 0 0 0 0 0 
0 0 0 0 0 0 0 0 0 
0 0 0 0 0 0 0 0 0 
0 0 0 0 0 0 0 0 0 
0 0 0 0 0 0 0 0 0 
0 0 0 0 0 0 0 0 0 
0 0 0 0 0 0 0 0 0 
0 0 0 0 0 0 0 0 0 
0 0 0 0 0 0 0 0 0 
0 0 0 0 0 0 0 0 0 
0 0 0 0 0 0 0 0 0 
0 0 0 0 0 0 0 0 0 
0 0 0 0 0 0 0 0 0 
0 0 0 0 0 0 0 0 0 
0 0 0 0 0 0 0 0 0 
0 0 0 0 0 0 0 0 0 
0 0 0 0 0 0 0 0 0 
0 0 0 0 0 0 0 0 0 
0 0 0 0 0 0 0 0 0 
0 0 0 0 0 0 0 0 0 
0 0 0 0 0 0 0 0 0 
0 0 0 0 0 0 0 0 0 
0 0 0 0 0 0 0 0 0 
0 0 0 0 0 0 0 0 0 
0 0 0 0 0 0 0 0 0 
0 0 0 0 0 0 0 0 0 
0 0 0 0 0 0 0 0 0 
0 0 0 0 0 0 0 0 0 
0 0 0 0 0 0 0 0 0 
0 0 0 0 0 0 0 0 0 
0 0 0 0 0 0 0 0 0 
0 0 0 0 0 0 0 0 0 
0 0 0 0 0 0 0 0 0 
0 0 0 0 0 0 0 0 0 
0 0 0 0 0 0 0 0 0 
0 0 0 0 0 0 0 0 0 
0 0 0 0 0 0 0 0 0 
0 0 0 0 0 0 0 0 0 
0 0 0 0 0 0 0 0 0 
0 0 0 0 0 0 0 0 0 
0 0 0 0 0 0 0 0 0 
0 0 0 0 0 0 0 0 0 
0 0 0 0 0 0 0 0 0 
0 0 0 0 0 0 0 0 0 
0 0 0 0 0 0 0 0 0 
0 0 0 0 0 0 0 0 0 
0 0 0 0 0 0 0 0 0 
0 0 0 0 0 0 0 0 0 
0 0 0 0 0 0 0 0 0 
0 0 0 0 0 0 0 0 0 
0 0 0 0 0 0 0 0 0 
0 0 0 0 0 0 0 0 0 
0 0 0 0 0 0 0 0 0 
0 0 0 0 0 0 0 0 0 
0 0 0 0 0 0 0 0 0 
0 0 0 0 0 0 0 0 0 
0 0 0 0 0 0 0 0 0 
0 0 0 0 0 0 0 0 0 
0 0 0 0 0 0 0 0 0 
0 0 0 0 0 0 0 0 0 
0 0 0 0 0 0 0 0 0 
0 0 0 0 0 0 0 0 0 
0 0 0 0 0 0 0 0 0 
0 0 0 0 0 0 0 0 0 
0 0 0 0 0 0 0 0 0 
0 0 0 0 0 0 0 0 0 
0 0 0 0 0 0 0 0 0 
0 0 0 0 0 0 0 0 0 
0 0 0 0 0 0 0 0 0 
0 0 0 0 0 0 0 0 0 
0 0 0 0 0 0 0 0 0 
0 0 0 0 0 0 0 0 0 
0 0 0 0 0 0 0 0 0 
0 0 0 0 0 0 0 0 0 
0 0 0 0 0 0 0 0 0 
0 0 0 0 0 0 0 0 0 
0 0 0 0 0 0 0 0 0 
0 0 0 0 0 0 0 0 0 
0 0 0 0 0 0 0 0 0 
0 0 0 0 0 0 0 0 0 
0 0 0 0 0 0 0 0 0 
0 0 0 0 0 0 0 0 0 
0 0 0 0 0 0 0 0 0 
0 0 0 0 0 0 0 0 0 
0 0 0 0 0 0 0 0 0 
0 0 0 0 0 0 0 0 0 
0 0 0 0 0 0 0 0 0 
0 0 0 0 0 0 0 0 0 
0 0 0 0 0 0 0 0 0 
0 0 0 0 0 0 0 0 0 
0 0 0 0 0 0 0 0 0 
0 0 0 0 0 0 0 0 0 
0 0 0 0 0 0 0 0 0 
0 0 0 0 0 0 0 0 0 
0 0 0 0 0 0 0 0 0 
0 0 0 0 0 0 0 0 0 
0 0 0 0 0 0 0 0 0 
0 0 0 0 0 0 0 0 0 
0 0 0 0 0 0 0 0 0 
0 0 0 0 0 0 0 0 0 
0 0 0 0 0 0 0 0 0 
0 0 0 0 0 0 0 0 0 
0 0 0 0 0 0 0 0 0 
0 0 0 0 0 0 0 0 0 
0 0 0 0 0 0 0 0 0 
0 0 0 0 0 0 0 0 0 
0 0 0 0 0 0 0 0 0 
0 0 0 0 0 0 0 0 0 
0 0 0 0 0 0 0 0 0 
0 0 0 0 0 
METADATA
COMPONENT_NAMES
STR

